CRYSTAL
PRIMVEC
 5.43000000000000 0.00000000000000 0.00000000000000
 0.00000000000000 5.43000000000000 0.00000000000000
 0.00000000000000 0.00000000000000 5.43000000000000
PRIMCOORD
 8 1
 14     0.00000000000000     0.00000000000000     0.00000000000000
 14     1.35750000000000     1.35750000000000     1.35750000000000
 14     0.00000000000000     2.71500000000000     2.71500000000000
 14     1.35750000000000     4.07250000000000     4.07250000000000
 14     2.71500000000000     0.00000000000000     2.71500000000000
 14     4.07250000000000     1.35750000000000     4.07250000000000
 14     2.71500000000000     2.71500000000000     0.00000000000000
 14     4.07250000000000     4.07250000000000     1.35750000000000
