
     Program PWSCF v.7.5 starts on 19Nov2025 at 23: 3:43 

     This program is part of the open-source Quantum ESPRESSO suite
     for quantum simulation of materials; please cite
         "P. Giannozzi et al., J. Phys.:Condens. Matter 21 395502 (2009);
         "P. Giannozzi et al., J. Phys.:Condens. Matter 29 465901 (2017);
         "P. Giannozzi et al., J. Chem. Phys. 152 154105 (2020);
          URL http://www.quantum-espresso.org", 
     in publications or presentations arising from this work. More details at
     http://www.quantum-espresso.org/quote

     Parallel version (MPI & OpenMP), running on      40 processor cores
     Number of MPI processes:                20
     Threads/MPI process:                     2

     MPI processes distributed on     1 nodes
     95599 MiB available memory on the printing compute node when the environment starts

     Reading input from espresso.pwi
Warning: card &CELL ignored
Warning: card &FCP ignored
Warning: card &RISM ignored

     Current dimensions of program PWSCF are:
     Max number of different atomic species (ntypx) = 10
     Max number of k-points (npk) =  40000
     Max angular momentum in pseudopotentials (lmaxx) =  4

     IMPORTANT: XC functional enforced from input :
     Exchange-correlation= PBE
                           (   1   4   3   4   0   0   0)
     Any further DFT definition will be discarded
     Please, verify this is what you really want

     Message from routine setup:
     using ibrav=0 with symmetry is DISCOURAGED, use correct ibrav instead

     K-points division:     npool     =       2
     R & G space division:  proc/nbgrp/npool/nimage =      10
     Subspace diagonalization in iterative solution of the eigenvalue problem:
     a serial algorithm will be used


     Parallelization info
     --------------------
     sticks:   dense  smooth     PW     G-vecs:    dense   smooth      PW
     Min          72      72     21                 1267     1267     210
     Max          73      73     22                 1269     1269     211
     Sum         721     721    211                12675    12675    2109

     Using Slab Decomposition



     bravais-lattice index     =            0
     lattice parameter (alat)  =       7.2290  a.u.
     unit-cell volume          =     267.1335 (a.u.)^3
     number of atoms/cell      =            2
     number of atomic types    =            1
     number of electrons       =         8.00
     number of Kohn-Sham states=            8
     kinetic-energy cutoff     =      50.0000  Ry
     charge density cutoff     =     200.0000  Ry
     scf convergence threshold =      1.0E-08
     mixing beta               =       0.7000
     number of iterations used =            8  plain     mixing
     Exchange-correlation= PBE
                           (   1   4   3   4   0   0   0)

     celldm(1)=   7.229048  celldm(2)=   0.000000  celldm(3)=   0.000000
     celldm(4)=   0.000000  celldm(5)=   0.000000  celldm(6)=   0.000000

     crystal axes: (cart. coord. in units of alat)
               a(1) = (   0.000000   0.707107   0.707107 )  
               a(2) = (   0.707107   0.000000   0.707107 )  
               a(3) = (   0.707107   0.707107   0.000000 )  

     reciprocal axes: (cart. coord. in units 2 pi/alat)
               b(1) = ( -0.707107  0.707107  0.707107 )  
               b(2) = (  0.707107 -0.707107  0.707107 )  
               b(3) = (  0.707107  0.707107 -0.707107 )  


     PseudoPot. # 1 for Si read from file:
     ./pseudos/Si.vbc.UPF
     MD5 check sum: d06a52ee316867a20b327bc00851096c
     Pseudo is Norm-conserving, Zval =  4.0
     Generated by new atomic code, or converted to UPF format
     Using radial grid of  431 points,  2 beta functions with: 
                l(1) =   0
                l(2) =   1

     atomic species   valence    mass     pseudopotential
     Si                4.00    28.08500     Si( 1.00)

     48 Sym. Ops., with inversion, found (24 have fractional translation)



   Cartesian axes

     site n.     atom                  positions (alat units)
         1        Si     tau(   1) = (   0.0000000   0.0000000   0.0000000  )
         2        Si     tau(   2) = (   0.3535534   0.3535534   0.3535534  )

     number of k points=    16  Gaussian smearing, width (Ry)=  0.0100
                       cart. coord. in units 2pi/alat
        k(    1) = (   0.0000000   0.0000000   0.0000000), wk =   0.0092593
        k(    2) = (   0.1178511   0.1178511  -0.1178511), wk =   0.0740741
        k(    3) = (   0.2357023   0.2357023  -0.2357023), wk =   0.0740741
        k(    4) = (  -0.3535534  -0.3535534   0.3535534), wk =   0.0370370
        k(    5) = (   0.2357023   0.0000000   0.0000000), wk =   0.0555556
        k(    6) = (   0.3535534   0.1178511  -0.1178511), wk =   0.2222222
        k(    7) = (  -0.2357023  -0.4714045   0.4714045), wk =   0.2222222
        k(    8) = (  -0.1178511  -0.3535534   0.3535534), wk =   0.2222222
        k(    9) = (   0.0000000  -0.2357023   0.2357023), wk =   0.1111111
        k(   10) = (   0.4714045   0.0000000   0.0000000), wk =   0.0555556
        k(   11) = (  -0.1178511  -0.5892557   0.5892557), wk =   0.2222222
        k(   12) = (  -0.0000000  -0.4714045   0.4714045), wk =   0.1111111
        k(   13) = (  -0.7071068   0.0000000   0.0000000), wk =   0.0277778
        k(   14) = (  -0.2357023  -0.4714045   0.7071068), wk =   0.2222222
        k(   15) = (  -0.1178511  -0.3535534   0.5892557), wk =   0.2222222
        k(   16) = (  -0.7071068   0.2357023   0.0000000), wk =   0.1111111

     Dense  grid:    12675 G-vectors     FFT dimensions: (  36,  36,  36)

     Estimated max dynamical RAM per process >       1.26 MB

     Estimated total dynamical RAM >      22.20 MB

     Initial potential from superposition of free atoms

     starting charge       7.9990, renormalised to       8.0000
     Starting wfcs are    8 randomized atomic wfcs

     total cpu time spent up to now is        0.2 secs

     per-process dynamical memory:    17.5 Mb

     Self-consistent Calculation

     iteration #  1     ecut=    50.00 Ry     beta= 0.70
     Davidson diagonalization with overlap
     ethr =  1.00E-02,  avg # of iterations =  3.9

     Threshold (ethr) on eigenvalues was too large:
     Diagonalizing with lowered threshold

     Davidson diagonalization with overlap
     ethr =  7.78E-04,  avg # of iterations =  1.6

     total cpu time spent up to now is        0.3 secs

     total energy              =     -15.87368019 Ry
     estimated scf accuracy    <       0.06712308 Ry

     iteration #  2     ecut=    50.00 Ry     beta= 0.70
     Davidson diagonalization with overlap
     ethr =  8.39E-04,  avg # of iterations =  1.2

     total cpu time spent up to now is        0.4 secs

     total energy              =     -15.87705051 Ry
     estimated scf accuracy    <       0.00242553 Ry

     iteration #  3     ecut=    50.00 Ry     beta= 0.70
     Davidson diagonalization with overlap
     ethr =  3.03E-05,  avg # of iterations =  2.4

     total cpu time spent up to now is        0.4 secs

     total energy              =     -15.87719336 Ry
     estimated scf accuracy    <       0.00006387 Ry

     iteration #  4     ecut=    50.00 Ry     beta= 0.70
     Davidson diagonalization with overlap
     ethr =  7.98E-07,  avg # of iterations =  3.3

     total cpu time spent up to now is        0.5 secs

     total energy              =     -15.87720444 Ry
     estimated scf accuracy    <       0.00000008 Ry

     iteration #  5     ecut=    50.00 Ry     beta= 0.70
     Davidson diagonalization with overlap
     ethr =  9.74E-10,  avg # of iterations =  4.0

     total cpu time spent up to now is        0.5 secs

     End of self-consistent calculation

          k = 0.0000 0.0000 0.0000 (  1639 PWs)   bands (ev):

    -5.8058   6.1544   6.1544   6.1544   8.7744   8.7744   8.7744   9.6033

          k = 0.1179 0.1179-0.1179 (  1576 PWs)   bands (ev):

    -5.4431   3.7960   5.7064   5.7064   8.5838   9.4193   9.4193  11.6523

          k = 0.2357 0.2357-0.2357 (  1609 PWs)   bands (ev):

    -4.4227   0.8405   5.1542   5.1542   8.0091   9.7344   9.7344  14.1229

          k =-0.3536-0.3536 0.3536 (  1568 PWs)   bands (ev):

    -3.4619  -0.8020   4.9542   4.9542   7.7873   9.5774   9.5774  14.0427

          k = 0.2357 0.0000 0.0000 (  1591 PWs)   bands (ev):

    -5.3197   4.1408   4.9691   4.9691   7.9366  10.5406  10.5436  10.5436

          k = 0.3536 0.1179-0.1179 (  1600 PWs)   bands (ev):

    -4.5008   1.7415   4.1789   4.4139   8.2012  10.3045  10.7539  11.2855

          k =-0.2357-0.4714 0.4714 (  1585 PWs)   bands (ev):

    -3.3029  -0.4347   3.3970   4.3809   8.2898  10.3401  10.8512  12.6535

          k =-0.1179-0.3536 0.3536 (  1586 PWs)   bands (ev):

    -3.6902   0.1671   3.1263   4.8580   8.6957  10.3492  10.4580  13.5133

          k = 0.0000-0.2357 0.2357 (  1590 PWs)   bands (ev):

    -4.8523   2.4610   3.7608   5.5879   9.2686   9.7725  10.0618  11.9001

          k = 0.4714 0.0000 0.0000 (  1580 PWs)   bands (ev):

    -3.8937   1.1690   3.7415   3.7415   6.9761   8.2586  13.4532  13.4532

          k =-0.1179-0.5893 0.5893 (  1606 PWs)   bands (ev):

    -2.7247  -0.3898   2.5383   3.6036   7.3198   8.9632  13.6633  13.6781

          k =-0.0000-0.4714 0.4714 (  1596 PWs)   bands (ev):

    -2.5268  -0.5963   1.7593   4.0457   7.8237  12.0353  12.6908  13.2797

          k =-0.7071 0.0000 0.0000 (  1588 PWs)   bands (ev):

    -1.6449  -1.6449   3.3047   3.3047   6.9697   6.9697  16.2807  16.2807

          k =-0.2357-0.4714 0.7071 (  1599 PWs)   bands (ev):

    -3.5064   0.5332   2.6028   3.8716   9.0843   9.9695  10.4616  13.2625

          k =-0.1179-0.3536 0.5893 (  1596 PWs)   bands (ev):

    -2.5165  -0.6704   2.1635   3.4063   9.5975   9.7921  12.3335  12.7452

          k =-0.7071 0.2357 0.0000 (  1614 PWs)   bands (ev):

    -1.5242  -1.5242   2.5250   2.5250   8.9920   8.9920  12.9855  12.9855

     the Fermi energy is     6.5486 ev

!    total energy              =     -15.87720500 Ry
     estimated scf accuracy    <          5.6E-09 Ry
     smearing contrib. (-TS)   =      -0.00000004 Ry
     internal energy E=F+TS    =     -15.87720496 Ry

     The total energy is F=E-TS. E is the sum of the following terms:
     one-electron contribution =       4.71276737 Ry
     hartree contribution      =       1.12488355 Ry
     xc contribution           =      -4.85380881 Ry
     ewald contribution        =     -16.86104708 Ry

     convergence has been achieved in   5 iterations

     Forces acting on atoms (cartesian axes, Ry/au):

     atom    1 type  1   force =     0.00000000    0.00000000    0.00000000
     atom    2 type  1   force =     0.00000000    0.00000000    0.00000000

     Total force =     0.000000     Total SCF correction =     0.000000


     Computing stress (Cartesian axis) and pressure

          total   stress  (Ry/bohr**3)                   (kbar)     P=        0.54
   0.00000365  -0.00000000  -0.00000000            0.54       -0.00       -0.00
  -0.00000000   0.00000365  -0.00000000           -0.00        0.54       -0.00
  -0.00000000   0.00000000   0.00000365           -0.00        0.00        0.54


     Writing all to output data dir ./si_scf.save/ :
     XML data file, charge density, pseudopotentials, collected wavefunctions

     init_run     :      0.35s CPU      0.19s WALL (       1 calls)
     electrons    :      0.49s CPU      0.26s WALL (       1 calls)
     forces       :      0.00s CPU      0.00s WALL (       1 calls)
     stress       :      0.02s CPU      0.01s WALL (       1 calls)

     Called by init_run:
     wfcinit      :      0.04s CPU      0.03s WALL (       1 calls)
     potinit      :      0.01s CPU      0.01s WALL (       1 calls)
     hinit0       :      0.29s CPU      0.15s WALL (       1 calls)

     Called by electrons:
     c_bands      :      0.40s CPU      0.21s WALL (       6 calls)
     sum_band     :      0.07s CPU      0.03s WALL (       6 calls)
     v_of_rho     :      0.02s CPU      0.01s WALL (       6 calls)
     mix_rho      :      0.00s CPU      0.00s WALL (       6 calls)

     Called by c_bands:
     init_us_2    :      0.01s CPU      0.00s WALL (     120 calls)
     cegterg      :      0.37s CPU      0.19s WALL (      48 calls)

     Called by *egterg:
     cdiaghg      :      0.03s CPU      0.02s WALL (     173 calls)
     h_psi        :      0.34s CPU      0.19s WALL (     189 calls)
     g_psi        :      0.00s CPU      0.00s WALL (     133 calls)

     Called by h_psi:
     h_psi:calbec :      0.03s CPU      0.02s WALL (     189 calls)
     vloc_psi     :      0.31s CPU      0.16s WALL (     189 calls)
                                        0.00s GPU  (     189 calls)
     add_vuspsi   :      0.00s CPU      0.00s WALL (     189 calls)

     General routines
     calbec       :      0.03s CPU      0.02s WALL (     325 calls)
     fft          :      0.30s CPU      0.16s WALL (      68 calls)
     ffts         :      0.00s CPU      0.00s WALL (       6 calls)
     fftw         :      0.33s CPU      0.17s WALL (    2612 calls)

     Parallel routines

     PWSCF        :      0.95s CPU      0.54s WALL


   This run was terminated on:  23: 3:43  19Nov2025            

=------------------------------------------------------------------------------=
   JOB DONE.
=------------------------------------------------------------------------------=
