
     Program PWSCF v.7.5 starts on  4Dec2025 at 10:49: 1 

     This program is part of the open-source Quantum ESPRESSO suite
     for quantum simulation of materials; please cite
         "P. Giannozzi et al., J. Phys.:Condens. Matter 21 395502 (2009);
         "P. Giannozzi et al., J. Phys.:Condens. Matter 29 465901 (2017);
         "P. Giannozzi et al., J. Chem. Phys. 152 154105 (2020);
          URL http://www.quantum-espresso.org", 
     in publications or presentations arising from this work. More details at
     http://www.quantum-espresso.org/quote

     Parallel version (MPI & OpenMP), running on      16 processor cores
     Number of MPI processes:                 4
     Threads/MPI process:                     4

     MPI processes distributed on     1 nodes
     417494 MiB available memory on the printing compute node when the environment starts

     Reading input from qe/Ta/ta_slab.in
Warning: card &CELL ignored
Warning: card &FCP ignored
Warning: card &RISM ignored

     Current dimensions of program PWSCF are:
     Max number of different atomic species (ntypx) = 10
     Max number of k-points (npk) =  40000
     Max angular momentum in pseudopotentials (lmaxx) =  4
     Found identity + (  0.3333  0.3333  0.0000) symmetry
     This is a supercell, fractional translations are disabled
     Message from routine setup:
     using ibrav=0 with symmetry is DISCOURAGED, use correct ibrav instead

     R & G space division:  proc/nbgrp/npool/nimage =       4
     Subspace diagonalization in iterative solution of the eigenvalue problem:
     a serial algorithm will be used


     Parallelization info
     --------------------
     sticks:   dense  smooth     PW     G-vecs:    dense   smooth      PW
     Min         480     289     73                67038    31201    3897
     Max         481     290     74                67053    31218    3902
     Sum        1921    1159    295               268181   124847   15603

     Using Slab Decomposition



     bravais-lattice index     =            0
     lattice parameter (alat)  =       9.6610  a.u.
     unit-cell volume          =    3054.9480 (a.u.)^3
     number of atoms/cell      =            3
     number of atomic types    =            1
     number of electrons       =        39.00
     number of Kohn-Sham states=           24
     kinetic-energy cutoff     =      45.0000  Ry
     charge density cutoff     =     300.0000  Ry
     scf convergence threshold =      1.0E-04
     mixing beta               =       0.3000
     number of iterations used =            8  plain     mixing
     Exchange-correlation= SLA  PW   PBE  PBE
                           (   1   4   3   4   0   0   0)

     celldm(1)=   9.661002  celldm(2)=   0.000000  celldm(3)=   0.000000
     celldm(4)=   0.000000  celldm(5)=   0.000000  celldm(6)=   0.000000

     crystal axes: (cart. coord. in units of alat)
               a(1) = (   1.000000   0.000000   0.000000 )  
               a(2) = (   0.500000   0.866025   0.000000 )  
               a(3) = (   0.000000   0.000000   3.912071 )  

     reciprocal axes: (cart. coord. in units 2 pi/alat)
               b(1) = (  1.000000 -0.577350  0.000000 )  
               b(2) = (  0.000000  1.154701  0.000000 )  
               b(3) = (  0.000000  0.000000  0.255619 )  


     PseudoPot. # 1 for Ta read from file:
     /apps/QE/pseudo/efficiency/Ta_pbe_v1.uspp.F.UPF
     MD5 check sum: f8bbe9446314a3b8ea5d9f3e3836c939
     Pseudo is Ultrasoft + core correction, Zval = 13.0
     Generated by new atomic code, or converted to UPF format
     Using radial grid of  921 points,  7 beta functions with: 
                l(1) =   0
                l(2) =   0
                l(3) =   1
                l(4) =   1
                l(5) =   2
                l(6) =   2
                l(7) =   3
     Q(r) pseudized with  6 coefficients,  rinner =    1.300   1.300   1.300
                                                       1.300   1.300   1.300
                                                       1.300

     atomic species   valence    mass     pseudopotential
     Ta               13.00   180.94788     Ta( 1.00)

     12 Sym. Ops. (no inversion) found



   Cartesian axes

     site n.     atom                  positions (alat units)
         1        Ta     tau(   1) = (   0.0000000   0.0000000   3.0737699  )
         2        Ta     tau(   2) = (   0.5000000   0.2886751   3.0737699  )
         3        Ta     tau(   3) = (   1.0000000   0.5773503   3.0737699  )

     number of k points=     1  Methfessel-Paxton smearing, width (Ry)=  0.0200
                       cart. coord. in units 2pi/alat
        k(    1) = (   0.0000000   0.0000000   0.0000000), wk =   2.0000000

     Dense  grid:   268181 G-vectors     FFT dimensions: (  54,  54, 216)

     Smooth grid:   124847 G-vectors     FFT dimensions: (  45,  45, 162)

     Estimated max dynamical RAM per process >     410.06 MB

     Estimated total dynamical RAM >       1.60 GB

     Check: negative core charge=   -0.000001

     Initial potential from superposition of free atoms

     starting charge      38.9967, renormalised to      39.0000

     negative rho (up, down):  2.881E-01 0.000E+00
     Starting wfcs are   39 randomized atomic wfcs

     total cpu time spent up to now is       10.6 secs

     per-process dynamical memory:    67.1 Mb

     Self-consistent Calculation

     iteration #  1     ecut=    45.00 Ry     beta= 0.30
     Davidson diagonalization with overlap
     ethr =  1.00E-02,  avg # of iterations =  2.0

     Threshold (ethr) on eigenvalues was too large:
     Diagonalizing with lowered threshold

     Davidson diagonalization with overlap
     ethr =  7.95E-04,  avg # of iterations =  1.0

     negative rho (up, down):  2.930E-01 0.000E+00

     total cpu time spent up to now is       31.9 secs

     total energy              =    -424.49217121 Ry
     estimated scf accuracy    <       0.31998137 Ry

     iteration #  2     ecut=    45.00 Ry     beta= 0.30
     Davidson diagonalization with overlap
     ethr =  8.20E-04,  avg # of iterations =  1.0

     negative rho (up, down):  3.030E-01 0.000E+00

     total cpu time spent up to now is       44.1 secs

     total energy              =    -424.40917303 Ry
     estimated scf accuracy    <       0.14663541 Ry

     iteration #  3     ecut=    45.00 Ry     beta= 0.30
     Davidson diagonalization with overlap
     ethr =  3.76E-04,  avg # of iterations =  2.0

     negative rho (up, down):  2.994E-01 0.000E+00

     total cpu time spent up to now is       57.7 secs

     total energy              =    -424.41698003 Ry
     estimated scf accuracy    <       0.57058987 Ry

     iteration #  4     ecut=    45.00 Ry     beta= 0.30
     Davidson diagonalization with overlap
     ethr =  3.76E-04,  avg # of iterations =  1.0

     negative rho (up, down):  2.990E-01 0.000E+00

     total cpu time spent up to now is       69.1 secs

     total energy              =    -424.45491462 Ry
     estimated scf accuracy    <       0.02939572 Ry

     iteration #  5     ecut=    45.00 Ry     beta= 0.30
     Davidson diagonalization with overlap
     ethr =  7.54E-05,  avg # of iterations =  1.0

     negative rho (up, down):  3.024E-01 0.000E+00

     total cpu time spent up to now is       80.8 secs

     total energy              =    -424.46796670 Ry
     estimated scf accuracy    <       0.00492803 Ry

     iteration #  6     ecut=    45.00 Ry     beta= 0.30
     Davidson diagonalization with overlap
     ethr =  1.26E-05,  avg # of iterations =  4.0

     negative rho (up, down):  3.030E-01 0.000E+00

     total cpu time spent up to now is       97.2 secs

     total energy              =    -424.46355728 Ry
     estimated scf accuracy    <       0.14687754 Ry

     iteration #  7     ecut=    45.00 Ry     beta= 0.30
     Davidson diagonalization with overlap
     ethr =  1.26E-05,  avg # of iterations =  3.0

     negative rho (up, down):  3.030E-01 0.000E+00

     total cpu time spent up to now is      112.9 secs

     total energy              =    -424.44894306 Ry
     estimated scf accuracy    <       0.05281118 Ry

     iteration #  8     ecut=    45.00 Ry     beta= 0.30
     Davidson diagonalization with overlap
     ethr =  1.26E-05,  avg # of iterations =  3.0

     negative rho (up, down):  3.034E-01 0.000E+00

     total cpu time spent up to now is      127.5 secs

     total energy              =    -424.45894079 Ry
     estimated scf accuracy    <       0.00468092 Ry

     iteration #  9     ecut=    45.00 Ry     beta= 0.30
     Davidson diagonalization with overlap
     ethr =  1.20E-05,  avg # of iterations =  1.0

     negative rho (up, down):  3.031E-01 0.000E+00

     total cpu time spent up to now is      139.5 secs

     total energy              =    -424.45615436 Ry
     estimated scf accuracy    <       0.00808205 Ry

     iteration # 10     ecut=    45.00 Ry     beta= 0.30
     Davidson diagonalization with overlap
     ethr =  1.20E-05,  avg # of iterations =  2.0

     negative rho (up, down):  3.032E-01 0.000E+00

     total cpu time spent up to now is      152.4 secs

     total energy              =    -424.45772562 Ry
     estimated scf accuracy    <       0.00189728 Ry

     iteration # 11     ecut=    45.00 Ry     beta= 0.30
     Davidson diagonalization with overlap
     ethr =  4.86E-06,  avg # of iterations =  1.0

     negative rho (up, down):  3.031E-01 0.000E+00

     total cpu time spent up to now is      164.2 secs

     End of self-consistent calculation

          k = 0.0000 0.0000 0.0000 ( 15603 PWs)   bands (ev):

   -69.1024 -69.0285 -69.0285 -35.9273 -35.7929 -35.7924 -35.5909 -35.5909
   -35.5906 -35.5906 -34.9996 -34.9996  -7.1291  -2.2046  -1.5810  -1.5810
    -1.5809  -1.5809  -1.4533  -1.4533  -1.4532  -1.4532  -0.2510  -0.2510

     the Fermi energy is    -1.4490 ev

!    total energy              =    -424.45793843 Ry
     estimated scf accuracy    <       0.00000260 Ry
     smearing contrib. (-TS)   =      -0.03196749 Ry
     internal energy E=F+TS    =    -424.42597094 Ry

     The total energy is F=E-TS. E is the sum of the following terms:
     one-electron contribution =   -1301.28157696 Ry
     hartree contribution      =     641.15654432 Ry
     xc contribution           =    -126.06830934 Ry
     ewald contribution        =     361.76737104 Ry

     convergence has been achieved in  11 iterations

     Writing all to output data dir tmp/Ta_slab.save/ :
     XML data file, charge density, pseudopotentials, collected wavefunctions

     init_run     :      2.37s CPU     10.10s WALL (       1 calls)
     electrons    :     33.15s CPU    153.74s WALL (       1 calls)

     Called by init_run:
     wfcinit      :      0.78s CPU      4.13s WALL (       1 calls)
     potinit      :      0.43s CPU      2.12s WALL (       1 calls)
     hinit0       :      0.52s CPU      1.86s WALL (       1 calls)

     Called by electrons:
     c_bands      :     14.29s CPU     78.71s WALL (      12 calls)
     sum_band     :      9.56s CPU     36.64s WALL (      12 calls)
     v_of_rho     :      2.46s CPU     12.97s WALL (      12 calls)
     newd         :      6.07s CPU     20.75s WALL (      12 calls)
     mix_rho      :      0.90s CPU      4.26s WALL (      12 calls)

     Called by c_bands:
     init_us_2    :      0.07s CPU      0.18s WALL (      25 calls)
     cegterg      :     14.02s CPU     78.03s WALL (      12 calls)

     Called by *egterg:
     cdiaghg      :      0.22s CPU      0.73s WALL (      33 calls)
     h_psi        :     12.44s CPU     69.50s WALL (      35 calls)
     s_psi        :      0.06s CPU      0.13s WALL (      35 calls)
     g_psi        :      0.01s CPU      0.01s WALL (      22 calls)

     Called by h_psi:
     h_psi:calbec :      0.89s CPU      5.00s WALL (      35 calls)
     vloc_psi     :     11.39s CPU     63.58s WALL (      35 calls)
                                        0.00s GPU  (      35 calls)
     add_vuspsi   :      0.06s CPU      0.14s WALL (      35 calls)

     General routines
     calbec       :      1.25s CPU      6.94s WALL (      47 calls)
     fft          :      2.14s CPU     12.48s WALL (     155 calls)
     ffts         :      0.37s CPU      2.07s WALL (      24 calls)
     fftw         :     13.51s CPU     75.30s WALL (    1700 calls)
     interpolate  :      0.38s CPU      2.06s WALL (      12 calls)

     Parallel routines

     PWSCF        :     36.04s CPU   2m45.38s WALL


   This run was terminated on:  10:51:46   4Dec2025            

=------------------------------------------------------------------------------=
   JOB DONE.
=------------------------------------------------------------------------------=
