
     Program PWSCF v.7.5 starts on  4Dec2025 at 10: 8: 2 

     This program is part of the open-source Quantum ESPRESSO suite
     for quantum simulation of materials; please cite
         "P. Giannozzi et al., J. Phys.:Condens. Matter 21 395502 (2009);
         "P. Giannozzi et al., J. Phys.:Condens. Matter 29 465901 (2017);
         "P. Giannozzi et al., J. Chem. Phys. 152 154105 (2020);
          URL http://www.quantum-espresso.org", 
     in publications or presentations arising from this work. More details at
     http://www.quantum-espresso.org/quote

     Parallel version (MPI & OpenMP), running on      16 processor cores
     Number of MPI processes:                 4
     Threads/MPI process:                     4

     MPI processes distributed on     1 nodes
     419041 MiB available memory on the printing compute node when the environment starts

     Reading input from qe/gap4/cu_ta_gap4.in
Warning: card &CELL ignored
Warning: card &FCP ignored
Warning: card &RISM ignored

     Current dimensions of program PWSCF are:
     Max number of different atomic species (ntypx) = 10
     Max number of k-points (npk) =  40000
     Max angular momentum in pseudopotentials (lmaxx) =  4
     file Cu.paw.z_11.ld1.psl.v1.0.0-low.upf: wavefunction(s)  4S 3D renormalized
     Message from routine setup:
     using ibrav=0 with symmetry is DISCOURAGED, use correct ibrav instead

     R & G space division:  proc/nbgrp/npool/nimage =       4
     Subspace diagonalization in iterative solution of the eigenvalue problem:
     a serial algorithm will be used


     Parallelization info
     --------------------
     sticks:   dense  smooth     PW     G-vecs:    dense   smooth      PW
     Min         480     289     73                46898    21813    2726
     Max         481     290     74                46907    21824    2730
     Sum        1921    1159    295               187609    87275   10911

     Using Slab Decomposition



     bravais-lattice index     =            0
     lattice parameter (alat)  =       9.6610  a.u.
     unit-cell volume          =    2138.4636 (a.u.)^3
     number of atoms/cell      =            7
     number of atomic types    =            2
     number of electrons       =        83.00
     number of Kohn-Sham states=           50
     kinetic-energy cutoff     =      45.0000  Ry
     charge density cutoff     =     300.0000  Ry
     scf convergence threshold =      1.0E-04
     mixing beta               =       0.3000
     number of iterations used =            8  plain     mixing
     Exchange-correlation= SLA  PW   PBX  PBC
                           (   1   4   3   4   0   0   0)

     celldm(1)=   9.661002  celldm(2)=   0.000000  celldm(3)=   0.000000
     celldm(4)=   0.000000  celldm(5)=   0.000000  celldm(6)=   0.000000

     crystal axes: (cart. coord. in units of alat)
               a(1) = (   1.000000   0.000000   0.000000 )  
               a(2) = (   0.500000   0.866025   0.000000 )  
               a(3) = (   0.000000   0.000000   2.738449 )  

     reciprocal axes: (cart. coord. in units 2 pi/alat)
               b(1) = (  1.000000 -0.577350  0.000000 )  
               b(2) = (  0.000000  1.154701  0.000000 )  
               b(3) = (  0.000000  0.000000  0.365170 )  


     PseudoPot. # 1 for Ta read from file:
     /apps/QE/pseudo/efficiency/Ta_pbe_v1.uspp.F.UPF
     MD5 check sum: f8bbe9446314a3b8ea5d9f3e3836c939
     Pseudo is Ultrasoft + core correction, Zval = 13.0
     Generated by new atomic code, or converted to UPF format
     Using radial grid of  921 points,  7 beta functions with: 
                l(1) =   0
                l(2) =   0
                l(3) =   1
                l(4) =   1
                l(5) =   2
                l(6) =   2
                l(7) =   3
     Q(r) pseudized with  6 coefficients,  rinner =    1.300   1.300   1.300
                                                       1.300   1.300   1.300
                                                       1.300

     PseudoPot. # 2 for Cu read from file:
     /apps/QE/pseudo/efficiency/Cu.paw.z_11.ld1.psl.v1.0.0-low.upf
     MD5 check sum: 619f40885d92a09a85a8b37550532d0c
     Pseudo is Projector augmented-wave + core cor, Zval = 11.0
     Generated using &quot;atomic&quot; code by A. Dal Corso  v.6.3MaX
     Shape of augmentation charge: PSQ
     Using radial grid of 1199 points,  6 beta functions with: 
                l(1) =   0
                l(2) =   0
                l(3) =   1
                l(4) =   1
                l(5) =   2
                l(6) =   2
     Q(r) pseudized with 0 coefficients 


     atomic species   valence    mass     pseudopotential
     Ta               13.00   180.94788     Ta( 1.00)
     Cu               11.00    63.54600     Cu( 1.00)

     12 Sym. Ops. (no inversion) found ( 6 have fractional translation)



   Cartesian axes

     site n.     atom                  positions (alat units)
         1        Ta     tau(   1) = (   0.0000000   0.0000000   1.8163186  )
         2        Ta     tau(   2) = (   0.5000000   0.2886751   1.8163186  )
         3        Ta     tau(   3) = (   1.0000000   0.5773503   1.8163186  )
         4        Cu     tau(   4) = (   0.7500000   0.1443376   1.0339044  )
         5        Cu     tau(   5) = (   0.2500000   0.1443376   1.0339044  )
         6        Cu     tau(   6) = (   1.0000000   0.5773503   1.0339044  )
         7        Cu     tau(   7) = (   0.5000000   0.5773503   1.0339044  )

     number of k points=     1  Methfessel-Paxton smearing, width (Ry)=  0.0200
                       cart. coord. in units 2pi/alat
        k(    1) = (   0.0000000   0.0000000   0.0000000), wk =   2.0000000

     Dense  grid:   187609 G-vectors     FFT dimensions: (  54,  54, 150)

     Smooth grid:    87275 G-vectors     FFT dimensions: (  45,  45, 120)

     Estimated max dynamical RAM per process >     296.51 MB

     Estimated total dynamical RAM >       1.16 GB

     Check: negative core charge=   -0.000002

     Initial potential from superposition of free atoms

     starting charge      82.9958, renormalised to      83.0000

     negative rho (up, down):  2.889E-01 0.000E+00
     Starting wfcs are   75 randomized atomic wfcs
     Checking if some PAW data can be deallocated... 

     total cpu time spent up to now is        3.8 secs

     per-process dynamical memory:    81.0 Mb

     Self-consistent Calculation

     iteration #  1     ecut=    45.00 Ry     beta= 0.30
     Davidson diagonalization with overlap
     ethr =  1.00E-02,  avg # of iterations =  2.0

     negative rho (up, down):  2.942E-01 0.000E+00

     total cpu time spent up to now is        7.6 secs

     total energy              =   -1275.57217891 Ry
     estimated scf accuracy    <       1.94920265 Ry

     iteration #  2     ecut=    45.00 Ry     beta= 0.30
     Davidson diagonalization with overlap
     ethr =  2.35E-03,  avg # of iterations =  8.0

     negative rho (up, down):  2.941E-01 0.000E+00

     total cpu time spent up to now is       12.2 secs

     total energy              =   -1273.15693447 Ry
     estimated scf accuracy    <      97.62299876 Ry

     iteration #  3     ecut=    45.00 Ry     beta= 0.30
     Davidson diagonalization with overlap
     ethr =  2.35E-03,  avg # of iterations =  7.0

     negative rho (up, down):  2.961E-01 0.000E+00

     total cpu time spent up to now is       16.6 secs

     total energy              =   -1276.28725165 Ry
     estimated scf accuracy    <       0.81273281 Ry

     iteration #  4     ecut=    45.00 Ry     beta= 0.30
     Davidson diagonalization with overlap
     ethr =  9.79E-04,  avg # of iterations =  2.0

     negative rho (up, down):  2.983E-01 0.000E+00

     total cpu time spent up to now is       20.2 secs

     total energy              =   -1276.28064224 Ry
     estimated scf accuracy    <       0.53394766 Ry

     iteration #  5     ecut=    45.00 Ry     beta= 0.30
     Davidson diagonalization with overlap
     ethr =  6.43E-04,  avg # of iterations =  8.0

     negative rho (up, down):  3.009E-01 0.000E+00

     total cpu time spent up to now is       24.6 secs

     total energy              =   -1276.26066122 Ry
     estimated scf accuracy    <       0.49599122 Ry

     iteration #  6     ecut=    45.00 Ry     beta= 0.30
     Davidson diagonalization with overlap
     ethr =  5.98E-04,  avg # of iterations =  1.0

     negative rho (up, down):  3.046E-01 0.000E+00

     total cpu time spent up to now is       28.7 secs

     total energy              =   -1276.26227654 Ry
     estimated scf accuracy    <       0.15086149 Ry

     iteration #  7     ecut=    45.00 Ry     beta= 0.30
     Davidson diagonalization with overlap
     ethr =  1.82E-04,  avg # of iterations =  1.0

     negative rho (up, down):  3.036E-01 0.000E+00

     total cpu time spent up to now is       32.1 secs

     total energy              =   -1276.21703105 Ry
     estimated scf accuracy    <       5.84468486 Ry

     iteration #  8     ecut=    45.00 Ry     beta= 0.30
     Davidson diagonalization with overlap
     ethr =  1.82E-04,  avg # of iterations =  1.0

     negative rho (up, down):  3.033E-01 0.000E+00

     total cpu time spent up to now is       36.0 secs

     total energy              =   -1276.27525698 Ry
     estimated scf accuracy    <       0.02873125 Ry

     iteration #  9     ecut=    45.00 Ry     beta= 0.30
     Davidson diagonalization with overlap
     ethr =  3.46E-05,  avg # of iterations =  1.0

     negative rho (up, down):  3.060E-01 0.000E+00

     total cpu time spent up to now is       39.6 secs

     total energy              =   -1276.27006113 Ry
     estimated scf accuracy    <       0.22814881 Ry

     iteration # 10     ecut=    45.00 Ry     beta= 0.30
     Davidson diagonalization with overlap
     ethr =  3.46E-05,  avg # of iterations =  2.0

     negative rho (up, down):  3.058E-01 0.000E+00

     total cpu time spent up to now is       44.4 secs

     total energy              =   -1276.27417219 Ry
     estimated scf accuracy    <       0.00782098 Ry

     iteration # 11     ecut=    45.00 Ry     beta= 0.30
     Davidson diagonalization with overlap
     c_bands:  1 eigenvalues not converged
     ethr =  9.42E-06,  avg # of iterations = 20.0

     negative rho (up, down):  3.063E-01 0.000E+00

     total cpu time spent up to now is       49.6 secs

     total energy              =   -1276.27500822 Ry
     estimated scf accuracy    <       0.03640143 Ry

     iteration # 12     ecut=    45.00 Ry     beta= 0.30
     Davidson diagonalization with overlap
     ethr =  9.42E-06,  avg # of iterations =  8.0

     negative rho (up, down):  3.067E-01 0.000E+00

     total cpu time spent up to now is       53.5 secs

     total energy              =   -1276.27521469 Ry
     estimated scf accuracy    <       0.01922786 Ry

     iteration # 13     ecut=    45.00 Ry     beta= 0.30
     Davidson diagonalization with overlap
     ethr =  9.42E-06,  avg # of iterations =  1.0

     negative rho (up, down):  3.068E-01 0.000E+00

     total cpu time spent up to now is       58.1 secs

     total energy              =   -1276.27502924 Ry
     estimated scf accuracy    <       0.01053582 Ry

     iteration # 14     ecut=    45.00 Ry     beta= 0.30
     Davidson diagonalization with overlap
     ethr =  9.42E-06,  avg # of iterations =  1.0

     negative rho (up, down):  3.068E-01 0.000E+00

     total cpu time spent up to now is       61.8 secs

     total energy              =   -1276.27512192 Ry
     estimated scf accuracy    <       0.00060614 Ry

     iteration # 15     ecut=    45.00 Ry     beta= 0.30
     Davidson diagonalization with overlap
     ethr =  7.30E-07,  avg # of iterations =  1.0

     negative rho (up, down):  3.068E-01 0.000E+00

     total cpu time spent up to now is       65.1 secs

     total energy              =   -1276.27511379 Ry
     estimated scf accuracy    <       0.00031872 Ry

     iteration # 16     ecut=    45.00 Ry     beta= 0.30
     Davidson diagonalization with overlap
     ethr =  3.84E-07,  avg # of iterations =  2.0

     negative rho (up, down):  3.067E-01 0.000E+00

     total cpu time spent up to now is       69.3 secs

     End of self-consistent calculation

          k = 0.0000 0.0000 0.0000 ( 10911 PWs)   bands (ev):

   -65.7665 -65.7040 -65.6676 -32.5642 -32.4476 -32.4039 -32.2216 -32.2216
   -32.1959 -32.1959 -31.6240 -31.6240  -5.1250  -3.4970  -2.5560  -2.5137
    -2.5137  -1.3892  -1.3275  -1.3275  -1.0565  -1.0565  -0.8916  -0.1684
    -0.1684  -0.1678  -0.1657  -0.1657  -0.1111   0.0757   0.0757   0.2705
     0.3050   0.3050   0.9417   1.9323   1.9323   1.9772   1.9772   2.0294
     2.0957   2.0957   2.1386   2.1386   2.2791   2.5789   2.5789   3.2383
     3.2384   3.8274

     the Fermi energy is     2.1187 ev

!    total energy              =   -1276.27505924 Ry
     estimated scf accuracy    <       0.00006751 Ry
     smearing contrib. (-TS)   =      -0.02866178 Ry
     internal energy E=F+TS    =   -1276.24639746 Ry

     The total energy is F=E-TS. E is the sum of the following terms:
     one-electron contribution =   -1545.76208711 Ry
     hartree contribution      =     817.45111909 Ry
     xc contribution           =    -304.40741997 Ry
     ewald contribution        =     115.66636735 Ry
     one-center paw contrib.   =    -359.19437681 Ry

     convergence has been achieved in  16 iterations

     Writing all to output data dir ./tmp/CuTa_gap4.save/ :
     XML data file, charge density, pseudopotentials, collected wavefunctions

     init_run     :      3.01s CPU      3.38s WALL (       1 calls)
     electrons    :     58.62s CPU     65.60s WALL (       1 calls)

     Called by init_run:
     wfcinit      :      0.62s CPU      0.69s WALL (       1 calls)
     potinit      :      1.24s CPU      1.33s WALL (       1 calls)
     hinit0       :      0.55s CPU      0.62s WALL (       1 calls)

     Called by electrons:
     c_bands      :     23.36s CPU     26.29s WALL (      16 calls)
     sum_band     :     12.80s CPU     14.82s WALL (      16 calls)
     v_of_rho     :      1.71s CPU      1.58s WALL (      17 calls)
     newd         :      9.02s CPU     10.58s WALL (      17 calls)
     PAW_pot      :     12.40s CPU     12.97s WALL (      17 calls)
     mix_rho      :      0.38s CPU      0.40s WALL (      16 calls)

     Called by c_bands:
     init_us_2    :      0.11s CPU      0.12s WALL (      33 calls)
     cegterg      :     23.02s CPU     25.91s WALL (      16 calls)

     Called by *egterg:
     cdiaghg      :      0.70s CPU      0.85s WALL (      82 calls)
     h_psi        :     20.73s CPU     22.99s WALL (      83 calls)
     s_psi        :      0.19s CPU      0.18s WALL (      83 calls)
     g_psi        :      0.02s CPU      0.02s WALL (      66 calls)

     Called by h_psi:
     h_psi:calbec :      0.67s CPU      0.67s WALL (      83 calls)
     vloc_psi     :     19.71s CPU     21.81s WALL (      83 calls)
                                        0.00s GPU  (      83 calls)
     add_vuspsi   :      0.25s CPU      0.31s WALL (      83 calls)

     General routines
     calbec       :      0.87s CPU      0.88s WALL (      99 calls)
     fft          :      2.07s CPU      2.49s WALL (     219 calls)
     ffts         :      0.51s CPU      0.63s WALL (      33 calls)
     fftw         :     23.07s CPU     25.56s WALL (    4418 calls)
     interpolate  :      0.57s CPU      0.77s WALL (      17 calls)

     Parallel routines

     PWSCF        :   1m 2.14s CPU   1m 9.52s WALL


   This run was terminated on:  10: 9:12   4Dec2025            

=------------------------------------------------------------------------------=
   JOB DONE.
=------------------------------------------------------------------------------=
