
     Program PWSCF v.7.5 starts on  4Dec2025 at 10: 7:11 

     This program is part of the open-source Quantum ESPRESSO suite
     for quantum simulation of materials; please cite
         "P. Giannozzi et al., J. Phys.:Condens. Matter 21 395502 (2009);
         "P. Giannozzi et al., J. Phys.:Condens. Matter 29 465901 (2017);
         "P. Giannozzi et al., J. Chem. Phys. 152 154105 (2020);
          URL http://www.quantum-espresso.org", 
     in publications or presentations arising from this work. More details at
     http://www.quantum-espresso.org/quote

     Parallel version (MPI & OpenMP), running on      16 processor cores
     Number of MPI processes:                 4
     Threads/MPI process:                     4

     MPI processes distributed on     1 nodes
     419037 MiB available memory on the printing compute node when the environment starts

     Reading input from qe/gap3/cu_ta_gap3.in
Warning: card &CELL ignored
Warning: card &FCP ignored
Warning: card &RISM ignored

     Current dimensions of program PWSCF are:
     Max number of different atomic species (ntypx) = 10
     Max number of k-points (npk) =  40000
     Max angular momentum in pseudopotentials (lmaxx) =  4
     file Cu.paw.z_11.ld1.psl.v1.0.0-low.upf: wavefunction(s)  4S 3D renormalized
     Message from routine setup:
     using ibrav=0 with symmetry is DISCOURAGED, use correct ibrav instead

     R & G space division:  proc/nbgrp/npool/nimage =       4
     Subspace diagonalization in iterative solution of the eigenvalue problem:
     a serial algorithm will be used


     Parallelization info
     --------------------
     sticks:   dense  smooth     PW     G-vecs:    dense   smooth      PW
     Min         480     289     73                43562    20259    2535
     Max         481     290     74                43573    20270    2540
     Sum        1921    1159    295               174267    81063   10151

     Using Slab Decomposition



     bravais-lattice index     =            0
     lattice parameter (alat)  =       9.6610  a.u.
     unit-cell volume          =    1985.7162 (a.u.)^3
     number of atoms/cell      =            7
     number of atomic types    =            2
     number of electrons       =        83.00
     number of Kohn-Sham states=           50
     kinetic-energy cutoff     =      45.0000  Ry
     charge density cutoff     =     300.0000  Ry
     scf convergence threshold =      1.0E-04
     mixing beta               =       0.3000
     number of iterations used =            8  plain     mixing
     Exchange-correlation= SLA  PW   PBX  PBC
                           (   1   4   3   4   0   0   0)

     celldm(1)=   9.661002  celldm(2)=   0.000000  celldm(3)=   0.000000
     celldm(4)=   0.000000  celldm(5)=   0.000000  celldm(6)=   0.000000

     crystal axes: (cart. coord. in units of alat)
               a(1) = (   1.000000   0.000000   0.000000 )  
               a(2) = (   0.500000   0.866025   0.000000 )  
               a(3) = (   0.000000   0.000000   2.542846 )  

     reciprocal axes: (cart. coord. in units 2 pi/alat)
               b(1) = (  1.000000 -0.577350  0.000000 )  
               b(2) = (  0.000000  1.154701  0.000000 )  
               b(3) = (  0.000000  0.000000  0.393260 )  


     PseudoPot. # 1 for Ta read from file:
     /apps/QE/pseudo/efficiency/Ta_pbe_v1.uspp.F.UPF
     MD5 check sum: f8bbe9446314a3b8ea5d9f3e3836c939
     Pseudo is Ultrasoft + core correction, Zval = 13.0
     Generated by new atomic code, or converted to UPF format
     Using radial grid of  921 points,  7 beta functions with: 
                l(1) =   0
                l(2) =   0
                l(3) =   1
                l(4) =   1
                l(5) =   2
                l(6) =   2
                l(7) =   3
     Q(r) pseudized with  6 coefficients,  rinner =    1.300   1.300   1.300
                                                       1.300   1.300   1.300
                                                       1.300

     PseudoPot. # 2 for Cu read from file:
     /apps/QE/pseudo/efficiency/Cu.paw.z_11.ld1.psl.v1.0.0-low.upf
     MD5 check sum: 619f40885d92a09a85a8b37550532d0c
     Pseudo is Projector augmented-wave + core cor, Zval = 11.0
     Generated using &quot;atomic&quot; code by A. Dal Corso  v.6.3MaX
     Shape of augmentation charge: PSQ
     Using radial grid of 1199 points,  6 beta functions with: 
                l(1) =   0
                l(2) =   0
                l(3) =   1
                l(4) =   1
                l(5) =   2
                l(6) =   2
     Q(r) pseudized with 0 coefficients 


     atomic species   valence    mass     pseudopotential
     Ta               13.00   180.94788     Ta( 1.00)
     Cu               11.00    63.54600     Cu( 1.00)

     12 Sym. Ops. (no inversion) found ( 6 have fractional translation)



   Cartesian axes

     site n.     atom                  positions (alat units)
         1        Ta     tau(   1) = (   0.0000000   0.0000000   1.6067433  )
         2        Ta     tau(   2) = (   0.5000000   0.2886751   1.6067433  )
         3        Ta     tau(   3) = (   1.0000000   0.5773503   1.6067433  )
         4        Cu     tau(   4) = (   0.7500000   0.1443376   1.0199327  )
         5        Cu     tau(   5) = (   0.2500000   0.1443376   1.0199327  )
         6        Cu     tau(   6) = (   1.0000000   0.5773503   1.0199327  )
         7        Cu     tau(   7) = (   0.5000000   0.5773503   1.0199327  )

     number of k points=     1  Methfessel-Paxton smearing, width (Ry)=  0.0200
                       cart. coord. in units 2pi/alat
        k(    1) = (   0.0000000   0.0000000   0.0000000), wk =   2.0000000

     Dense  grid:   174267 G-vectors     FFT dimensions: (  54,  54, 135)

     Smooth grid:    81063 G-vectors     FFT dimensions: (  45,  45, 108)

     Estimated max dynamical RAM per process >     275.53 MB

     Estimated total dynamical RAM >       1.08 GB

     Check: negative core charge=   -0.000002

     Initial potential from superposition of free atoms

     starting charge      82.9958, renormalised to      83.0000

     negative rho (up, down):  2.894E-01 0.000E+00
     Starting wfcs are   75 randomized atomic wfcs
     Checking if some PAW data can be deallocated... 

     total cpu time spent up to now is        4.6 secs

     per-process dynamical memory:    78.1 Mb

     Self-consistent Calculation

     iteration #  1     ecut=    45.00 Ry     beta= 0.30
     Davidson diagonalization with overlap
     ethr =  1.00E-02,  avg # of iterations =  2.0

     negative rho (up, down):  2.945E-01 0.000E+00

     total cpu time spent up to now is        9.1 secs

     total energy              =   -1276.20070514 Ry
     estimated scf accuracy    <       0.98170522 Ry

     iteration #  2     ecut=    45.00 Ry     beta= 0.30
     Davidson diagonalization with overlap
     ethr =  1.18E-03,  avg # of iterations =  5.0

     negative rho (up, down):  2.947E-01 0.000E+00

     total cpu time spent up to now is       12.4 secs

     total energy              =   -1275.78671756 Ry
     estimated scf accuracy    <      16.55185012 Ry

     iteration #  3     ecut=    45.00 Ry     beta= 0.30
     Davidson diagonalization with overlap
     ethr =  1.18E-03,  avg # of iterations =  6.0

     negative rho (up, down):  2.960E-01 0.000E+00

     total cpu time spent up to now is       16.2 secs

     total energy              =   -1276.45122410 Ry
     estimated scf accuracy    <       1.58988941 Ry

     iteration #  4     ecut=    45.00 Ry     beta= 0.30
     Davidson diagonalization with overlap
     ethr =  1.18E-03,  avg # of iterations =  1.0

     negative rho (up, down):  2.981E-01 0.000E+00

     total cpu time spent up to now is       19.8 secs

     total energy              =   -1276.50117071 Ry
     estimated scf accuracy    <       0.28210703 Ry

     iteration #  5     ecut=    45.00 Ry     beta= 0.30
     Davidson diagonalization with overlap
     ethr =  3.40E-04,  avg # of iterations =  2.0

     negative rho (up, down):  3.061E-01 0.000E+00

     total cpu time spent up to now is       23.4 secs

     total energy              =   -1276.46831849 Ry
     estimated scf accuracy    <       0.10485751 Ry

     iteration #  6     ecut=    45.00 Ry     beta= 0.30
     Davidson diagonalization with overlap
     ethr =  1.26E-04,  avg # of iterations =  4.0

     negative rho (up, down):  3.023E-01 0.000E+00

     total cpu time spent up to now is       26.6 secs

     total energy              =   -1276.41889676 Ry
     estimated scf accuracy    <       1.79383598 Ry

     iteration #  7     ecut=    45.00 Ry     beta= 0.30
     Davidson diagonalization with overlap
     ethr =  1.26E-04,  avg # of iterations =  2.0

     negative rho (up, down):  3.031E-01 0.000E+00

     total cpu time spent up to now is       31.0 secs

     total energy              =   -1276.49859755 Ry
     estimated scf accuracy    <       0.09109514 Ry

     iteration #  8     ecut=    45.00 Ry     beta= 0.30
     Davidson diagonalization with overlap
     ethr =  1.10E-04,  avg # of iterations =  1.0

     negative rho (up, down):  3.051E-01 0.000E+00

     total cpu time spent up to now is       34.6 secs

     total energy              =   -1276.49793070 Ry
     estimated scf accuracy    <       0.02597982 Ry

     iteration #  9     ecut=    45.00 Ry     beta= 0.30
     Davidson diagonalization with overlap
     ethr =  3.13E-05,  avg # of iterations =  1.0

     negative rho (up, down):  3.061E-01 0.000E+00

     total cpu time spent up to now is       38.1 secs

     total energy              =   -1276.49983166 Ry
     estimated scf accuracy    <       0.00640406 Ry

     iteration # 10     ecut=    45.00 Ry     beta= 0.30
     Davidson diagonalization with overlap
     ethr =  7.72E-06,  avg # of iterations =  1.0

     negative rho (up, down):  3.063E-01 0.000E+00

     total cpu time spent up to now is       42.1 secs

     total energy              =   -1276.49982672 Ry
     estimated scf accuracy    <       0.00103383 Ry

     iteration # 11     ecut=    45.00 Ry     beta= 0.30
     Davidson diagonalization with overlap
     ethr =  1.25E-06,  avg # of iterations =  2.0

     negative rho (up, down):  3.063E-01 0.000E+00

     total cpu time spent up to now is       45.9 secs

     total energy              =   -1276.49990003 Ry
     estimated scf accuracy    <       0.00047350 Ry

     iteration # 12     ecut=    45.00 Ry     beta= 0.30
     Davidson diagonalization with overlap
     ethr =  5.70E-07,  avg # of iterations =  2.0

     negative rho (up, down):  3.064E-01 0.000E+00

     total cpu time spent up to now is       49.9 secs

     End of self-consistent calculation

          k = 0.0000 0.0000 0.0000 ( 10151 PWs)   bands (ev):

   -65.3971 -65.3417 -65.2068 -32.1109 -32.0075 -31.8971 -31.8971 -31.8275
   -31.8227 -31.8227 -31.2662 -31.2662  -4.5227  -2.9938  -1.7113  -1.6065
    -1.6065  -0.7698  -0.6121  -0.6121  -0.2934  -0.1972  -0.1972   0.3766
     0.3766   0.4592   0.5524   0.5524   0.5943   0.8310   0.8310   1.0746
     1.1507   1.1507   1.6272   2.0911   2.0911   2.2847   2.2847   2.3506
     2.3506   2.4243   2.4243   2.4295   2.5558   3.5638   3.5638   3.9336
     4.0953   4.0953

     the Fermi energy is     2.4059 ev

!    total energy              =   -1276.49990339 Ry
     estimated scf accuracy    <       0.00001689 Ry
     smearing contrib. (-TS)   =      -0.02881167 Ry
     internal energy E=F+TS    =   -1276.47109172 Ry

     The total energy is F=E-TS. E is the sum of the following terms:
     one-electron contribution =   -1766.21462550 Ry
     hartree contribution      =     929.40803384 Ry
     xc contribution           =    -304.42730704 Ry
     ewald contribution        =     224.00787182 Ry
     one-center paw contrib.   =    -359.24506485 Ry

     convergence has been achieved in  12 iterations

     Writing all to output data dir ./tmp/CuTa_gap3.save/ :
     XML data file, charge density, pseudopotentials, collected wavefunctions

     init_run     :      3.64s CPU      4.21s WALL (       1 calls)
     electrons    :     40.11s CPU     45.31s WALL (       1 calls)

     Called by init_run:
     wfcinit      :      1.26s CPU      1.52s WALL (       1 calls)
     potinit      :      1.28s CPU      1.42s WALL (       1 calls)
     hinit0       :      0.58s CPU      0.64s WALL (       1 calls)

     Called by electrons:
     c_bands      :     14.79s CPU     16.73s WALL (      12 calls)
     sum_band     :      9.46s CPU     11.16s WALL (      12 calls)
     v_of_rho     :      1.30s CPU      1.16s WALL (      13 calls)
     newd         :      6.03s CPU      7.26s WALL (      13 calls)
     PAW_pot      :      9.29s CPU      9.77s WALL (      13 calls)
     mix_rho      :      0.28s CPU      0.30s WALL (      12 calls)

     Called by c_bands:
     init_us_2    :      0.09s CPU      0.10s WALL (      25 calls)
     cegterg      :     14.52s CPU     16.44s WALL (      12 calls)

     Called by *egterg:
     cdiaghg      :      0.42s CPU      0.48s WALL (      41 calls)
     h_psi        :     13.89s CPU     15.68s WALL (      42 calls)
     s_psi        :      0.11s CPU      0.10s WALL (      42 calls)
     g_psi        :      0.02s CPU      0.01s WALL (      29 calls)

     Called by h_psi:
     h_psi:calbec :      0.43s CPU      0.45s WALL (      42 calls)
     vloc_psi     :     13.25s CPU     14.93s WALL (      42 calls)
                                        0.00s GPU  (      42 calls)
     add_vuspsi   :      0.16s CPU      0.18s WALL (      42 calls)

     General routines
     calbec       :      0.61s CPU      0.65s WALL (      54 calls)
     fft          :      1.55s CPU      1.86s WALL (     167 calls)
     ffts         :      0.37s CPU      0.45s WALL (      25 calls)
     fftw         :     16.06s CPU     18.14s WALL (    3326 calls)
     interpolate  :      0.45s CPU      0.65s WALL (      13 calls)

     Parallel routines

     PWSCF        :     44.27s CPU     50.11s WALL


   This run was terminated on:  10: 8: 1   4Dec2025            

=------------------------------------------------------------------------------=
   JOB DONE.
=------------------------------------------------------------------------------=
