LAMMPS (29 Aug 2024)
  using 4 OpenMP thread(s) per MPI task
# LAMMPS input generated from LammpsInputFile with pymatgen v2025.10.7

units metal
atom_style atomic
boundary p p p
read_data interface_gap5.data
Reading data file ...
  triclinic box = (0 0 0) to (5.112382 4.427453 32.699265) with tilt (2.556191 0 0)
WARNING: Triclinic box skew is large. LAMMPS will run inefficiently. (src/domain.cpp:221)
  1 by 1 by 1 MPI processor grid
  reading atoms ...
  35 atoms
  read_data CPU = 0.001 seconds
pair_style eam/alloy
pair_coeff * * ../../CuTa.eam.alloy Cu Ta
Reading eam/alloy potential file ../../CuTa.eam.alloy with DATE: 2015-12-09
neighbor 2.0 bin
neigh_modify delay 0 every 1 check yes
thermo 200
timestep 0.001
velocity all create 2000.0 12345 mom yes rot no dist gaussian
fix 1 all nvt temp 2000.0 2000.0 0.1
dump 1 all custom 100 traj.lammpstrj id type x y z
dump_modify 1 sort id
run 20000

CITE-CITE-CITE-CITE-CITE-CITE-CITE-CITE-CITE-CITE-CITE-CITE-CITE

Your simulation uses code contributions which should be cited:

- Type Label Framework: https://doi.org/10.1021/acs.jpcb.3c08419

@Article{Gissinger24,
 author = {Jacob R. Gissinger, Ilia Nikiforov, Yaser Afshar, Brendon Waters, Moon-ki Choi, Daniel S. Karls, Alexander Stukowski, Wonpil Im, Hendrik Heinz, Axel Kohlmeyer, and Ellad B. Tadmor},
 title = {Type Label Framework for Bonded Force Fields in LAMMPS},
 journal = {J. Phys. Chem. B},
 year =    2024,
 volume =  128,
 number =  13,
 pages =   {3282–-3297}
}

CITE-CITE-CITE-CITE-CITE-CITE-CITE-CITE-CITE-CITE-CITE-CITE-CITE

Neighbor list info ...
  update: every = 1 steps, delay = 0 steps, check = yes
  max neighbors/atom: 2000, page size: 100000
  master list distance cutoff = 8.3953371
  ghost atom cutoff = 8.3953371
  binsize = 4.1976686, bins = 2 2 8
  1 neighbor lists, perpetual/occasional/extra = 1 0 0
  (1) pair eam/alloy, perpetual
      attributes: half, newton on
      pair build: half/bin/atomonly/newton/tri
      stencil: half/bin/3d/tri
      bin: standard
Per MPI rank memory allocation (min/avg/max) = 5.986 | 5.986 | 5.986 Mbytes
   Step          Temp          E_pair         E_mol          TotEng         Press     
         0   2000          -158.21951      0             -149.42982      418674.44    
       200   2842.9979     -180.14029      0             -167.64575      101024.88    
       400   2049.2407     -188.44939      0             -179.4433      -13006.399    
       600   1992.9871     -191.05138      0             -182.29251     -21677.694    
       800   1877.9076     -192.33111      0             -184.078        7041.9639    
      1000   1922.8979     -195.65658      0             -187.20574      33167.878    
      1200   2172.5578     -195.92612      0             -186.37807      54776.895    
      1400   2148.7436     -194.30729      0             -184.86389      35033.317    
      1600   2033.5601     -198.20092      0             -189.26374     -10167.107    
      1800   1540.6703     -193.08766      0             -186.31665      8677.7742    
      2000   2050.312      -194.89454      0             -185.88374      1086.0134    
      2200   1664.8732     -196.52247      0             -189.20562      1660.4234    
      2400   1919.0437     -198.01801      0             -189.58411     -29546.784    
      2600   2189.9055     -195.74563      0             -186.12134     -11789.438    
      2800   1703.3104     -197.4059       0             -189.92012      21640.176    
      3000   1807.553      -197.7913       0             -189.84738      19517.279    
      3200   2388.9122     -198.07578      0             -187.57688      15476.261    
      3400   2043.8428     -197.84656      0             -188.86419      20109.041    
      3600   1815.0485     -199.16543      0             -191.18857     -16869.538    
      3800   2361.4007     -197.18572      0             -186.80773     -3137.9462    
      4000   1923.647      -197.40532      0             -188.95119     -22234.077    
      4200   1964.7962     -198.14244      0             -189.50747     -22632.927    
      4400   1577.7132     -199.74717      0             -192.81337     -11468.316    
      4600   2011.2987     -197.55205      0             -188.7127      -6137.3562    
      4800   1755.9684     -197.0833       0             -189.36609     -5397.5118    
      5000   1771.0588     -199.65732      0             -191.87379     -6039.8598    
      5200   2063.2646     -197.8187       0             -188.75097     -16956.529    
      5400   1726.6677     -196.4745       0             -188.88607     -30046.287    
      5600   2230.2562     -195.06125      0             -185.25962     -25144.327    
      5800   1556.7858     -196.08492      0             -189.24308     -29119.394    
      6000   2339.448      -199.2117       0             -188.93019     -11532.79     
      6200   1710.2277     -198.18474      0             -190.66856      16814.316    
      6400   2519.7736     -198.19875      0             -187.12474      18701.114    
      6600   1859.6901     -197.76815      0             -189.5951      -27952.385    
      6800   2162.3124     -198.26781      0             -188.76478     -48283.574    
      7000   1605.5919     -195.91209      0             -188.85576     -23299.888    
      7200   2038.7039     -198.60108      0             -189.64129     -19380.707    
      7400   1812.2521     -199.26059      0             -191.29602      8469.6488    
      7600   1843.6646     -198.71983      0             -190.61721      9279.2175    
      7800   2250.4813     -198.90457      0             -189.01405      1314.9484    
      8000   1909.8912     -200.33675      0             -191.94307     -27446.446    
      8200   2241.9175     -197.54462      0             -187.69174      17177.084    
      8400   2089.2444     -200.45286      0             -191.27095     -19427.152    
      8600   2078.6533     -199.76243      0             -190.62707     -4227.1665    
      8800   2147.7609     -198.34152      0             -188.90244     -25546.824    
      9000   1684.3881     -198.1758       0             -190.77318     -32991.079    
      9200   2415.2535     -197.49277      0             -186.87811     -14318.543    
      9400   1663.4713     -198.42787      0             -191.11717     -371.13502    
      9600   2050.4082     -199.76247      0             -190.75124     -13047.569    
      9800   1855.7349     -195.90407      0             -187.74841     -11065.311    
     10000   1518.9656     -195.76321      0             -189.08759      932.11412    
     10200   2078.3319     -199.20332      0             -190.06937     -29717.397    
     10400   2434.8474     -199.06874      0             -188.36797     -22558.911    
     10600   2063.9252     -198.42715      0             -189.35652      10768.61     
     10800   2075.8717     -199.50289      0             -190.37975     -21937.585    
     11000   1567.1468     -199.79812      0             -192.91075     -30156.997    
     11200   2332.8245     -198.24898      0             -187.99658     -26580.722    
     11400   1801.5149     -199.19292      0             -191.27554     -35691.169    
     11600   1866.0602     -198.56413      0             -190.36308     -1300.9412    
     11800   2162.0136     -196.82285      0             -187.32113      4130.01      
     12000   2140.4707     -200.18523      0             -190.77819     -8452.5955    
     12200   1702.6475     -198.1699       0             -190.68703     -19323.92     
     12400   2067.8761     -198.20347      0             -189.11548     -34553.591    
     12600   2218.1732     -197.09844      0             -187.34991     -27763.082    
     12800   2022.618      -198.36154      0             -189.47244     -5102.3123    
     13000   2002.4578     -200.23902      0             -191.43853     -11642.155    
     13200   2214.8317     -196.91334      0             -187.1795       29589.168    
     13400   1977.107      -197.08245      0             -188.39337      21374.812    
     13600   2123.2863     -196.63007      0             -187.29855      6670.8437    
     13800   1926.775      -197.31846      0             -188.85058     -14331.758    
     14000   2015.722      -198.68053      0             -189.82174     -18520.175    
     14200   2123.5383     -196.02424      0             -186.69161      14999.878    
     14400   1933.5979     -197.7483       0             -189.25043      2321.8076    
     14600   1990.4685     -198.66096      0             -189.91316     -23249.75     
     14800   2395.8745     -195.3549       0             -184.8254      -4292.7014    
     15000   1987.0082     -197.40794      0             -188.67534     -9920.4052    
     15200   1982.8426     -198.48345      0             -189.76916     -33261.747    
     15400   2436.6808     -196.8113       0             -186.10246      6769.9838    
     15600   1895.5822     -197.06471      0             -188.73393     -31375.256    
     15800   1896.1777     -197.13903      0             -188.80563     -10792.517    
     16000   1747.9181     -199.91901      0             -192.23719     -41403.59     
     16200   2055.7992     -197.90973      0             -188.87481      4219.7859    
     16400   1869.6806     -197.22862      0             -189.01167      12363.355    
     16600   1563.1131     -199.12874      0             -192.2591      -8854.254     
     16800   2046.0195     -197.24633      0             -188.25439     -30376.384    
     17000   2006.3353     -198.15738      0             -189.33985     -38414.846    
     17200   1921.4852     -198.51171      0             -190.06708     -42717.149    
     17400   2065.3758     -196.9451       0             -187.86809      122.78331    
     17600   1798.0331     -198.46134      0             -190.55926     -4902.9495    
     17800   2335.5991     -197.12201      0             -186.85741      19571.573    
     18000   2084.0401     -197.87402      0             -188.71499     -40311.823    
     18200   1976.7088     -197.42403      0             -188.73671     -24688.393    
     18400   1988.6524     -198.32159      0             -189.58177     -17079.506    
     18600   1463.0925     -199.671        0             -193.24094     -17321.679    
     18800   2030.7855     -198.54262      0             -189.61763      17327.99     
     19000   2168.5776     -198.18133      0             -188.65077     -9189.938     
     19200   1704.5898     -199.87224      0             -192.38083     -38725.465    
     19400   1588.2773     -196.87419      0             -189.89396     -20580.879    
     19600   2108.3731     -196.61371      0             -187.34773     -12887.46     
     19800   1760.6085     -199.26767      0             -191.53007     -21450.282    
     20000   1863.1769     -198.52521      0             -190.33684      7239.2674    
Loop time of 7.52807 on 4 procs for 20000 steps with 35 atoms

Performance: 229.541 ns/day, 0.105 hours/ns, 2656.722 timesteps/s, 92.985 katom-step/s
34.3% CPU use with 1 MPI tasks x 4 OpenMP threads

MPI task timing breakdown:
Section |  min time  |  avg time  |  max time  |%varavg| %total
---------------------------------------------------------------
Pair    | 4.5813     | 4.5813     | 4.5813     |   0.0 | 60.86
Neigh   | 0.072266   | 0.072266   | 0.072266   |   0.0 |  0.96
Comm    | 0.4464     | 0.4464     | 0.4464     |   0.0 |  5.93
Output  | 0.15428    | 0.15428    | 0.15428    |   0.0 |  2.05
Modify  | 0.059391   | 0.059391   | 0.059391   |   0.0 |  0.79
Other   |            | 2.214      |            |       | 29.42

Nlocal:             35 ave          35 max          35 min
Histogram: 1 0 0 0 0 0 0 0 0 0
Nghost:           1075 ave        1075 max        1075 min
Histogram: 1 0 0 0 0 0 0 0 0 0
Neighs:           2361 ave        2361 max        2361 min
Histogram: 1 0 0 0 0 0 0 0 0 0

Total # of neighbors = 2361
Ave neighs/atom = 67.457143
Neighbor list builds = 210
Dangerous builds = 0
Total wall time: 0:00:07
