ITEM: TIMESTEP
0
ITEM: NUMBER OF ATOMS
35
ITEM: BOX BOUNDS xy xz yz pp pp pp
0.0000000000000000e+00 7.6685730000000003e+00 2.5561910000000001e+00
0.0000000000000000e+00 4.4274529999999999e+00 0.0000000000000000e+00
0.0000000000000000e+00 3.2699264999999997e+01 0.0000000000000000e+00
ITEM: ATOMS id type x y z
1 1 2.55619 1.47582 28.9391
2 1 5.11238 2.95164 28.9391
3 1 0 0 28.9391
4 1 5.11238 1.47582 26.6014
5 1 2.55619 2.95164 26.6014
6 1 2.55619 0 26.6014
7 1 2.55619 1.47582 24.2637
8 1 5.11238 2.95164 24.2637
9 1 0 0 24.2637
10 1 5.11238 1.47582 21.926
11 1 2.55619 2.95164 21.926
12 1 2.55619 0 21.926
13 1 2.55619 1.47582 19.5883
14 1 5.11238 2.95164 19.5883
15 1 0 0 19.5883
16 2 1.2781 2.21373 14.5883
17 2 0 0 14.5883
18 2 3.83429 2.21373 14.5883
19 2 2.55619 0 14.5883
20 2 3.83429 3.68954 12.5012
21 2 2.55619 1.47582 12.5012
22 2 6.39048 3.68954 12.5012
23 2 5.11238 1.47582 12.5012
24 2 5.11238 2.95164 10.4141
25 2 3.83429 0.737909 10.4141
26 2 2.55619 2.95164 10.4141
27 2 1.2781 0.737909 10.4141
28 2 1.2781 2.21373 8.32695
29 2 0 0 8.32695
30 2 3.83429 2.21373 8.32695
31 2 2.55619 0 8.32695
32 2 3.83429 3.68954 6.23983
33 2 2.55619 1.47582 6.23983
34 2 6.39048 3.68954 6.23983
35 2 5.11238 1.47582 6.23983
ITEM: TIMESTEP
100
ITEM: NUMBER OF ATOMS
35
ITEM: BOX BOUNDS xy xz yz pp pp pp
0.0000000000000000e+00 7.6685730000000003e+00 2.5561910000000001e+00
0.0000000000000000e+00 4.4274529999999999e+00 0.0000000000000000e+00
0.0000000000000000e+00 3.2699264999999997e+01 0.0000000000000000e+00
ITEM: ATOMS id type x y z
1 1 2.9913 1.6711 28.2935
2 1 5.07226 3.15385 28.4832
3 1 5.11068 0.0217075 28.3587
4 1 4.95324 1.52393 26.5473
5 1 2.3709 2.89136 26.3621
6 1 4.5084 4.38269 26.5021
7 1 2.47573 1.56666 24.3334
8 1 5.11326 3.1302 24.5563
9 1 7.44493 4.27285 24.7313
10 1 5.46549 1.37262 23.0247
11 1 3.40778 2.37724 22.0295
12 1 4.717 4.37584 21.9708
13 1 2.65827 1.39579 20.0486
14 1 4.68116 2.96836 20.2481
15 1 5.04948 0.798191 19.8534
16 2 1.26926 2.08257 15.2129
17 2 7.54346 4.3351 15.3811
18 2 3.85533 2.09666 15.7228
19 2 5.06689 4.36736 15.854
20 2 3.64857 3.76577 12.9884
21 2 2.41957 1.57831 12.8701
22 2 6.17997 3.71002 12.8211
23 2 4.90879 1.52422 12.8514
24 2 5.21117 2.8829 10.4358
25 2 3.89716 0.647857 10.3594
26 2 2.64765 2.93264 10.3555
27 2 1.40403 0.700625 10.4169
28 2 1.27801 2.19215 7.97412
29 2 5.1452 0.0162777 7.91573
30 2 3.88961 2.21411 7.73148
31 2 5.13749 4.42871 7.82998
32 2 4.01484 3.78141 4.99747
33 2 2.69707 1.5757 5.18301
34 2 6.51728 3.67246 5.49476
35 2 5.22168 1.50341 5.39829
ITEM: TIMESTEP
200
ITEM: NUMBER OF ATOMS
35
ITEM: BOX BOUNDS xy xz yz pp pp pp
0.0000000000000000e+00 7.6685730000000003e+00 2.5561910000000001e+00
0.0000000000000000e+00 4.4274529999999999e+00 0.0000000000000000e+00
0.0000000000000000e+00 3.2699264999999997e+01 0.0000000000000000e+00
ITEM: ATOMS id type x y z
1 1 3.24399 1.13934 28.0262
2 1 5.37923 3.10425 28.1293
3 1 2.70964 4.22792 28.0445
4 1 4.44224 1.91285 26.2098
5 1 1.78256 2.91627 26.5482
6 1 1.52397 0.193483 26.3835
7 1 2.82808 1.48548 24.5726
8 1 4.8894 3.25281 24.5677
9 1 7.17421 4.18666 24.4583
10 1 5.71853 1.83928 22.5611
11 1 3.32002 2.32285 22.4447
12 1 2.58451 -0.0675664 22.3892
13 1 2.38846 1.50309 20.1206
14 1 4.74899 3.52171 20.2219
15 1 5.33779 0.257905 21.0729
16 2 6.17444 2.13898 15.8011
17 2 2.49406 4.30514 16.1462
18 2 3.64559 2.02481 16.8905
19 2 5.04961 4.28459 17.2326
20 2 3.65994 3.63206 13.9922
21 2 2.29127 1.51063 13.5786
22 2 6.17726 3.80537 13.1776
23 2 4.81898 1.64364 13.1602
24 2 5.30405 2.89313 10.4844
25 2 3.97831 0.664229 10.0996
26 2 2.61937 2.85355 10.2289
27 2 1.39672 0.61768 10.6298
28 2 1.28808 2.20909 7.67718
29 2 2.65325 4.4678 7.57086
30 2 3.92886 2.20897 6.7829
31 2 2.53701 0.0300437 6.89736
32 2 3.98129 3.69529 3.59288
33 2 2.79033 1.46516 4.02151
34 2 6.67257 3.80508 4.96405
35 2 5.47786 1.64015 4.72237
ITEM: TIMESTEP
300
ITEM: NUMBER OF ATOMS
35
ITEM: BOX BOUNDS xy xz yz pp pp pp
0.0000000000000000e+00 7.6685730000000003e+00 2.5561910000000001e+00
0.0000000000000000e+00 4.4274529999999999e+00 0.0000000000000000e+00
0.0000000000000000e+00 3.2699264999999997e+01 0.0000000000000000e+00
ITEM: ATOMS id type x y z
1 1 2.52322 1.08486 28.0919
2 1 5.06468 3.02031 28.0925
3 1 2.87171 4.12929 28.3453
4 1 4.59863 1.4402 26.2481
5 1 1.5572 2.9579 26.1332
6 1 1.35558 0.16316 26.1552
7 1 2.57319 1.41996 24.3602
8 1 4.84093 3.29716 24.1211
9 1 7.56176 4.36784 23.9633
10 1 6.16568 2.15968 22.5126
11 1 3.62195 2.36651 22.4829
12 1 5.34066 4.78355 22.12
13 1 2.42394 1.79207 20.0834
14 1 4.8946 2.71018 20.3179
15 1 0.039219 0.235011 21.6066
16 2 5.92721 2.35248 16.1125
17 2 7.21093 4.49323 16.6552
18 2 3.41531 2.16577 17.7452
19 2 4.78694 4.27802 18.136
20 2 3.93688 3.71088 14.8988
21 2 2.42603 1.5631 14.0798
22 2 6.30569 3.63756 12.7868
23 2 4.84367 1.47549 12.9474
24 2 5.31614 2.82266 10.5233
25 2 3.7839 0.638804 9.39043
26 2 2.74646 2.83487 10.4319
27 2 1.39211 0.641437 11.4502
28 2 1.30811 2.24652 8.12508
29 2 0.103406 0.0350926 7.48026
30 2 3.58625 2.32165 5.99295
31 2 2.39381 0.117195 6.05149
32 2 4.21721 3.71439 2.87239
33 2 3.02766 1.41686 3.15097
34 2 7.16809 3.59688 4.72903
35 2 5.62819 1.50904 4.48358
ITEM: TIMESTEP
400
ITEM: NUMBER OF ATOMS
35
ITEM: BOX BOUNDS xy xz yz pp pp pp
0.0000000000000000e+00 7.6685730000000003e+00 2.5561910000000001e+00
0.0000000000000000e+00 4.4274529999999999e+00 0.0000000000000000e+00
0.0000000000000000e+00 3.2699264999999997e+01 0.0000000000000000e+00
ITEM: ATOMS id type x y z
1 1 2.03674 1.54246 27.6908
2 1 4.95111 2.73073 27.8421
3 1 2.42285 4.1558 27.9447
4 1 4.19823 1.29307 26.0566
5 1 6.83003 3.15493 26.132
6 1 1.42423 -0.327161 26.1631
7 1 2.53215 1.35725 24.5485
8 1 5.32652 3.12176 24.4771
9 1 5.07147 0.366452 23.7669
10 1 6.62744 2.63953 22.711
11 1 3.79593 2.34398 22.7347
12 1 2.51316 -0.14117 21.7901
13 1 2.35273 2.15127 20.505
14 1 5.07431 2.21528 19.8168
15 1 5.23209 -0.319134 20.9759
16 2 5.89044 2.15211 16.3196
17 2 4.121 0.296538 16.7843
18 2 3.00596 2.52309 17.8726
19 2 4.39412 4.58665 18.5227
20 2 3.93473 3.82638 15.3605
21 2 2.65046 1.60723 14.8573
22 2 6.65227 3.52154 13.0083
23 2 4.50585 1.89783 13.0308
24 2 5.14666 2.5246 10.2934
25 2 3.33671 0.74676 9.12056
26 2 2.70587 3.12662 10.7396
27 2 1.97313 0.389042 12.1172
28 2 1.24179 2.23697 7.87188
29 2 0.219669 -0.0929841 7.01359
30 2 3.95232 2.00894 6.07473
31 2 2.51174 -0.0625414 5.43516
32 2 4.50121 3.60634 2.9248
33 2 3.39325 1.31992 2.76949
34 2 1.98629 3.70038 4.14068
35 2 5.78687 1.5057 4.30542
ITEM: TIMESTEP
500
ITEM: NUMBER OF ATOMS
35
ITEM: BOX BOUNDS xy xz yz pp pp pp
0.0000000000000000e+00 7.6685730000000003e+00 2.5561910000000001e+00
0.0000000000000000e+00 4.4274529999999999e+00 0.0000000000000000e+00
0.0000000000000000e+00 3.2699264999999997e+01 0.0000000000000000e+00
ITEM: ATOMS id type x y z
1 1 2.17193 1.4083 27.4561
2 1 5.03111 2.77098 27.7801
3 1 7.14436 4.58941 28.1228
4 1 4.2434 1.20417 25.8953
5 1 6.92569 3.27878 25.7094
6 1 3.91691 4.19709 26.2218
7 1 2.26469 1.15314 24.3784
8 1 4.91044 2.94203 24.459
9 1 5.35874 0.196611 23.7014
10 1 6.86443 2.68126 22.5267
11 1 3.95764 1.90344 22.4913
12 1 5.0981 3.87364 21.4901
13 1 2.83876 1.88991 20.4731
14 1 4.99724 2.2798 18.8232
15 1 2.53344 4.80928 20.6379
16 2 5.47598 2.15574 16.4731
17 2 3.66513 0.157617 17.0964
18 2 2.62452 2.82685 17.9639
19 2 1.58344 0.33788 18.627
20 2 3.67855 4.05692 15.6185
21 2 2.88716 1.50914 15.0537
22 2 7.01689 3.5976 14.0004
23 2 4.64791 2.14885 13.0056
24 2 5.40464 1.85988 10.2299
25 2 2.8193 0.721852 8.6908
26 2 2.43511 3.67528 10.4777
27 2 2.28181 0.506491 12.4275
28 2 6.22602 2.26075 7.25945
29 2 2.88866 4.16076 7.22603
30 2 3.85634 1.92083 6.0648
31 2 5.21734 4.22516 5.67513
32 2 4.80025 3.56414 2.90025
33 2 3.53392 1.27804 2.71719
34 2 7.54578 3.51329 3.81051
35 2 6.03254 1.50829 4.29429
ITEM: TIMESTEP
600
ITEM: NUMBER OF ATOMS
35
ITEM: BOX BOUNDS xy xz yz pp pp pp
0.0000000000000000e+00 7.6685730000000003e+00 2.5561910000000001e+00
0.0000000000000000e+00 4.4274529999999999e+00 0.0000000000000000e+00
0.0000000000000000e+00 3.2699264999999997e+01 0.0000000000000000e+00
ITEM: ATOMS id type x y z
1 1 2.76087 2.05868 27.4857
2 1 5.43738 2.72261 27.5416
3 1 4.33148 0.229858 27.6828
4 1 4.45462 1.37718 25.6002
5 1 6.56114 2.83441 25.4724
6 1 3.68862 4.19551 26.2727
7 1 2.56122 0.926178 24.1698
8 1 4.81828 3.12982 23.9404
9 1 2.82683 4.08232 23.7196
10 1 1.32821 2.35087 22.3724
11 1 4.2031 1.26647 22.5171
12 1 4.503 4.00176 21.3774
13 1 2.68536 2.41017 20.5955
14 1 5.44976 2.68535 19.2841
15 1 4.60992 0.136537 20.3742
16 2 5.23939 2.23526 15.9003
17 2 3.80547 0.383875 17.6062
18 2 2.50018 2.48526 17.8397
19 2 1.18541 0.372945 18.7202
20 2 3.73209 4.28149 15.9083
21 2 3.02909 1.43349 14.8588
22 2 6.79106 3.85484 13.838
23 2 4.92526 2.22423 12.8854
24 2 5.50749 1.88155 10.0638
25 2 2.65001 0.610248 8.96591
26 2 2.32406 3.53756 10.6034
27 2 2.33334 0.804484 11.9881
28 2 6.06427 2.33389 7.35673
29 2 3.03111 3.98841 7.7818
30 2 3.60583 1.9878 5.60782
31 2 5.29188 4.01503 5.5653
32 2 5.2837 3.32488 2.8071
33 2 3.71473 1.35488 2.97819
34 2 2.44618 3.66871 4.28049
35 2 1.06541 1.32686 4.6749
ITEM: TIMESTEP
700
ITEM: NUMBER OF ATOMS
35
ITEM: BOX BOUNDS xy xz yz pp pp pp
0.0000000000000000e+00 7.6685730000000003e+00 2.5561910000000001e+00
0.0000000000000000e+00 4.4274529999999999e+00 0.0000000000000000e+00
0.0000000000000000e+00 3.2699264999999997e+01 0.0000000000000000e+00
ITEM: ATOMS id type x y z
1 1 3.13915 2.50483 27.2119
2 1 5.46295 2.29243 27.4198
3 1 4.14946 0.120411 27.1947
4 1 4.54052 1.3032 25.2496
5 1 1.56587 2.88921 25.6594
6 1 4.22279 4.26075 25.9219
7 1 2.35776 1.0916 24.1213
8 1 4.77948 3.1932 23.6675
9 1 2.46179 3.87661 23.5711
10 1 6.11968 2.09324 22.0237
11 1 3.67053 1.07233 22.4898
12 1 3.89298 4.15576 21.7368
13 1 2.59468 2.31902 19.9347
14 1 5.16706 2.56458 18.6808
15 1 3.73921 -0.0597888 20.293
16 2 5.66712 2.73631 15.7012
17 2 4.09227 0.430419 17.4998
18 2 2.44499 2.30733 17.3249
19 2 1.11492 0.196953 19.1514
20 2 3.42615 4.30568 15.8943
21 2 2.72743 1.60675 14.6324
22 2 7.36883 3.89324 13.3059
23 2 4.93512 2.23842 12.6279
24 2 4.74636 2.36247 10.0359
25 2 3.11455 0.607362 9.09286
26 2 2.66469 3.4646 10.9718
27 2 2.34575 0.824561 11.627
28 2 6.02499 2.04729 7.78999
29 2 2.96777 3.78837 7.91843
30 2 3.83131 1.75125 6.30764
31 2 5.16691 3.89686 5.88756
32 2 5.48618 3.14949 2.9061
33 2 3.42082 1.46632 3.28602
34 2 2.59335 3.74242 4.39491
35 2 1.21377 1.54607 5.00865
ITEM: TIMESTEP
800
ITEM: NUMBER OF ATOMS
35
ITEM: BOX BOUNDS xy xz yz pp pp pp
0.0000000000000000e+00 7.6685730000000003e+00 2.5561910000000001e+00
0.0000000000000000e+00 4.4274529999999999e+00 0.0000000000000000e+00
0.0000000000000000e+00 3.2699264999999997e+01 0.0000000000000000e+00
ITEM: ATOMS id type x y z
1 1 3.03409 2.50997 27.0912
2 1 5.96094 1.67094 27.4309
3 1 3.94741 0.17641 27.4441
4 1 4.55885 1.07235 24.9793
5 1 6.4222 3.23794 25.6146
6 1 4.25294 4.31564 26.1966
7 1 1.69135 1.25698 23.8689
8 1 4.6679 3.28754 23.651
9 1 2.05327 3.86581 23.1299
10 1 6.05131 2.24655 21.3248
11 1 3.57146 1.1386 21.7812
12 1 3.62187 3.44282 21.4413
13 1 2.87178 2.22221 19.671
14 1 4.88462 2.61023 17.9536
15 1 6.24634 4.32438 19.9078
16 2 5.44995 3.19506 15.1565
17 2 3.66531 0.0131411 17.4411
18 2 2.22554 2.16432 17.0871
19 2 1.42 0.412524 19.2461
20 2 3.34282 4.59849 15.8834
21 2 2.94349 1.20408 14.3025
22 2 2.82545 4.15192 13.4199
23 2 5.16256 2.35588 12.792
24 2 4.71749 2.47324 10.0449
25 2 3.10611 0.267194 8.94343
26 2 2.28835 4.14486 10.4158
27 2 2.39482 0.598407 11.8264
28 2 6.33719 1.89611 8.22462
29 2 3.00411 3.72086 7.8245
30 2 3.93932 1.51804 6.72657
31 2 5.12562 3.80746 6.30008
32 2 5.4515 3.06212 3.37324
33 2 3.13865 1.23646 3.66192
34 2 3.08416 3.9431 4.55295
35 2 1.21411 1.85406 5.43759
ITEM: TIMESTEP
900
ITEM: NUMBER OF ATOMS
35
ITEM: BOX BOUNDS xy xz yz pp pp pp
0.0000000000000000e+00 7.6685730000000003e+00 2.5561910000000001e+00
0.0000000000000000e+00 4.4274529999999999e+00 0.0000000000000000e+00
0.0000000000000000e+00 3.2699264999999997e+01 0.0000000000000000e+00
ITEM: ATOMS id type x y z
1 1 3.21908 2.33817 26.7599
2 1 5.78351 1.68338 27.3032
3 1 3.89358 0.112427 27.6659
4 1 4.34547 1.16819 25.2417
5 1 6.23374 3.03762 25.2771
6 1 4.21873 4.46599 25.4103
7 1 1.36159 1.43875 23.4462
8 1 4.40227 2.90387 23.5984
9 1 7.13029 3.66724 23.2047
10 1 5.5192 1.83463 21.0793
11 1 3.21461 1.12817 21.8719
12 1 4.07775 4.1884 21.2646
13 1 3.43702 1.98813 19.8302
14 1 4.72553 2.32417 17.5492
15 1 6.75859 3.5506 20.0324
16 2 5.30961 2.98521 15.1608
17 2 3.36608 -0.00484062 17.4698
18 2 2.39326 2.38091 16.6921
19 2 1.01098 0.611444 18.6038
20 2 0.378655 0.459712 16.0942
21 2 3.2122 1.37018 14.398
22 2 2.98199 3.87645 13.3229
23 2 5.6885 2.47448 12.3391
24 2 4.2106 2.27476 10.3036
25 2 2.65195 -0.0314053 9.03754
26 2 2.60558 4.10228 10.8578
27 2 2.59469 1.04258 11.6013
28 2 1.21562 2.06538 8.70124
29 2 2.90787 3.86045 7.66296
30 2 4.27566 1.67874 6.43401
31 2 5.27052 4.07462 6.36436
32 2 5.37777 2.61412 3.77372
33 2 3.3031 1.03316 4.01476
34 2 2.88472 4.05369 4.5472
35 2 1.74908 1.81177 5.96661
ITEM: TIMESTEP
1000
ITEM: NUMBER OF ATOMS
35
ITEM: BOX BOUNDS xy xz yz pp pp pp
0.0000000000000000e+00 7.6685730000000003e+00 2.5561910000000001e+00
0.0000000000000000e+00 4.4274529999999999e+00 0.0000000000000000e+00
0.0000000000000000e+00 3.2699264999999997e+01 0.0000000000000000e+00
ITEM: ATOMS id type x y z
1 1 3.13959 2.64786 26.615
2 1 5.48653 1.6611 27.0683
3 1 6.1032 4.23341 26.9134
4 1 4.29658 0.807563 24.8291
5 1 6.39376 2.7464 24.8963
6 1 1.82968 0.310206 25.456
7 1 1.02413 1.30378 23.339
8 1 4.40997 3.20758 23.6186
9 1 7.28231 3.82942 22.6978
10 1 5.28456 1.55001 21.1457
11 1 2.88075 0.765395 22.3283
12 1 3.89054 3.74652 20.7777
13 1 3.22257 1.69491 19.598
14 1 4.7239 2.32948 17.6574
15 1 6.41202 3.52144 19.8781
16 2 5.44783 3.19104 14.9446
17 2 3.20792 0.100871 17.5999
18 2 2.4585 2.61303 16.7462
19 2 0.833297 0.541685 18.7031
20 2 0.43812 0.616389 15.62
21 2 3.06947 1.19786 14.38
22 2 3.09089 3.80192 13.5223
23 2 5.61777 2.78925 12.2053
24 2 3.90625 2.14548 9.61861
25 2 2.86798 0.020787 9.0688
26 2 2.65055 4.363 10.8648
27 2 2.6048 0.699926 12.0042
28 2 1.35813 1.909 9.19734
29 2 2.85449 4.15149 7.92752
30 2 4.44561 1.78049 6.98122
31 2 5.58917 4.1704 6.212
32 2 5.60356 2.24781 4.03229
33 2 2.91604 0.924594 3.73708
34 2 3.01996 3.93824 4.58486
35 2 2.08971 2.0483 6.34945
ITEM: TIMESTEP
1100
ITEM: NUMBER OF ATOMS
35
ITEM: BOX BOUNDS xy xz yz pp pp pp
0.0000000000000000e+00 7.6685730000000003e+00 2.5561910000000001e+00
0.0000000000000000e+00 4.4274529999999999e+00 0.0000000000000000e+00
0.0000000000000000e+00 3.2699264999999997e+01 0.0000000000000000e+00
ITEM: ATOMS id type x y z
1 1 3.45131 2.9226 26.1481
2 1 4.99549 1.55871 26.5515
3 1 6.31404 3.83588 26.9389
4 1 3.56419 1.14415 24.4491
5 1 6.72954 3.18999 24.6021
6 1 1.74185 0.700973 25.5986
7 1 0.571879 1.00451 23.0356
8 1 4.33289 3.29639 23.732
9 1 2.09578 2.72448 22.0659
10 1 5.05905 1.22076 20.8576
11 1 3.14903 0.544654 22.0753
12 1 4.18412 3.31088 21.086
13 1 2.34732 1.5625 19.9379
14 1 4.67225 2.49009 17.8115
15 1 6.04967 3.63413 19.5984
16 2 5.57829 3.24014 14.7388
17 2 3.26407 0.402161 17.118
18 2 2.36056 2.77558 16.9904
19 2 0.689058 0.160496 18.7054
20 2 0.644139 0.756453 16.0262
21 2 3.05415 1.63433 14.6981
22 2 2.83561 3.83879 13.261
23 2 5.10577 2.11447 12.272
24 2 4.04215 2.28478 9.87742
25 2 5.78642 4.12945 8.84464
26 2 0.10377 -0.00959602 10.8195
27 2 2.75074 0.993324 11.8763
28 2 1.57079 1.7966 9.6751
29 2 3.12519 4.27489 7.94079
30 2 4.56172 2.098 6.92518
31 2 5.78804 4.29971 5.84006
32 2 5.5468 2.15204 4.25337
33 2 2.79399 0.879585 3.59672
34 2 3.2609 3.86892 4.91375
35 2 1.9135 1.98791 6.74528
ITEM: TIMESTEP
1200
ITEM: NUMBER OF ATOMS
35
ITEM: BOX BOUNDS xy xz yz pp pp pp
0.0000000000000000e+00 7.6685730000000003e+00 2.5561910000000001e+00
0.0000000000000000e+00 4.4274529999999999e+00 0.0000000000000000e+00
0.0000000000000000e+00 3.2699264999999997e+01 0.0000000000000000e+00
ITEM: ATOMS id type x y z
1 1 3.36008 3.48668 25.9353
2 1 4.42442 1.295 26.2942
3 1 5.91471 3.34765 26.3106
4 1 3.3697 1.48179 24.2304
5 1 6.81758 3.29535 24.0789
6 1 1.77939 1.23086 25.789
7 1 0.513232 0.811584 23.7267
8 1 4.48299 3.42501 23.6659
9 1 1.58384 1.96124 21.7141
10 1 4.96875 1.16407 20.7162
11 1 3.44255 -0.162209 21.917
12 1 3.77804 3.46972 21.2265
13 1 2.8609 1.96132 19.3257
14 1 4.76191 2.12921 17.8118
15 1 5.97394 3.74996 19.7474
16 2 5.4958 3.50869 14.9281
17 2 3.06698 0.493226 17.1763
18 2 1.83827 2.6883 17.0944
19 2 0.857918 0.0601835 18.6438
20 2 0.740112 0.445536 15.7448
21 2 3.26847 1.93985 14.7556
22 2 2.54644 4.20556 13.5428
23 2 5.38423 2.24061 12.7577
24 2 4.53916 2.40208 9.929
25 2 5.92107 4.46816 8.58938
26 2 2.36322 3.67459 10.7941
27 2 2.60276 0.658304 12.2439
28 2 1.56728 1.51327 9.61689
29 2 3.22804 4.30037 7.65902
30 2 4.67519 2.28252 6.80378
31 2 3.43536 0.00739558 5.795
32 2 5.404 2.03113 4.25819
33 2 3.07539 1.14583 3.55744
34 2 3.21565 3.70809 4.88932
35 2 1.98101 2.07765 7.04053
ITEM: TIMESTEP
1300
ITEM: NUMBER OF ATOMS
35
ITEM: BOX BOUNDS xy xz yz pp pp pp
0.0000000000000000e+00 7.6685730000000003e+00 2.5561910000000001e+00
0.0000000000000000e+00 4.4274529999999999e+00 0.0000000000000000e+00
0.0000000000000000e+00 3.2699264999999997e+01 0.0000000000000000e+00
ITEM: ATOMS id type x y z
1 1 2.75437 3.68959 25.9023
2 1 3.9599 0.849237 25.957
3 1 5.28606 3.21371 25.7938
4 1 3.47717 1.16921 23.4319
5 1 2.10841 3.21887 23.5902
6 1 1.58535 1.59473 26.605
7 1 5.73044 1.4009 24.227
8 1 4.32435 3.66978 23.5716
9 1 2.13964 1.33868 21.5228
10 1 4.75816 1.75834 21.1229
11 1 6.13068 3.73838 21.6212
12 1 3.13213 4.03021 21.6697
13 1 2.79959 2.01051 19.3279
14 1 4.24811 2.7265 17.2122
15 1 5.95452 2.96428 19.4547
16 2 5.40082 3.66317 15.1323
17 2 3.13652 0.265987 17.6921
18 2 1.96617 2.53681 17.0642
19 2 0.816973 0.297863 19.0212
20 2 0.513716 0.654239 15.7734
21 2 3.22078 1.90351 14.7064
22 2 2.54323 4.09362 13.3196
23 2 5.64374 2.19948 12.6545
24 2 4.28714 2.69027 9.70813
25 2 3.72362 -0.0249869 8.66362
26 2 1.98595 3.71787 10.8954
27 2 2.33819 0.420241 12.4151
28 2 1.65058 1.2197 9.92159
29 2 3.50783 4.28802 7.83635
30 2 4.75482 2.01898 6.87592
31 2 3.20578 0.0516063 5.78995
32 2 5.97115 2.16683 4.16315
33 2 3.15386 1.24977 3.63692
34 2 3.3325 3.8052 4.37964
35 2 2.26914 2.10095 6.68994
ITEM: TIMESTEP
1400
ITEM: NUMBER OF ATOMS
35
ITEM: BOX BOUNDS xy xz yz pp pp pp
0.0000000000000000e+00 7.6685730000000003e+00 2.5561910000000001e+00
0.0000000000000000e+00 4.4274529999999999e+00 0.0000000000000000e+00
0.0000000000000000e+00 3.2699264999999997e+01 0.0000000000000000e+00
ITEM: ATOMS id type x y z
1 1 2.45785 3.70779 25.9477
2 1 3.29114 1.46749 25.6958
3 1 5.17241 3.55392 26.1077
4 1 3.51256 0.901903 23.6612
5 1 1.96006 3.1618 23.5794
6 1 1.06498 1.01096 26.8025
7 1 6.23946 1.02164 24.4643
8 1 4.66238 3.40921 23.7756
9 1 1.88546 1.71424 21.554
10 1 4.44748 1.91113 21.7436
11 1 5.82425 4.09832 20.963
12 1 3.21141 3.91939 21.7798
13 1 3.29076 2.44224 19.6406
14 1 4.31713 3.10272 16.9268
15 1 5.49019 2.80264 18.9552
16 2 5.43437 3.57914 14.7727
17 2 3.62503 0.511193 17.9014
18 2 2.0335 2.4111 17.0294
19 2 0.315028 0.247502 19.4192
20 2 5.29446 0.758497 16.0677
21 2 3.03672 1.63018 14.8231
22 2 2.68907 3.8169 13.5206
23 2 4.9162 1.97079 12.669
24 2 3.89664 2.42429 9.94786
25 2 6.38344 4.16782 8.31524
26 2 7.14101 4.18492 11.0122
27 2 2.68101 0.580846 12.3403
28 2 1.30339 1.40567 10.0765
29 2 4.02226 4.30898 7.48179
30 2 4.79498 1.6568 6.59332
31 2 5.89734 4.17565 5.72733
32 2 6.15632 2.37209 3.9311
33 2 3.78086 1.04281 3.45135
34 2 3.43819 4.25918 4.5249
35 2 2.4682 2.37031 6.52838
ITEM: TIMESTEP
1500
ITEM: NUMBER OF ATOMS
35
ITEM: BOX BOUNDS xy xz yz pp pp pp
0.0000000000000000e+00 7.6685730000000003e+00 2.5561910000000001e+00
0.0000000000000000e+00 4.4274529999999999e+00 0.0000000000000000e+00
0.0000000000000000e+00 3.2699264999999997e+01 0.0000000000000000e+00
ITEM: ATOMS id type x y z
1 1 6.84467 4.14497 25.8471
2 1 3.2223 1.86421 26.4584
3 1 4.55679 3.51319 26.5996
4 1 3.43111 0.449074 23.3664
5 1 2.20575 2.48839 24.2277
6 1 0.7776 1.33325 26.9555
7 1 0.940835 0.487566 24.3439
8 1 4.86304 2.41209 24.2118
9 1 1.90687 2.23738 21.9654
10 1 4.31195 2.03111 21.3792
11 1 3.01437 0.0278743 21.027
12 1 3.32606 4.30553 22.0329
13 1 2.80337 2.26268 19.5959
14 1 4.27719 3.29875 17.2922
15 1 5.5039 2.85341 19.6114
16 2 5.63739 3.05771 14.7955
17 2 3.3084 0.652743 17.8104
18 2 1.53737 2.6887 17.2495
19 2 0.874978 0.306863 19.3699
20 2 5.31673 0.690228 15.8983
21 2 2.78351 1.41793 15.0345
22 2 2.88848 3.87775 13.7147
23 2 4.79895 2.21746 12.4713
24 2 3.85545 2.55206 9.8171
25 2 6.5549 3.98471 8.62999
26 2 7.23804 3.94788 11.1333
27 2 2.09021 0.842704 12.1917
28 2 1.22419 1.46996 9.33004
29 2 4.02534 4.15702 7.65624
30 2 5.30018 1.79115 6.40655
31 2 5.97831 4.22433 5.55856
32 2 6.53778 2.45721 3.3105
33 2 4.04599 1.29713 3.50526
34 2 3.59411 4.08625 4.59159
35 2 2.52029 2.18597 6.49368
ITEM: TIMESTEP
1600
ITEM: NUMBER OF ATOMS
35
ITEM: BOX BOUNDS xy xz yz pp pp pp
0.0000000000000000e+00 7.6685730000000003e+00 2.5561910000000001e+00
0.0000000000000000e+00 4.4274529999999999e+00 0.0000000000000000e+00
0.0000000000000000e+00 3.2699264999999997e+01 0.0000000000000000e+00
ITEM: ATOMS id type x y z
1 1 6.70219 4.08787 26.1933
2 1 2.80657 1.78044 27.079
3 1 4.00018 4.08614 26.779
4 1 3.71469 -0.344216 24.0261
5 1 2.33064 2.00155 24.4662
6 1 5.35704 1.97407 26.4691
7 1 1.11156 -0.168252 24.3508
8 1 4.84144 2.06949 24.3259
9 1 1.718 2.48664 22.1292
10 1 4.23105 2.38183 22.1585
11 1 5.74467 4.61983 21.0659
12 1 0.6194 0.399613 21.8611
13 1 2.3238 2.56805 20.0214
14 1 4.00603 3.00495 16.946
15 1 4.90486 2.7037 19.4561
16 2 5.47918 3.0208 14.697
17 2 3.30539 0.688225 17.9991
18 2 6.48256 2.65955 17.2925
19 2 0.919626 0.567223 19.1049
20 2 5.49573 0.414219 16.3767
21 2 2.89951 1.3177 14.9829
22 2 2.85484 3.90771 13.7504
23 2 4.68692 2.40207 12.1034
24 2 4.01245 2.54632 9.6594
25 2 6.48184 4.46029 8.53363
26 2 6.90578 3.77573 11.3443
27 2 2.00835 1.06027 11.9917
28 2 1.32833 1.49484 9.34225
29 2 4.09595 3.85766 7.25284
30 2 5.36736 1.6705 6.30474
31 2 6.49492 3.96455 5.61488
32 2 1.58488 2.63897 3.51462
33 2 4.09105 1.54932 3.59237
34 2 3.88355 4.09769 4.24135
35 2 2.67571 1.83239 6.42199
ITEM: TIMESTEP
1700
ITEM: NUMBER OF ATOMS
35
ITEM: BOX BOUNDS xy xz yz pp pp pp
0.0000000000000000e+00 7.6685730000000003e+00 2.5561910000000001e+00
0.0000000000000000e+00 4.4274529999999999e+00 0.0000000000000000e+00
0.0000000000000000e+00 3.2699264999999997e+01 0.0000000000000000e+00
ITEM: ATOMS id type x y z
1 1 6.52882 3.97975 26.6478
2 1 2.73153 1.89774 27.2684
3 1 4.04569 4.52962 26.8577
4 1 5.94068 4.02102 24.121
5 1 2.45492 1.58053 25.1456
6 1 4.99029 2.14231 26.6835
7 1 3.58926 3.57685 24.2361
8 1 4.96124 1.51557 24.32
9 1 1.48098 2.31358 22.5919
10 1 4.1187 2.94614 21.7899
11 1 3.17899 0.782419 20.8259
12 1 0.16704 0.671682 21.6333
13 1 1.60003 2.95602 19.9894
14 1 4.26442 2.61955 16.868
15 1 4.38165 2.83591 19.4528
16 2 5.53802 3.01069 14.2738
17 2 3.23808 0.608792 18.2847
18 2 1.93114 2.58275 17.4067
19 2 0.485572 0.638099 19.1846
20 2 0.339079 0.183569 16.3479
21 2 3.0738 1.27829 14.9063
22 2 2.75879 4.24203 13.8563
23 2 4.29748 2.31968 12.1319
24 2 3.84423 2.87798 9.49768
25 2 4.15112 0.0145895 8.36855
26 2 6.67118 4.04156 10.9687
27 2 2.1637 0.958071 12.1751
28 2 1.46527 1.25534 9.42245
29 2 4.03089 3.84821 7.06349
30 2 5.28932 1.82785 6.33861
31 2 6.7961 3.8101 5.71244
32 2 6.56589 2.54094 3.32666
33 2 4.22338 1.27336 3.78868
34 2 4.55478 4.47179 4.18905
35 2 2.85744 1.61322 6.48956
ITEM: TIMESTEP
1800
ITEM: NUMBER OF ATOMS
35
ITEM: BOX BOUNDS xy xz yz pp pp pp
0.0000000000000000e+00 7.6685730000000003e+00 2.5561910000000001e+00
0.0000000000000000e+00 4.4274529999999999e+00 0.0000000000000000e+00
0.0000000000000000e+00 3.2699264999999997e+01 0.0000000000000000e+00
ITEM: ATOMS id type x y z
1 1 6.36138 4.48124 26.4184
2 1 2.67403 2.6318 27.8808
3 1 3.54689 4.04123 26.4733
4 1 5.66083 3.8047 24.1191
5 1 2.07639 1.47093 25.3778
6 1 5.11754 2.18173 26.7286
7 1 3.42847 3.33781 24.3199
8 1 5.16384 0.991814 24.2541
9 1 2.04359 2.48489 23.0139
10 1 4.225 3.30502 21.5841
11 1 2.16799 0.960689 20.8122
12 1 4.67596 0.479154 22.2119
13 1 6.3632 3.25781 20.44
14 1 4.87446 2.68499 16.4192
15 1 3.68815 2.56006 19.242
16 2 5.83489 2.83117 14.4393
17 2 2.87012 0.150124 18.1532
18 2 2.08244 2.61467 17.6358
19 2 0.416616 0.745621 19.2781
20 2 0.687126 0.284928 16.1206
21 2 2.87526 1.48385 15.0693
22 2 -0.161041 0.000443706 13.4409
23 2 4.25879 2.22014 11.8646
24 2 4.05939 2.78928 9.44928
25 2 6.59099 3.90608 8.21443
26 2 6.77021 4.07767 11.0079
27 2 1.87034 1.01742 12.2766
28 2 1.49991 1.31692 9.70074
29 2 4.03531 4.10276 7.25572
30 2 5.41192 1.97997 6.43624
31 2 7.2603 3.93989 5.22508
32 2 1.83136 2.56934 3.21635
33 2 4.41303 1.53243 3.73234
34 2 4.35122 4.10408 4.31839
35 2 3.11469 1.62295 6.59498
ITEM: TIMESTEP
1900
ITEM: NUMBER OF ATOMS
35
ITEM: BOX BOUNDS xy xz yz pp pp pp
0.0000000000000000e+00 7.6685730000000003e+00 2.5561910000000001e+00
0.0000000000000000e+00 4.4274529999999999e+00 0.0000000000000000e+00
0.0000000000000000e+00 3.2699264999999997e+01 0.0000000000000000e+00
ITEM: ATOMS id type x y z
1 1 3.57892 0.15422 26.4686
2 1 1.95924 2.53556 27.9149
3 1 3.63032 4.30887 26.4913
4 1 6.04257 4.11563 23.9054
5 1 2.14388 2.11981 25.5166
6 1 5.11245 2.2627 26.7661
7 1 3.45251 3.23525 24.3628
8 1 4.99669 1.36042 24.667
9 1 1.6062 1.51172 22.8612
10 1 4.0185 3.24676 22.332
11 1 2.26206 0.745303 20.6645
12 1 4.50152 0.809553 22.033
13 1 6.31822 3.05142 20.0233
14 1 4.40358 1.93738 17.5456
15 1 3.74319 3.07076 19.7871
16 2 5.2918 2.81023 14.4576
17 2 5.16723 4.31669 18.0826
18 2 1.92115 2.58636 17.5732
19 2 5.33122 0.773111 18.9962
20 2 0.609529 0.150476 16.0841
21 2 2.90145 1.54912 14.9886
22 2 7.43583 4.42365 13.5737
23 2 4.44639 2.65122 12.1799
24 2 4.26212 2.07717 9.28279
25 2 6.61801 3.83023 8.34234
26 2 6.70124 3.76792 10.892
27 2 2.1568 1.14701 12.3739
28 2 1.69441 1.24717 9.53761
29 2 3.93587 4.3057 7.3286
30 2 5.87206 2.13531 6.19055
31 2 6.96477 4.17757 5.44087
32 2 2.08974 2.38998 3.25876
33 2 4.61708 1.61377 3.39494
34 2 4.75324 4.36937 4.34122
35 2 3.25173 1.74572 6.39249
ITEM: TIMESTEP
2000
ITEM: NUMBER OF ATOMS
35
ITEM: BOX BOUNDS xy xz yz pp pp pp
0.0000000000000000e+00 7.6685730000000003e+00 2.5561910000000001e+00
0.0000000000000000e+00 4.4274529999999999e+00 0.0000000000000000e+00
0.0000000000000000e+00 3.2699264999999997e+01 0.0000000000000000e+00
ITEM: ATOMS id type x y z
1 1 3.57203 -0.059183 26.377
2 1 1.82788 2.53481 27.8422
3 1 1.02815 0.468407 27.102
4 1 5.96603 3.81622 23.9936
5 1 2.06458 2.16464 25.3863
6 1 3.94187 2.46079 27.059
7 1 3.55347 3.90977 24.6573
8 1 4.466 1.7951 24.6402
9 1 2.1625 1.31784 23.1434
10 1 4.08447 3.49043 21.9127
11 1 2.73468 0.432201 20.5301
12 1 4.84933 1.05631 21.5819
13 1 6.29284 2.6639 20.3817
14 1 4.11283 2.04214 17.1265
15 1 3.65142 2.15885 19.646
16 2 5.19783 3.22812 15.3004
17 2 2.47515 0.0595685 17.667
18 2 1.53056 2.49367 17.5691
19 2 5.09327 0.392027 19.1525
20 2 0.132547 -0.0021226 16.2225
21 2 2.71381 1.41212 14.9401
22 2 2.57986 4.29358 13.4841
23 2 4.55021 2.88742 11.6986
24 2 4.33904 1.99703 9.2234
25 2 6.73898 3.79477 8.17965
26 2 7.10348 3.82004 11.0198
27 2 2.1032 1.18666 12.4328
28 2 1.8028 0.663012 9.77179
29 2 4.29818 4.27734 7.24402
30 2 5.83136 2.2479 6.03353
31 2 7.3442 4.27541 5.44454
32 2 2.23933 2.85984 3.48598
33 2 4.9494 1.18787 3.20398
34 2 2.01437 0.011655 4.233
35 2 3.07736 2.05165 6.39091
ITEM: TIMESTEP
2100
ITEM: NUMBER OF ATOMS
35
ITEM: BOX BOUNDS xy xz yz pp pp pp
0.0000000000000000e+00 7.6685730000000003e+00 2.5561910000000001e+00
0.0000000000000000e+00 4.4274529999999999e+00 0.0000000000000000e+00
0.0000000000000000e+00 3.2699264999999997e+01 0.0000000000000000e+00
ITEM: ATOMS id type x y z
1 1 5.84144 4.34783 25.9956
2 1 6.41569 3.08926 27.8941
3 1 0.441599 0.630698 27.2003
4 1 6.10336 3.5127 23.4428
5 1 1.73837 2.13582 25.6485
6 1 4.00022 2.57074 26.7581
7 1 3.34453 4.43425 24.857
8 1 4.42766 1.77226 24.5656
9 1 2.48278 1.24771 22.6442
10 1 3.79979 3.40097 22.0408
11 1 2.53435 0.232729 20.1776
12 1 5.04225 0.905544 22.4529
13 1 6.56773 2.2887 20.7778
14 1 3.78326 2.24777 16.9485
15 1 4.11274 2.27368 19.9707
16 2 5.37389 3.19347 14.7265
17 2 2.29474 0.0539639 17.7693
18 2 6.18942 2.28704 18.1151
19 2 4.90701 0.0686699 19.0362
20 2 5.03115 0.0231215 16.2349
21 2 2.40727 1.74004 15.1327
22 2 2.44481 4.33007 13.5763
23 2 4.89064 2.39854 11.9804
24 2 4.45228 2.2344 8.89186
25 2 7.14261 3.36071 8.36583
26 2 7.29418 3.95214 10.7803
27 2 2.32089 1.37381 12.4747
28 2 1.93178 0.620565 9.92395
29 2 4.50625 4.50376 7.42929
30 2 5.64257 2.46981 5.78725
31 2 4.73488 -0.0213297 5.69656
32 2 2.39999 2.8342 3.2559
33 2 4.78523 1.4002 3.18691
34 2 4.82371 4.11741 4.07964
35 2 3.23726 2.05265 6.25615
ITEM: TIMESTEP
2200
ITEM: NUMBER OF ATOMS
35
ITEM: BOX BOUNDS xy xz yz pp pp pp
0.0000000000000000e+00 7.6685730000000003e+00 2.5561910000000001e+00
0.0000000000000000e+00 4.4274529999999999e+00 0.0000000000000000e+00
0.0000000000000000e+00 3.2699264999999997e+01 0.0000000000000000e+00
ITEM: ATOMS id type x y z
1 1 5.34324 4.7795 25.3405
2 1 5.94323 3.54869 27.6426
3 1 -0.0277873 0.57776 26.6739
4 1 6.46563 2.99341 23.2064
5 1 1.62388 2.40401 25.5772
6 1 3.93976 2.99735 26.8747
7 1 3.05743 3.95125 24.4304
8 1 4.67673 2.03315 24.5812
9 1 2.36331 1.08538 23.4388
10 1 3.50422 3.19987 22.383
11 1 2.41579 0.0564853 20.5399
12 1 4.77202 0.880133 22.3046
13 1 1.73962 2.57483 20.9923
14 1 3.64882 2.16727 17.4896
15 1 3.94303 2.13351 20.2012
16 2 4.68446 2.94567 14.5435
17 2 2.44843 0.160007 17.5858
18 2 6.15572 2.20729 18.3577
19 2 4.95044 -0.186945 19.1662
20 2 4.89461 0.223637 16.2277
21 2 2.12918 1.66496 15.267
22 2 7.56423 4.43067 13.5456
23 2 5.17855 2.3946 11.8572
24 2 4.79184 1.7548 8.72574
25 2 2.05608 3.13215 8.3573
26 2 7.19655 3.93886 11.0475
27 2 2.6653 1.20002 12.713
28 2 2.35503 0.850624 10.174
29 2 1.8554 0.309029 7.35887
30 2 5.93096 2.43845 5.63962
31 2 7.57263 4.61391 5.6312
32 2 2.23909 2.72046 3.29508
33 2 4.70564 1.52937 3.41844
34 2 4.75531 4.57181 3.88443
35 2 3.42369 1.99134 5.79765
ITEM: TIMESTEP
2300
ITEM: NUMBER OF ATOMS
35
ITEM: BOX BOUNDS xy xz yz pp pp pp
0.0000000000000000e+00 7.6685730000000003e+00 2.5561910000000001e+00
0.0000000000000000e+00 4.4274529999999999e+00 0.0000000000000000e+00
0.0000000000000000e+00 3.2699264999999997e+01 0.0000000000000000e+00
ITEM: ATOMS id type x y z
1 1 2.60951 0.0432758 25.4824
2 1 6.07083 3.83228 27.9226
3 1 4.90159 1.2204 26.8745
4 1 5.85921 3.46187 23.4253
5 1 1.54819 2.3097 25.5601
6 1 3.4199 3.08204 26.746
7 1 3.17042 4.36007 24.2939
8 1 3.88037 1.95318 24.4518
9 1 2.28379 1.16214 22.9018
10 1 3.74438 2.99496 22.1163
11 1 4.97322 4.35334 20.5852
12 1 4.75941 0.531005 21.6961
13 1 1.10884 2.21521 21.0352
14 1 3.35589 2.51836 17.0795
15 1 3.83586 1.78124 19.9354
16 2 4.40156 3.02382 15.0645
17 2 5.09529 4.29332 17.6637
18 2 6.21102 2.09997 18.2936
19 2 2.76727 4.34969 19.3594
20 2 4.68589 0.177168 16.375
21 2 1.85682 1.5547 15.5318
22 2 7.49808 4.21948 13.6957
23 2 5.03037 2.66626 11.2878
24 2 4.93528 1.37826 8.50896
25 2 1.9972 3.20112 8.39447
26 2 2.69552 3.88473 10.9735
27 2 2.68047 1.01229 12.9251
28 2 2.62959 0.796121 10.0913
29 2 2.45207 0.212207 7.44919
30 2 5.7247 2.88319 5.88212
31 2 2.90852 4.54105 5.73593
32 2 1.9467 3.2126 3.19425
33 2 4.74914 1.54279 3.06467
34 2 2.1314 0.206936 4.00211
35 2 3.42882 1.9092 5.65217
ITEM: TIMESTEP
2400
ITEM: NUMBER OF ATOMS
35
ITEM: BOX BOUNDS xy xz yz pp pp pp
0.0000000000000000e+00 7.6685730000000003e+00 2.5561910000000001e+00
0.0000000000000000e+00 4.4274529999999999e+00 0.0000000000000000e+00
0.0000000000000000e+00 3.2699264999999997e+01 0.0000000000000000e+00
ITEM: ATOMS id type x y z
1 1 2.67029 0.00422272 25.5885
2 1 6.18701 3.58659 27.311
3 1 4.87196 1.51197 27.2863
4 1 5.56066 3.32737 23.2808
5 1 6.10622 1.95415 25.4573
6 1 3.23605 3.70086 26.7268
7 1 0.172883 -0.00346526 24.4776
8 1 3.73484 2.11377 24.6688
9 1 1.87876 1.03325 22.8376
10 1 3.71438 2.78322 21.9847
11 1 5.24922 4.51499 20.5207
12 1 4.52817 0.419493 21.9489
13 1 6.02691 2.16924 20.5594
14 1 3.82915 2.26502 17.1999
15 1 3.66339 1.82948 19.5603
16 2 4.86343 3.06063 14.8803
17 2 4.95571 4.31384 18.0282
18 2 6.09968 2.03458 18.1993
19 2 2.57944 4.16651 19.3311
20 2 4.6164 0.0926277 16.4398
21 2 1.64371 1.42193 15.3572
22 2 7.25374 4.05848 13.6166
23 2 5.47777 2.37577 11.4291
24 2 4.97886 1.64797 8.36654
25 2 2.35838 2.91866 8.55127
26 2 3.04084 4.09053 11.0196
27 2 2.4238 1.14727 12.8111
28 2 2.81067 0.957263 10.3471
29 2 2.4211 0.138148 7.73785
30 2 5.94139 2.91363 5.64432
31 2 0.360147 0.205758 6.00444
32 2 7.17014 3.48869 3.34994
33 2 4.71307 1.82508 3.13238
34 2 2.16674 0.124436 3.64087
35 2 3.12497 1.81939 5.50314
ITEM: TIMESTEP
2500
ITEM: NUMBER OF ATOMS
35
ITEM: BOX BOUNDS xy xz yz pp pp pp
0.0000000000000000e+00 7.6685730000000003e+00 2.5561910000000001e+00
0.0000000000000000e+00 4.4274529999999999e+00 0.0000000000000000e+00
0.0000000000000000e+00 3.2699264999999997e+01 0.0000000000000000e+00
ITEM: ATOMS id type x y z
1 1 2.55326 0.0493721 25.2149
2 1 5.99953 3.31682 27.2233
3 1 3.86884 1.4162 27.0134
4 1 5.61221 2.81517 23.0766
5 1 1.175 2.04724 25.3388
6 1 3.76361 3.97222 26.9009
7 1 7.24942 4.21929 24.3753
8 1 3.74912 2.37503 24.8931
9 1 1.72591 1.02587 23.2488
10 1 2.6568 2.72948 22.1204
11 1 4.41042 3.96884 20.9179
12 1 4.63986 0.609104 22.204
13 1 6.22053 2.19745 20.6595
14 1 3.89972 2.43001 16.7345
15 1 3.8337 2.24487 19.4539
16 2 4.73716 2.8916 14.1536
17 2 2.35326 0.0456822 18.0475
18 2 5.9682 2.14608 17.6121
19 2 7.18107 3.98397 19.3769
20 2 7.18952 4.02803 16.3081
21 2 2.16832 1.00689 15.4834
22 2 7.19394 4.34197 13.5975
23 2 5.64221 2.51241 11.7539
24 2 5.0897 1.82438 8.601
25 2 2.48731 3.0793 8.47561
26 2 3.1338 3.98147 10.9134
27 2 2.67449 1.39022 13.1188
28 2 3.48681 0.886188 10.4053
29 2 4.86825 4.43203 7.91341
30 2 5.56385 3.0654 5.63072
31 2 0.339252 0.0467273 6.03936
32 2 2.32215 3.358 3.46227
33 2 4.78252 2.0231 3.42586
34 2 1.88941 0.576792 3.38628
35 2 3.40789 1.68587 5.6967
ITEM: TIMESTEP
2600
ITEM: NUMBER OF ATOMS
35
ITEM: BOX BOUNDS xy xz yz pp pp pp
0.0000000000000000e+00 7.6685730000000003e+00 2.5561910000000001e+00
0.0000000000000000e+00 4.4274529999999999e+00 0.0000000000000000e+00
0.0000000000000000e+00 3.2699264999999997e+01 0.0000000000000000e+00
ITEM: ATOMS id type x y z
1 1 5.22671 3.9393 25.099
2 1 6.35115 3.28749 27.5558
3 1 2.87597 1.39179 26.8429
4 1 5.40783 2.64708 22.7207
5 1 6.21802 1.69272 25.3442
6 1 3.14306 4.53812 27.3585
7 1 7.46021 4.44367 24.7052
8 1 3.57977 2.01471 24.4537
9 1 1.65515 0.619042 23.0478
10 1 2.65929 2.90289 22.462
11 1 4.32838 4.13232 20.7116
12 1 3.7681 0.838484 21.6746
13 1 5.8165 1.60084 20.0408
14 1 3.46274 2.2719 16.5242
15 1 3.54199 2.13086 18.8926
16 2 4.88403 2.61921 14.306
17 2 2.04776 0.0180976 18.4663
18 2 6.08025 2.15284 17.4471
19 2 7.13481 4.11636 19.1813
20 2 7.14687 4.27204 16.0105
21 2 2.08469 0.361651 15.5371
22 2 5.32249 0.097395 13.3992
23 2 5.94986 2.72163 11.2985
24 2 5.30785 1.73016 8.7283
25 2 2.27651 3.29614 8.28938
26 2 3.6402 3.76691 10.9177
27 2 2.49843 1.59015 12.7623
28 2 3.60264 0.708671 10.6412
29 2 2.48066 0.185762 8.441
30 2 5.52284 3.10647 5.88034
31 2 0.660127 0.241672 5.86235
32 2 2.05349 3.68387 3.73125
33 2 4.62499 1.97307 3.32435
34 2 2.30222 0.881206 3.62027
35 2 2.98625 1.41718 6.23935
ITEM: TIMESTEP
2700
ITEM: NUMBER OF ATOMS
35
ITEM: BOX BOUNDS xy xz yz pp pp pp
0.0000000000000000e+00 7.6685730000000003e+00 2.5561910000000001e+00
0.0000000000000000e+00 4.4274529999999999e+00 0.0000000000000000e+00
0.0000000000000000e+00 3.2699264999999997e+01 0.0000000000000000e+00
ITEM: ATOMS id type x y z
1 1 4.54644 3.54312 25.2126
2 1 5.96267 3.22529 26.9639
3 1 3.09267 1.52365 27.0724
4 1 4.89081 2.45121 22.9506
5 1 1.18546 1.72588 25.0275
6 1 0.161975 0.902501 26.9034
7 1 7.49477 3.6109 24.9749
8 1 3.55315 1.37138 24.34
9 1 1.78412 0.328392 23.1176
10 1 2.01398 3.67714 22.307
11 1 4.10189 3.52451 20.7912
12 1 3.57396 0.976979 21.0415
13 1 6.0177 2.27768 20.3156
14 1 3.0821 2.44067 16.3961
15 1 3.2718 1.72597 18.8451
16 2 5.52661 2.30031 14.3228
17 2 4.41057 4.23266 18.0645
18 2 5.78665 2.31713 17.1784
19 2 7.14355 4.13032 18.97
20 2 4.51704 0.155444 16.2003
21 2 1.94788 0.39924 15.4842
22 2 0.186033 -0.173464 13.1136
23 2 6.51781 2.26804 10.6615
24 2 5.08604 1.71108 8.40213
25 2 2.55958 3.40501 8.28654
26 2 3.63608 3.84408 10.701
27 2 2.76499 1.33309 13.4837
28 2 3.9716 1.17136 10.9085
29 2 2.40818 0.128689 8.7399
30 2 5.66252 2.9528 6.09894
31 2 0.620964 0.260673 6.05858
32 2 7.07546 3.89281 3.85553
33 2 4.59365 2.48369 3.69798
34 2 2.06275 0.6865 3.92307
35 2 3.21516 1.69334 6.34487
ITEM: TIMESTEP
2800
ITEM: NUMBER OF ATOMS
35
ITEM: BOX BOUNDS xy xz yz pp pp pp
0.0000000000000000e+00 7.6685730000000003e+00 2.5561910000000001e+00
0.0000000000000000e+00 4.4274529999999999e+00 0.0000000000000000e+00
0.0000000000000000e+00 3.2699264999999997e+01 0.0000000000000000e+00
ITEM: ATOMS id type x y z
1 1 4.36711 3.50793 25.2396
2 1 6.17744 3.62238 27.0284
3 1 2.48751 1.93044 26.5559
4 1 4.66055 2.0695 22.7257
5 1 0.86812 1.18654 24.5368
6 1 5.46438 0.668235 26.7451
7 1 2.09404 3.07385 24.6822
8 1 3.4133 0.904676 24.6929
9 1 1.64607 0.252636 22.5261
10 1 6.61431 3.81478 22.4317
11 1 4.01436 3.64139 20.591
12 1 3.24254 1.42815 21.0852
13 1 6.08809 1.62759 20.2306
14 1 3.04571 2.46439 15.8041
15 1 3.18699 2.15521 18.2491
16 2 5.70625 2.50343 13.8202
17 2 4.47736 4.44532 18.2439
18 2 5.72148 2.17592 17.2858
19 2 6.77327 4.32107 19.0136
20 2 4.09916 0.281449 16.2239
21 2 1.59447 0.0685358 15.4582
22 2 2.72107 3.70913 13.3217
23 2 1.5886 2.2181 10.8359
24 2 4.92189 1.84681 8.48558
25 2 2.52381 3.14134 8.65934
26 2 4.09688 3.92746 10.9818
27 2 3.50634 1.28664 13.5331
28 2 4.205 1.12419 11.0792
29 2 2.84244 0.329039 8.3795
30 2 5.96454 3.38577 6.23329
31 2 0.696673 0.0726753 6.32962
32 2 7.10697 3.75524 3.79305
33 2 4.4742 2.59108 4.03748
34 2 1.67931 1.16765 3.94125
35 2 3.30649 1.60568 5.94064
ITEM: TIMESTEP
2900
ITEM: NUMBER OF ATOMS
35
ITEM: BOX BOUNDS xy xz yz pp pp pp
0.0000000000000000e+00 7.6685730000000003e+00 2.5561910000000001e+00
0.0000000000000000e+00 4.4274529999999999e+00 0.0000000000000000e+00
0.0000000000000000e+00 3.2699264999999997e+01 0.0000000000000000e+00
ITEM: ATOMS id type x y z
1 1 4.7553 2.77563 25.1369
2 1 5.63376 4.37365 26.7976
3 1 2.49429 2.062 26.6738
4 1 4.49208 2.14136 22.5911
5 1 5.47673 0.664349 24.6627
6 1 0.654041 0.154581 26.836
7 1 2.00346 2.98241 24.0121
8 1 2.91115 0.660828 24.322
9 1 1.42581 0.511979 22.4643
10 1 6.75273 3.72154 21.6866
11 1 4.1669 3.56234 20.5176
12 1 2.40797 1.50016 20.5958
13 1 5.6576 1.91172 19.7977
14 1 2.44451 2.34571 15.4932
15 1 2.95814 2.37109 17.9043
16 2 5.51675 2.53563 13.8319
17 2 1.58933 0.278604 18.2107
18 2 5.4744 2.40555 17.3098
19 2 6.88563 4.2527 19.4762
20 2 4.13329 0.0675513 16.2297
21 2 1.44151 0.0272886 15.41
22 2 3.17918 3.7689 12.9714
23 2 1.73037 2.38465 11.589
24 2 5.42185 2.02241 8.76134
25 2 2.73997 3.2109 8.94915
26 2 4.81296 3.89453 11.1341
27 2 3.24562 0.651817 13.4904
28 2 4.38297 0.759742 10.8899
29 2 2.68295 0.391056 8.69152
30 2 6.00756 3.10229 6.13109
31 2 0.92369 0.209201 6.42949
32 2 6.98133 4.25644 3.75025
33 2 4.4781 2.73241 3.72528
34 2 1.67288 1.10695 3.79374
35 2 3.25103 1.68409 6.09796
ITEM: TIMESTEP
3000
ITEM: NUMBER OF ATOMS
35
ITEM: BOX BOUNDS xy xz yz pp pp pp
0.0000000000000000e+00 7.6685730000000003e+00 2.5561910000000001e+00
0.0000000000000000e+00 4.4274529999999999e+00 0.0000000000000000e+00
0.0000000000000000e+00 3.2699264999999997e+01 0.0000000000000000e+00
ITEM: ATOMS id type x y z
1 1 4.52802 2.46114 25.0183
2 1 5.92162 4.36563 26.3728
3 1 2.18987 2.47618 25.9461
4 1 4.16233 2.28083 22.5134
5 1 0.218643 0.0908967 24.7895
6 1 3.33868 4.4347 27.2647
7 1 1.67583 2.28077 23.7328
8 1 2.9119 0.205405 23.9383
9 1 0.842021 0.757197 22.4561
10 1 6.39844 3.81839 21.9614
11 1 3.80661 4.13243 20.6328
12 1 2.84236 1.65177 20.4892
13 1 5.04866 2.25207 19.6894
14 1 2.71013 2.29832 14.9558
15 1 2.62858 2.50235 17.8266
16 2 5.31867 1.86562 14.3989
17 2 1.49868 0.298771 18.2884
18 2 5.11675 2.48799 17.0527
19 2 6.67654 4.30249 19.0847
20 2 4.00202 0.376398 16.3737
21 2 4.08637 4.46532 15.6386
22 2 3.06019 4.07914 13.1993
23 2 2.17552 1.77084 11.6238
24 2 5.73684 2.11618 8.46886
25 2 2.993 3.45634 9.14442
26 2 5.01045 3.44874 10.9452
27 2 3.14822 0.227976 13.4365
28 2 4.9259 0.988287 10.9074
29 2 2.79446 0.665143 8.63517
30 2 5.85017 2.97262 5.97444
31 2 0.860033 0.162297 6.31142
32 2 4.39754 0.100984 4.05831
33 2 4.24752 2.88578 3.6723
34 2 2.05896 1.18296 3.88251
35 2 3.45551 1.94457 6.44505
ITEM: TIMESTEP
3100
ITEM: NUMBER OF ATOMS
35
ITEM: BOX BOUNDS xy xz yz pp pp pp
0.0000000000000000e+00 7.6685730000000003e+00 2.5561910000000001e+00
0.0000000000000000e+00 4.4274529999999999e+00 0.0000000000000000e+00
0.0000000000000000e+00 3.2699264999999997e+01 0.0000000000000000e+00
ITEM: ATOMS id type x y z
1 1 4.50284 2.13027 25.2104
2 1 3.49882 0.182288 26.1362
3 1 1.87481 2.08087 26.1268
4 1 3.67329 2.88758 22.815
5 1 3.14777 4.06905 24.7162
6 1 0.841116 0.0284045 26.8944
7 1 1.56738 2.39115 23.7852
8 1 5.3065 4.4944 23.8917
9 1 4.56995 0.627654 22.7694
10 1 5.88367 4.00581 21.1436
11 1 3.56067 4.0563 20.9264
12 1 2.40258 2.21775 20.4942
13 1 5.16993 2.04382 20.0555
14 1 2.40639 2.3062 15.2265
15 1 3.1115 2.44243 17.4949
16 2 4.97359 2.07049 13.9721
17 2 1.19251 0.382458 18.4548
18 2 5.4271 2.31879 17.1726
19 2 6.31498 4.53272 18.7874
20 2 4.02458 0.0713111 16.1608
21 2 1.41247 -0.0110214 15.7798
22 2 3.17007 3.57968 13.0615
23 2 2.64639 1.95831 11.4134
24 2 5.59991 2.2731 8.29476
25 2 3.0835 3.40652 9.02697
26 2 5.42625 3.39672 11.1784
27 2 5.74077 4.40743 13.6313
28 2 4.92955 0.533463 11.0605
29 2 3.40278 0.475716 8.72688
30 2 5.86307 3.37236 5.82996
31 2 0.94252 0.219074 6.62591
32 2 4.81285 0.29241 4.07437
33 2 4.26641 2.99481 3.82844
34 2 1.89571 1.63678 4.16997
35 2 3.27826 1.90282 6.25693
ITEM: TIMESTEP
3200
ITEM: NUMBER OF ATOMS
35
ITEM: BOX BOUNDS xy xz yz pp pp pp
0.0000000000000000e+00 7.6685730000000003e+00 2.5561910000000001e+00
0.0000000000000000e+00 4.4274529999999999e+00 0.0000000000000000e+00
0.0000000000000000e+00 3.2699264999999997e+01 0.0000000000000000e+00
ITEM: ATOMS id type x y z
1 1 4.70825 2.05147 25.7748
2 1 3.02848 -0.154614 26.3008
3 1 2.01553 1.97584 25.9728
4 1 3.67571 3.15404 22.7157
5 1 2.49675 4.13071 24.8047
6 1 3.49197 3.69254 27.1631
7 1 6.08038 2.58273 23.238
8 1 2.42441 0.652575 23.978
9 1 4.50934 0.685478 22.9851
10 1 5.53712 4.11615 21.4191
11 1 0.546816 0.452677 21.1553
12 1 1.69668 2.21472 20.1288
13 1 4.03707 2.28408 20.3552
14 1 2.29474 2.20715 15.3767
15 1 2.60663 2.29389 17.9298
16 2 5.6936 1.85143 13.5841
17 2 1.29219 -0.0851115 18.6484
18 2 5.51843 2.29085 17.0591
19 2 3.72811 -0.0520966 18.603
20 2 4.04324 0.168021 15.9405
21 2 4.02316 4.01299 15.9789
22 2 3.07793 3.65619 13.3699
23 2 2.47847 1.53901 11.0213
24 2 5.81084 2.08564 8.7197
25 2 3.28007 3.03286 8.92227
26 2 5.34062 3.30297 11.0635
27 2 2.98895 0.442836 13.3188
28 2 5.32775 0.636707 11.029
29 2 3.50808 0.422848 8.8086
30 2 5.99968 3.68977 6.28447
31 2 1.08118 0.379189 6.8041
32 2 4.49566 0.420355 3.783
33 2 4.57869 3.41016 3.80052
34 2 1.88175 1.85177 3.90932
35 2 3.42772 2.04812 6.2924
ITEM: TIMESTEP
3300
ITEM: NUMBER OF ATOMS
35
ITEM: BOX BOUNDS xy xz yz pp pp pp
0.0000000000000000e+00 7.6685730000000003e+00 2.5561910000000001e+00
0.0000000000000000e+00 4.4274529999999999e+00 0.0000000000000000e+00
0.0000000000000000e+00 3.2699264999999997e+01 0.0000000000000000e+00
ITEM: ATOMS id type x y z
1 1 4.27824 1.76934 25.4597
2 1 5.8763 3.83429 26.5901
3 1 1.61987 1.51101 26.3044
4 1 3.30859 3.22776 23.0821
5 1 2.64159 3.78405 25.1511
6 1 3.07235 3.33954 27.4973
7 1 5.79729 3.08487 22.9165
8 1 1.67374 0.811779 23.7711
9 1 4.33448 1.29097 23.3065
10 1 2.54338 0.409783 21.0263
11 1 0.0640012 0.142373 21.1144
12 1 5.99479 2.32887 20.1378
13 1 3.49837 2.13776 20.4008
14 1 2.15312 2.05404 15.8311
15 1 2.80436 1.82886 18.1399
16 2 5.81615 2.23259 13.8076
17 2 3.98311 4.34681 18.6783
18 2 5.32597 1.85466 17.4771
19 2 6.62474 4.24469 18.6064
20 2 4.14403 0.302757 15.632
21 2 4.24094 3.90881 15.7802
22 2 2.97663 3.53235 13.3639
23 2 2.84275 1.96982 10.8852
24 2 6.19144 1.71107 8.76235
25 2 3.54875 3.48828 8.72085
26 2 5.1743 3.15246 11.1199
27 2 2.99463 0.432329 13.3066
28 2 5.06106 0.12609 11.0087
29 2 3.36655 0.314934 8.5916
30 2 6.40989 3.44061 6.39227
31 2 1.00349 0.715243 5.98457
32 2 4.33258 0.491832 4.02112
33 2 4.46989 3.69131 4.06048
34 2 2.03838 2.10381 3.91479
35 2 3.75929 2.17435 6.32434
ITEM: TIMESTEP
3400
ITEM: NUMBER OF ATOMS
35
ITEM: BOX BOUNDS xy xz yz pp pp pp
0.0000000000000000e+00 7.6685730000000003e+00 2.5561910000000001e+00
0.0000000000000000e+00 4.4274529999999999e+00 0.0000000000000000e+00
0.0000000000000000e+00 3.2699264999999997e+01 0.0000000000000000e+00
ITEM: ATOMS id type x y z
1 1 3.7182 1.48893 25.8747
2 1 5.48221 3.62659 26.2233
3 1 1.23314 1.06735 26.3048
4 1 2.95418 2.83837 22.8285
5 1 2.70229 3.86018 25.2416
6 1 2.81669 2.91113 27.407
7 1 5.55013 3.21852 23.369
8 1 1.83845 1.4097 24.0095
9 1 4.21221 0.779222 23.1343
10 1 1.54522 0.288308 21.5776
11 1 6.33404 4.24741 20.6673
12 1 5.85976 1.88731 20.5264
13 1 3.45768 2.51052 20.5705
14 1 2.36105 1.97688 15.888
15 1 3.05796 1.93058 18.2122
16 2 5.11144 1.92243 13.9739
17 2 4.29278 4.29018 18.5716
18 2 5.37383 2.0514 17.7328
19 2 6.82833 4.24912 18.2483
20 2 4.54724 0.252419 15.869
21 2 4.41191 3.80168 16.0324
22 2 3.04977 3.39704 13.3724
23 2 2.64475 1.7921 10.9365
24 2 6.12303 2.10403 8.5513
25 2 3.77212 3.61907 8.27019
26 2 5.37252 3.05789 11.1967
27 2 2.94121 0.673496 13.2772
28 2 5.0303 0.45326 11.0685
29 2 3.79801 0.483213 8.53257
30 2 6.51204 3.50115 6.18086
31 2 1.35948 0.691513 6.07368
32 2 4.30527 0.827015 3.97374
33 2 4.43896 3.3492 4.05688
34 2 1.96216 2.46917 3.73415
35 2 3.9064 1.93133 6.39726
ITEM: TIMESTEP
3500
ITEM: NUMBER OF ATOMS
35
ITEM: BOX BOUNDS xy xz yz pp pp pp
0.0000000000000000e+00 7.6685730000000003e+00 2.5561910000000001e+00
0.0000000000000000e+00 4.4274529999999999e+00 0.0000000000000000e+00
0.0000000000000000e+00 3.2699264999999997e+01 0.0000000000000000e+00
ITEM: ATOMS id type x y z
1 1 3.9189 1.04243 25.6604
2 1 4.73275 3.30801 26.1995
3 1 0.894798 1.08477 26.9469
4 1 2.41845 2.38826 22.6728
5 1 2.44367 3.53549 24.8608
6 1 2.46729 2.96164 26.9049
7 1 5.0134 2.80123 23.5475
8 1 1.79274 0.797828 24.5423
9 1 4.27416 0.742067 23.0074
10 1 1.44827 0.257303 22.3179
11 1 6.05773 4.42886 21.2354
12 1 5.46763 2.07145 20.1484
13 1 2.88301 2.40414 20.2164
14 1 2.53299 2.05218 15.4918
15 1 3.50835 2.00473 17.6664
16 2 5.62924 1.87808 14.0383
17 2 4.25556 4.39268 19.1277
18 2 5.85693 2.06561 17.4289
19 2 6.87523 4.11395 18.607
20 2 4.51355 0.156754 15.8067
21 2 4.51873 3.77233 15.9799
22 2 2.50938 3.47113 13.3666
23 2 2.51796 1.66189 10.6369
24 2 6.4047 2.50604 8.45964
25 2 3.8268 3.66601 8.87462
26 2 5.28553 3.4244 11.2287
27 2 2.4633 0.432025 13.3776
28 2 5.37147 0.478796 11.1601
29 2 4.1141 0.836779 8.80055
30 2 6.69116 3.62906 5.99374
31 2 1.63314 0.480234 6.28784
32 2 4.22901 0.687643 3.58606
33 2 4.5322 3.77644 3.87345
34 2 1.79412 2.17357 3.4766
35 2 3.90751 2.07206 6.08515
ITEM: TIMESTEP
3600
ITEM: NUMBER OF ATOMS
35
ITEM: BOX BOUNDS xy xz yz pp pp pp
0.0000000000000000e+00 7.6685730000000003e+00 2.5561910000000001e+00
0.0000000000000000e+00 4.4274529999999999e+00 0.0000000000000000e+00
0.0000000000000000e+00 3.2699264999999997e+01 0.0000000000000000e+00
ITEM: ATOMS id type x y z
1 1 3.70973 1.04735 26.2392
2 1 4.82975 3.36751 26.6921
3 1 0.612162 0.847009 27.2366
4 1 2.11472 1.82946 22.2003
5 1 2.55841 2.69864 24.4586
6 1 1.95692 2.9796 26.8131
7 1 5.13413 3.22285 23.5508
8 1 1.26147 0.518686 24.9591
9 1 4.05718 0.770662 23.6321
10 1 3.41146 4.03703 21.7552
11 1 6.39262 4.05261 21.097
12 1 4.92422 1.79765 20.3082
13 1 2.65204 2.10937 20.0013
14 1 2.81822 1.97864 15.2858
15 1 3.57175 2.24313 17.945
16 2 5.13599 2.08461 14.0563
17 2 4.18619 4.41396 19.4548
18 2 1.21701 1.66519 17.2846
19 2 6.78419 4.21099 18.5917
20 2 4.48089 0.171222 15.7471
21 2 4.49952 3.97392 16.1431
22 2 2.62971 3.31026 13.2625
23 2 2.67568 2.08932 10.9664
24 2 1.50865 2.57309 8.27613
25 2 3.98006 3.96263 8.83993
26 2 5.29923 3.18585 11.1278
27 2 2.64382 0.274967 13.5134
28 2 5.14388 0.53927 11.1995
29 2 4.17511 1.06801 8.42109
30 2 6.91523 3.59565 5.75352
31 2 1.52953 0.710783 6.43921
32 2 4.49241 0.682948 3.55703
33 2 4.13677 3.78026 3.67263
34 2 1.75253 2.05538 3.7299
35 2 4.36322 2.31316 5.89406
ITEM: TIMESTEP
3700
ITEM: NUMBER OF ATOMS
35
ITEM: BOX BOUNDS xy xz yz pp pp pp
0.0000000000000000e+00 7.6685730000000003e+00 2.5561910000000001e+00
0.0000000000000000e+00 4.4274529999999999e+00 0.0000000000000000e+00
0.0000000000000000e+00 3.2699264999999997e+01 0.0000000000000000e+00
ITEM: ATOMS id type x y z
1 1 3.025 0.913938 26.976
2 1 4.43824 3.03305 26.2097
3 1 0.750506 0.777131 27.3146
4 1 1.46815 0.791021 22.6453
5 1 2.82079 2.21552 24.5297
6 1 1.85586 3.40831 26.6451
7 1 5.19766 3.31353 24.1308
8 1 0.698852 0.548622 24.9689
9 1 4.37335 0.859316 23.2165
10 1 3.06458 2.79697 22.3354
11 1 6.02214 4.00744 21.0883
12 1 5.07775 1.8233 20.7156
13 1 2.19867 2.32919 19.9029
14 1 2.59621 1.96383 15.787
15 1 3.83882 1.9629 18.2372
16 2 5.17738 1.90703 13.9303
17 2 3.92598 4.26162 19.4954
18 2 1.11436 1.67202 17.685
19 2 6.60166 4.17668 18.2181
20 2 4.57514 0.129337 15.7065
21 2 4.68289 3.69731 16.2151
22 2 2.92545 3.50581 13.399
23 2 2.81372 1.89803 10.9247
24 2 1.63374 2.77037 8.67059
25 2 4.11063 4.27394 8.48947
26 2 5.35781 3.43141 10.9959
27 2 2.6659 0.532434 13.1785
28 2 5.13829 0.520188 10.8413
29 2 3.97637 1.12327 8.36281
30 2 6.85485 4.09201 6.09982
31 2 1.9106 0.858055 5.85632
32 2 4.27807 0.837479 3.60221
33 2 4.34288 3.38696 3.52273
34 2 1.81288 2.20228 3.79759
35 2 4.55643 2.35312 6.05134
ITEM: TIMESTEP
3800
ITEM: NUMBER OF ATOMS
35
ITEM: BOX BOUNDS xy xz yz pp pp pp
0.0000000000000000e+00 7.6685730000000003e+00 2.5561910000000001e+00
0.0000000000000000e+00 4.4274529999999999e+00 0.0000000000000000e+00
0.0000000000000000e+00 3.2699264999999997e+01 0.0000000000000000e+00
ITEM: ATOMS id type x y z
1 1 2.6509 0.791806 27.0069
2 1 4.23538 2.73749 26.276
3 1 5.48315 1.36154 27.6362
4 1 1.67027 -0.0580246 22.7387
5 1 2.37747 1.48072 24.8249
6 1 6.65938 3.28344 26.1846
7 1 5.85594 3.02034 24.0357
8 1 0.288242 0.538335 25.0774
9 1 3.98188 0.754727 23.4845
10 1 2.5347 2.74699 22.6278
11 1 6.22982 4.04434 20.9456
12 1 4.5766 1.8859 20.7051
13 1 2.0424 1.58396 20.4636
14 1 2.3248 1.77171 15.6908
15 1 3.22313 2.2816 17.8578
16 2 5.83671 2.31607 13.3346
17 2 3.8955 3.96846 19.8474
18 2 5.77856 1.27703 17.887
19 2 6.02036 3.96333 18.5485
20 2 4.80897 0.274206 15.6272
21 2 4.68791 3.28809 15.9621
22 2 2.91266 3.61348 13.0986
23 2 2.86966 1.97967 10.946
24 2 6.54589 2.72648 8.53106
25 2 4.16302 4.24965 8.25168
26 2 5.31958 3.54493 10.8919
27 2 2.89683 0.712878 13.3633
28 2 0.545964 0.350415 10.8343
29 2 4.07452 1.44548 8.65954
30 2 7.16998 3.947 6.3747
31 2 2.19315 1.03784 5.69311
32 2 4.30359 0.638726 3.75699
33 2 4.521 3.84188 3.62666
34 2 1.88545 2.58941 3.37368
35 2 4.3733 2.74902 6.13498
ITEM: TIMESTEP
3900
ITEM: NUMBER OF ATOMS
35
ITEM: BOX BOUNDS xy xz yz pp pp pp
0.0000000000000000e+00 7.6685730000000003e+00 2.5561910000000001e+00
0.0000000000000000e+00 4.4274529999999999e+00 0.0000000000000000e+00
0.0000000000000000e+00 3.2699264999999997e+01 0.0000000000000000e+00
ITEM: ATOMS id type x y z
1 1 2.27582 0.395124 27.3417
2 1 3.93197 2.9375 25.7445
3 1 4.91281 1.57506 27.6439
4 1 1.97292 -0.215133 22.5528
5 1 2.40692 0.725772 24.9097
6 1 6.54165 2.75256 26.6239
7 1 5.48319 2.36641 24.326
8 1 -0.225454 0.487727 25.7528
9 1 4.04542 1.06564 22.487
10 1 2.41234 3.13076 23.2304
11 1 6.11085 3.65231 20.9461
12 1 5.08727 1.37923 20.6353
13 1 2.1343 1.37118 20.5867
14 1 1.74933 1.73994 15.4724
15 1 2.89425 2.5167 17.8711
16 2 5.71517 2.30843 13.2363
17 2 3.25264 3.47841 20.1953
18 2 5.40277 0.798693 18.2791
19 2 5.63588 3.94011 18.2194
20 2 4.71114 0.16511 15.5812
21 2 4.69629 3.11589 15.6771
22 2 3.48641 3.8325 13.3608
23 2 3.00567 2.06776 10.9984
24 2 6.67809 2.62881 8.30301
25 2 4.23212 4.33449 8.4373
26 2 5.73828 3.55787 10.6238
27 2 3.46647 0.757558 13.5743
28 2 0.362276 0.84032 10.7655
29 2 4.08206 1.40077 8.43446
30 2 7.23351 4.15924 5.9536
31 2 2.00156 1.43987 6.02635
32 2 4.8259 1.2727 3.88258
33 2 4.34724 4.14191 3.68632
34 2 2.02062 2.51245 3.43348
35 2 4.75151 2.58437 5.87538
ITEM: TIMESTEP
4000
ITEM: NUMBER OF ATOMS
35
ITEM: BOX BOUNDS xy xz yz pp pp pp
0.0000000000000000e+00 7.6685730000000003e+00 2.5561910000000001e+00
0.0000000000000000e+00 4.4274529999999999e+00 0.0000000000000000e+00
0.0000000000000000e+00 3.2699264999999997e+01 0.0000000000000000e+00
ITEM: ATOMS id type x y z
1 1 2.09541 -0.0859075 27.1754
2 1 3.54907 2.82103 25.6944
3 1 3.73404 1.73761 27.7997
4 1 1.38145 0.259701 22.6693
5 1 2.21746 0.377396 24.9426
6 1 6.3258 2.33934 26.7979
7 1 5.51974 2.02874 24.332
8 1 4.70488 0.271494 25.5984
9 1 3.78494 1.12738 22.8024
10 1 2.47828 3.01021 23.5827
11 1 6.21097 3.11813 20.6402
12 1 4.6483 0.949462 20.5168
13 1 2.30107 1.02103 20.1071
14 1 2.38062 1.29935 15.7765
15 1 2.82233 2.11331 17.9472
16 2 6.07441 2.24573 13.4018
17 2 3.32523 3.27447 20.367
18 2 5.46895 0.797509 18.0318
19 2 5.12572 3.686 18.189
20 2 6.99514 4.18469 15.9828
21 2 4.44264 3.00652 15.8659
22 2 3.78291 3.99825 13.3221
23 2 3.07351 2.31039 10.8006
24 2 1.94881 2.97457 8.38752
25 2 4.11832 4.20127 8.5503
26 2 5.72817 3.95388 10.7716
27 2 3.4934 0.982061 13.1564
28 2 5.61462 0.893513 10.7887
29 2 4.19957 1.15059 8.13347
30 2 4.56946 0.100327 5.71353
31 2 2.10824 1.14736 6.03081
32 2 4.61336 1.5293 3.09574
33 2 4.80115 4.29312 3.69154
34 2 2.34473 2.7723 3.89922
35 2 4.7625 3.06188 6.27307
ITEM: TIMESTEP
4100
ITEM: NUMBER OF ATOMS
35
ITEM: BOX BOUNDS xy xz yz pp pp pp
0.0000000000000000e+00 7.6685730000000003e+00 2.5561910000000001e+00
0.0000000000000000e+00 4.4274529999999999e+00 0.0000000000000000e+00
0.0000000000000000e+00 3.2699264999999997e+01 0.0000000000000000e+00
ITEM: ATOMS id type x y z
1 1 4.37412 3.86025 27.3015
2 1 3.26876 2.26151 25.1781
3 1 2.82067 1.65276 27.5084
4 1 1.41935 0.715497 22.3299
5 1 1.96237 0.364483 24.8506
6 1 5.70033 1.82795 26.6251
7 1 5.58838 2.41923 24.2386
8 1 4.50004 -0.165703 26.0775
9 1 3.70544 0.697026 23.0832
10 1 2.37807 3.16515 22.9896
11 1 5.91446 2.79365 21.6121
12 1 3.88745 0.472005 20.4481
13 1 1.69747 1.30886 19.8009
14 1 1.67911 0.864039 15.6749
15 1 3.0302 2.24939 17.8686
16 2 6.54867 2.76033 13.5884
17 2 3.55907 3.05643 20.4549
18 2 5.37344 0.938929 17.8608
19 2 5.41545 3.45875 18.5183
20 2 6.77748 3.67427 15.8899
21 2 4.24593 2.45843 15.6851
22 2 3.56907 3.80021 13.1485
23 2 3.08308 2.70151 10.6902
24 2 1.66946 2.75501 8.32506
25 2 4.44585 4.50625 8.55673
26 2 5.6781 3.83276 11.1845
27 2 3.72585 1.10681 13.2279
28 2 0.85309 1.11539 10.9848
29 2 4.38902 1.22799 8.33167
30 2 4.78437 0.539795 5.56735
31 2 2.00451 1.64577 6.12114
32 2 4.73274 1.51912 3.19981
33 2 5.09983 4.38335 3.56746
34 2 2.5297 2.88156 3.86671
35 2 4.67391 3.01919 5.96297
ITEM: TIMESTEP
4200
ITEM: NUMBER OF ATOMS
35
ITEM: BOX BOUNDS xy xz yz pp pp pp
0.0000000000000000e+00 7.6685730000000003e+00 2.5561910000000001e+00
0.0000000000000000e+00 4.4274529999999999e+00 0.0000000000000000e+00
0.0000000000000000e+00 3.2699264999999997e+01 0.0000000000000000e+00
ITEM: ATOMS id type x y z
1 1 3.75312 3.35207 27.1027
2 1 2.94916 1.91163 24.999
3 1 2.44225 1.38069 26.9799
4 1 1.9387 1.1551 22.5515
5 1 1.2416 -0.0551965 24.8621
6 1 4.97097 1.40633 26.2277
7 1 5.83989 2.82219 24.1709
8 1 6.23411 3.691 26.2603
9 1 4.77451 0.82425 22.9783
10 1 3.19004 2.79434 22.7564
11 1 5.4327 2.9962 21.8308
12 1 3.95649 0.605933 20.5678
13 1 1.04142 1.30081 20.3925
14 1 1.39948 0.342608 15.6807
15 1 2.92527 2.18172 17.9838
16 2 6.25109 2.46273 13.5526
17 2 3.26539 3.04778 20.1874
18 2 5.12429 0.663804 17.8958
19 2 5.68961 3.45438 18.484
20 2 6.46073 3.52825 16.0939
21 2 4.06927 2.05523 15.6475
22 2 3.93305 4.17034 13.264
23 2 3.32617 2.73503 10.5443
24 2 6.66305 3.10205 8.45032
25 2 1.93814 0.164085 8.43449
26 2 5.91851 4.05493 10.9986
27 2 3.99534 1.07005 13.1931
28 2 0.811153 1.26006 11.1825
29 2 4.55658 1.43445 8.75977
30 2 4.71476 0.166059 6.03002
31 2 2.21326 1.82081 5.92853
32 2 5.46034 1.59953 3.50732
33 2 2.45385 0.166027 3.49234
34 2 2.49613 2.93896 3.39341
35 2 4.65818 3.40633 5.77746
ITEM: TIMESTEP
4300
ITEM: NUMBER OF ATOMS
35
ITEM: BOX BOUNDS xy xz yz pp pp pp
0.0000000000000000e+00 7.6685730000000003e+00 2.5561910000000001e+00
0.0000000000000000e+00 4.4274529999999999e+00 0.0000000000000000e+00
0.0000000000000000e+00 3.2699264999999997e+01 0.0000000000000000e+00
ITEM: ATOMS id type x y z
1 1 2.99074 2.93897 26.955
2 1 2.88567 1.49213 24.5591
3 1 1.5295 0.813434 27.0911
4 1 2.42528 0.932481 22.343
5 1 3.91408 3.93201 25.1274
6 1 4.58758 1.02568 26.0446
7 1 5.97804 3.1683 23.9774
8 1 5.7566 3.18607 26.612
9 1 4.58955 1.11174 22.8838
10 1 3.66949 3.24617 22.6164
11 1 5.69358 3.06353 21.3376
12 1 3.78806 0.902218 20.3175
13 1 1.41014 1.45125 20.1792
14 1 1.60854 0.598208 15.9882
15 1 2.40339 1.4002 18.1563
16 2 1.50125 2.38845 13.4833
17 2 3.07778 3.25173 20.0134
18 2 5.14381 0.61215 18.219
19 2 5.11665 3.32367 18.6591
20 2 6.32201 3.55075 15.8033
21 2 3.94907 2.01118 15.8567
22 2 4.06333 3.74694 13.5083
23 2 3.33704 2.91105 11.0417
24 2 2.04509 3.13117 8.50315
25 2 1.79128 0.337751 8.28441
26 2 5.9735 4.34877 10.5312
27 2 3.75055 0.885146 13.1493
28 2 0.971709 1.25407 10.891
29 2 4.50799 1.79755 8.44103
30 2 4.58735 0.147308 6.21483
31 2 2.44372 1.68348 5.8975
32 2 5.27007 1.6116 4.11263
33 2 2.90233 0.255362 3.36597
34 2 2.81573 3.4789 3.26326
35 2 4.70103 3.23225 5.98416
ITEM: TIMESTEP
4400
ITEM: NUMBER OF ATOMS
35
ITEM: BOX BOUNDS xy xz yz pp pp pp
0.0000000000000000e+00 7.6685730000000003e+00 2.5561910000000001e+00
0.0000000000000000e+00 4.4274529999999999e+00 0.0000000000000000e+00
0.0000000000000000e+00 3.2699264999999997e+01 0.0000000000000000e+00
ITEM: ATOMS id type x y z
1 1 2.85427 2.54182 26.8898
2 1 2.01762 1.42231 24.6986
3 1 1.29705 0.307955 27.1115
4 1 2.06889 1.06236 22.3846
5 1 3.87838 3.64428 24.8452
6 1 4.38217 0.400236 25.668
7 1 6.19552 3.56774 24.0338
8 1 5.30135 2.88311 26.5853
9 1 4.76419 1.29658 22.7976
10 1 2.95304 3.21178 22.7959
11 1 5.62647 3.44055 21.6138
12 1 3.96098 1.20514 20.6418
13 1 1.43688 1.00002 19.741
14 1 1.1466 0.986659 15.5567
15 1 2.49246 1.95045 17.7342
16 2 1.47703 2.26027 13.2618
17 2 2.78015 3.37221 20.4161
18 2 4.95708 0.326407 17.6493
19 2 5.19374 3.19344 18.3663
20 2 6.5164 3.61581 15.8675
21 2 3.98691 2.18696 15.8588
22 2 4.0526 3.57288 13.7719
23 2 3.3879 2.97393 11.2543
24 2 2.14502 3.1733 8.52809
25 2 1.98896 0.410014 8.29784
26 2 5.85465 4.29463 10.6032
27 2 4.03643 0.591531 13.2971
28 2 0.919579 1.32108 10.8091
29 2 4.695 1.96364 8.42854
30 2 4.65797 0.0138207 6.12212
31 2 2.19575 1.71587 5.70637
32 2 5.42577 1.91899 3.93469
33 2 3.14606 0.276018 3.59536
34 2 3.23568 3.48049 3.74248
35 2 4.621 3.41788 6.09546
ITEM: TIMESTEP
4500
ITEM: NUMBER OF ATOMS
35
ITEM: BOX BOUNDS xy xz yz pp pp pp
0.0000000000000000e+00 7.6685730000000003e+00 2.5561910000000001e+00
0.0000000000000000e+00 4.4274529999999999e+00 0.0000000000000000e+00
0.0000000000000000e+00 3.2699264999999997e+01 0.0000000000000000e+00
ITEM: ATOMS id type x y z
1 1 2.75528 1.93799 26.9824
2 1 1.48204 1.38097 24.7175
3 1 1.40006 0.104764 26.9569
4 1 1.50047 0.983226 22.1887
5 1 3.31711 2.97464 25.1047
6 1 4.17409 0.612363 25.8608
7 1 5.42764 3.83685 23.7246
8 1 5.52674 2.64938 26.507
9 1 4.53143 1.29062 23.6518
10 1 2.75344 3.44224 22.742
11 1 4.89104 3.13318 21.1696
12 1 4.15624 1.16727 20.335
13 1 1.6219 0.877998 19.9871
14 1 1.68296 0.649107 15.8038
15 1 2.52254 2.07218 17.7006
16 2 1.34626 2.09497 13.2261
17 2 2.45061 3.38769 20.1353
18 2 5.31089 0.265078 17.9768
19 2 5.13056 3.29963 18.2914
20 2 6.32156 3.62596 15.3517
21 2 4.00529 2.33972 15.7378
22 2 4.26968 3.90694 13.3213
23 2 3.48214 2.7261 10.8969
24 2 2.04412 3.50642 8.63203
25 2 2.29782 0.502712 8.55569
26 2 5.84655 4.20662 11.1876
27 2 4.41127 0.609702 13.336
28 2 0.629232 1.1565 10.9168
29 2 4.82194 1.70933 8.48311
30 2 4.58036 0.381012 6.1011
31 2 1.93784 1.78767 6.03595
32 2 5.96196 2.13917 3.31137
33 2 3.33691 0.459604 3.8211
34 2 3.24213 3.42166 3.92311
35 2 4.77117 3.18769 6.24782
ITEM: TIMESTEP
4600
ITEM: NUMBER OF ATOMS
35
ITEM: BOX BOUNDS xy xz yz pp pp pp
0.0000000000000000e+00 7.6685730000000003e+00 2.5561910000000001e+00
0.0000000000000000e+00 4.4274529999999999e+00 0.0000000000000000e+00
0.0000000000000000e+00 3.2699264999999997e+01 0.0000000000000000e+00
ITEM: ATOMS id type x y z
1 1 2.635 1.75693 28.022
2 1 1.50439 1.09701 24.8267
3 1 3.53743 4.45583 26.8656
4 1 0.765685 1.35384 22.1875
5 1 2.86605 2.98976 25.1338
6 1 3.93516 0.390706 25.8895
7 1 4.95206 3.41859 23.6071
8 1 5.65907 2.36524 26.3425
9 1 3.67354 1.45103 23.4588
10 1 2.10053 3.45928 22.564
11 1 5.08865 3.18052 21.234
12 1 4.07991 1.25106 19.8601
13 1 1.48591 0.503897 20.0479
14 1 1.49306 0.740424 15.5555
15 1 2.73869 1.46754 17.7442
16 2 2.20774 2.36062 13.3157
17 2 2.0459 3.04052 19.86
18 2 0.140825 0.577753 17.7288
19 2 5.13116 3.29231 18.2386
20 2 6.80917 3.70089 15.8197
21 2 3.98823 2.32322 15.6095
22 2 4.22536 3.66875 13.1847
23 2 3.23428 2.2753 10.8209
24 2 2.2211 3.31151 8.50844
25 2 2.24806 0.395034 8.77384
26 2 5.92095 3.93752 10.9598
27 2 4.37378 1.12742 13.4019
28 2 0.725409 0.933378 10.8951
29 2 4.61756 2.02875 8.63322
30 2 4.75403 0.596519 6.07888
31 2 2.14941 1.75194 6.35479
32 2 6.21251 1.97682 3.41426
33 2 3.40099 0.894302 3.80425
34 2 3.37932 3.62333 3.98131
35 2 4.62901 3.48075 6.13801
ITEM: TIMESTEP
4700
ITEM: NUMBER OF ATOMS
35
ITEM: BOX BOUNDS xy xz yz pp pp pp
0.0000000000000000e+00 7.6685730000000003e+00 2.5561910000000001e+00
0.0000000000000000e+00 4.4274529999999999e+00 0.0000000000000000e+00
0.0000000000000000e+00 3.2699264999999997e+01 0.0000000000000000e+00
ITEM: ATOMS id type x y z
1 1 2.50175 1.93661 27.1855
2 1 1.08107 0.542139 24.7103
3 1 0.846915 -0.275985 27.4138
4 1 5.61161 1.05865 22.4876
5 1 2.21543 3.06745 25.1323
6 1 3.4339 0.874761 25.4222
7 1 5.01145 2.62033 24.2079
8 1 5.20847 2.6037 26.4855
9 1 2.82872 0.971957 22.5921
10 1 1.92109 3.16649 22.4541
11 1 4.53673 3.56661 21.7201
12 1 3.88048 1.40069 20.5742
13 1 1.25353 0.439004 19.8387
14 1 1.2382 0.877387 15.4238
15 1 2.62807 1.49186 17.687
16 2 1.84175 2.69441 13.4618
17 2 1.93254 2.85404 19.6434
18 2 5.43592 0.710214 17.6126
19 2 4.94762 3.3294 18.2004
20 2 6.72977 3.45379 15.9749
21 2 4.41129 2.61326 15.7515
22 2 4.89361 4.07907 13.3256
23 2 3.28836 2.10396 11.1276
24 2 2.06571 3.41645 8.44125
25 2 1.93231 0.319771 8.40151
26 2 6.06781 3.50332 10.875
27 2 4.69768 0.716726 13.2025
28 2 0.832815 0.699256 10.9919
29 2 4.8907 1.89306 8.56884
30 2 4.85058 0.442255 6.278
31 2 2.54706 2.09028 6.01555
32 2 5.83291 2.23448 4.29176
33 2 3.56947 0.96952 3.7264
34 2 3.47863 3.92329 3.59369
35 2 4.99225 3.6408 6.03876
ITEM: TIMESTEP
4800
ITEM: NUMBER OF ATOMS
35
ITEM: BOX BOUNDS xy xz yz pp pp pp
0.0000000000000000e+00 7.6685730000000003e+00 2.5561910000000001e+00
0.0000000000000000e+00 4.4274529999999999e+00 0.0000000000000000e+00
0.0000000000000000e+00 3.2699264999999997e+01 0.0000000000000000e+00
ITEM: ATOMS id type x y z
1 1 2.16574 1.64077 26.705
2 1 1.08318 0.170831 24.9173
3 1 2.82334 4.50118 27.1732
4 1 5.15716 0.700449 22.2078
5 1 1.83554 2.83756 24.6625
6 1 3.25679 0.66171 24.9101
7 1 4.48547 2.60944 24.1729
8 1 5.02992 2.87351 26.7448
9 1 2.67715 0.904497 22.5068
10 1 1.5541 3.14843 22.3202
11 1 4.02843 2.93832 21.84
12 1 3.84589 1.14611 19.6986
13 1 1.57727 0.570428 20.4498
14 1 1.84308 0.773318 15.751
15 1 2.94673 1.9188 17.5363
16 2 2.218 2.39962 13.4471
17 2 1.81853 3.1383 19.7728
18 2 5.29141 0.61557 18.1064
19 2 4.74391 3.58214 18.513
20 2 6.66801 3.54283 16.2541
21 2 4.02997 2.32935 15.2102
22 2 4.82786 4.30462 13.2621
23 2 3.67644 1.92613 11.1092
24 2 2.22779 3.25518 8.67775
25 2 2.30332 0.627201 8.57174
26 2 5.83887 3.38079 10.9643
27 2 5.00241 1.11063 13.4378
28 2 1.00927 0.294585 10.7868
29 2 4.56207 1.77541 8.58375
30 2 5.06812 0.560741 5.98885
31 2 2.96824 2.317 5.963
32 2 5.92317 2.38362 3.93529
33 2 3.44642 0.798009 3.67624
34 2 3.46142 4.03215 3.41688
35 2 5.0118 3.7959 6.45643
ITEM: TIMESTEP
4900
ITEM: NUMBER OF ATOMS
35
ITEM: BOX BOUNDS xy xz yz pp pp pp
0.0000000000000000e+00 7.6685730000000003e+00 2.5561910000000001e+00
0.0000000000000000e+00 4.4274529999999999e+00 0.0000000000000000e+00
0.0000000000000000e+00 3.2699264999999997e+01 0.0000000000000000e+00
ITEM: ATOMS id type x y z
1 1 1.90868 1.28328 26.8215
2 1 0.694883 0.560568 24.8322
3 1 4.3003 0.566248 27.0249
4 1 4.72683 0.543167 22.3617
5 1 1.99517 2.34619 24.5184
6 1 3.46427 0.0527292 24.7767
7 1 4.28547 2.50328 24.0053
8 1 5.04478 2.87286 26.1249
9 1 2.48246 0.820266 22.678
10 1 5.80599 2.85436 22.3237
11 1 3.64253 3.24696 21.6855
12 1 4.00318 1.33263 19.9962
13 1 1.10811 0.633818 20.2998
14 1 1.27527 0.528505 15.6746
15 1 2.64312 2.03564 18.0739
16 2 2.45064 2.81332 13.2524
17 2 6.7812 3.39221 20.0446
18 2 5.40218 1.0714 17.93
19 2 4.90043 3.40457 18.1889
20 2 6.37513 3.81604 16.1422
21 2 3.88774 2.16441 15.9453
22 2 5.04693 3.82757 13.5372
23 2 3.49897 1.54227 11.1182
24 2 2.45505 3.63562 8.44635
25 2 2.24866 0.608064 8.87889
26 2 6.32807 3.12104 10.9991
27 2 5.10906 0.937853 13.342
28 2 0.806717 0.16759 11.0459
29 2 5.00448 2.05679 8.47738
30 2 5.48929 0.817094 5.84003
31 2 2.70004 2.14939 5.92116
32 2 6.13951 2.52471 3.5066
33 2 3.23634 0.78213 3.66604
34 2 3.45711 3.79265 3.71734
35 2 5.50632 3.82159 6.27413
ITEM: TIMESTEP
5000
ITEM: NUMBER OF ATOMS
35
ITEM: BOX BOUNDS xy xz yz pp pp pp
0.0000000000000000e+00 7.6685730000000003e+00 2.5561910000000001e+00
0.0000000000000000e+00 4.4274529999999999e+00 0.0000000000000000e+00
0.0000000000000000e+00 3.2699264999999997e+01 0.0000000000000000e+00
ITEM: ATOMS id type x y z
1 1 1.69807 1.19751 26.8677
2 1 0.521483 0.00473764 24.8887
3 1 4.02709 0.650018 26.5316
4 1 4.45913 0.693937 22.305
5 1 1.87916 2.46487 25.0547
6 1 5.53714 4.41408 24.3644
7 1 4.40679 1.98815 24.2427
8 1 4.90077 3.00319 26.4003
9 1 1.98471 0.707386 22.2966
10 1 5.88575 2.95751 22.4949
11 1 3.46269 3.14425 22.0684
12 1 3.89927 2.19918 20.109
13 1 1.51542 0.893183 20.1179
14 1 1.3918 0.537901 15.5511
15 1 2.35033 2.03715 18.2001
16 2 2.60253 2.39363 13.6713
17 2 6.45922 3.49546 20.0635
18 2 5.16491 0.594857 17.8345
19 2 4.79446 3.97016 18.3241
20 2 6.35479 3.70406 15.925
21 2 3.77403 2.30269 15.9782
22 2 5.22085 3.80489 13.5805
23 2 3.6271 1.31714 10.9668
24 2 2.48694 4.00371 8.27334
25 2 2.51454 0.637784 8.50794
26 2 6.12851 2.72583 10.7687
27 2 4.77736 1.23256 13.4861
28 2 1.17295 -0.0208099 11.2371
29 2 5.34147 2.36041 8.31097
30 2 5.55701 0.956154 5.86709
31 2 2.98564 2.27173 6.3196
32 2 6.00802 2.35464 3.47736
33 2 3.35632 0.904582 3.72785
34 2 3.52073 3.53729 3.96335
35 2 5.68507 3.79942 5.88662
ITEM: TIMESTEP
5100
ITEM: NUMBER OF ATOMS
35
ITEM: BOX BOUNDS xy xz yz pp pp pp
0.0000000000000000e+00 7.6685730000000003e+00 2.5561910000000001e+00
0.0000000000000000e+00 4.4274529999999999e+00 0.0000000000000000e+00
0.0000000000000000e+00 3.2699264999999997e+01 0.0000000000000000e+00
ITEM: ATOMS id type x y z
1 1 1.11241 1.01725 27.0855
2 1 2.85873 4.16317 24.3054
3 1 4.28788 0.190746 26.7398
4 1 4.7264 1.15776 22.0242
5 1 1.60961 2.22917 24.8548
6 1 2.93305 0.109023 24.6631
7 1 4.23649 2.19383 24.6784
8 1 4.63116 3.2459 26.8794
9 1 2.07064 0.888206 22.4478
10 1 5.70821 3.03453 22.8051
11 1 3.06039 2.84345 22.5044
12 1 3.82083 2.2992 19.777
13 1 1.0527 0.987237 20.1348
14 1 1.57835 0.787867 15.9789
15 1 1.93211 2.29192 18.2168
16 2 2.15231 2.29255 13.3788
17 2 6.57024 3.75043 20.3724
18 2 4.61613 0.647319 18.0408
19 2 4.92491 3.91542 17.853
20 2 6.27685 3.36137 15.6675
21 2 3.92731 2.39191 15.9856
22 2 5.15312 4.0728 13.2768
23 2 3.90492 1.26579 10.8
24 2 2.62363 4.0515 8.73233
25 2 2.65267 0.90304 8.41347
26 2 6.28691 2.65884 10.941
27 2 5.13443 0.966777 13.568
28 2 3.78171 4.06235 10.9931
29 2 5.21502 2.46705 8.38029
30 2 5.60016 0.951618 5.92663
31 2 3.41409 2.48797 6.33477
32 2 5.98208 2.09117 3.57742
33 2 3.48946 0.83496 3.58818
34 2 3.46539 3.61012 3.92978
35 2 5.72519 3.79882 5.84734
ITEM: TIMESTEP
5200
ITEM: NUMBER OF ATOMS
35
ITEM: BOX BOUNDS xy xz yz pp pp pp
0.0000000000000000e+00 7.6685730000000003e+00 2.5561910000000001e+00
0.0000000000000000e+00 4.4274529999999999e+00 0.0000000000000000e+00
0.0000000000000000e+00 3.2699264999999997e+01 0.0000000000000000e+00
ITEM: ATOMS id type x y z
1 1 1.4033 1.47927 27.0572
2 1 5.2478 0.419125 24.6648
3 1 6.78713 3.63083 26.985
4 1 4.41936 1.20513 22.4267
5 1 1.61755 2.31663 24.7019
6 1 2.44305 -0.0140772 25.364
7 1 3.77865 2.58923 24.5902
8 1 4.16535 2.80888 26.9539
9 1 1.96468 1.12858 22.4405
10 1 5.9983 3.21935 23.0603
11 1 3.21144 3.36328 22.3051
12 1 3.60515 2.45383 19.8962
13 1 1.20523 0.591964 20.1571
14 1 1.21995 0.669004 15.8136
15 1 1.86197 2.36712 17.764
16 2 2.84041 2.49473 13.0678
17 2 6.1866 3.80939 20.562
18 2 4.6738 0.732744 17.9236
19 2 4.73731 3.7986 18.1634
20 2 6.65215 3.55951 15.4412
21 2 3.70371 2.01818 15.7099
22 2 4.90814 3.86357 13.3049
23 2 3.95039 1.20079 11.0251
24 2 2.48706 3.81769 8.35421
25 2 2.40862 0.973944 8.54596
26 2 6.57709 2.58833 10.7156
27 2 5.08248 0.686614 13.5448
28 2 3.98807 4.18593 11.0594
29 2 5.18238 2.58272 8.63583
30 2 0.959512 0.897567 6.3237
31 2 3.10781 2.48881 5.85503
32 2 6.12553 2.15876 3.80261
33 2 3.44589 0.71287 3.60343
34 2 3.33897 3.77931 3.4114
35 2 6.06124 3.95471 6.17635
ITEM: TIMESTEP
5300
ITEM: NUMBER OF ATOMS
35
ITEM: BOX BOUNDS xy xz yz pp pp pp
0.0000000000000000e+00 7.6685730000000003e+00 2.5561910000000001e+00
0.0000000000000000e+00 4.4274529999999999e+00 0.0000000000000000e+00
0.0000000000000000e+00 3.2699264999999997e+01 0.0000000000000000e+00
ITEM: ATOMS id type x y z
1 1 1.23661 0.7511 27.5168
2 1 4.91233 0.46451 25.0142
3 1 6.98258 4.00699 27.2796
4 1 4.7373 1.68693 22.2949
5 1 1.22893 2.30502 25.3327
6 1 2.69051 0.125821 25.4151
7 1 4.03437 2.59844 24.6007
8 1 3.67613 1.91398 26.8604
9 1 1.94218 2.00685 22.782
10 1 5.53071 4.22533 22.9958
11 1 3.29781 4.05986 22.2734
12 1 3.19157 1.73326 20.1793
13 1 0.682307 0.972108 20.3693
14 1 1.47866 0.277631 15.669
15 1 2.30138 2.11658 18.1657
16 2 2.60865 2.13749 13.1767
17 2 5.60468 3.63489 20.2574
18 2 4.69942 0.5492 18.1226
19 2 4.7006 3.75999 17.8712
20 2 6.63523 3.59706 15.7843
21 2 3.86713 1.7192 15.635
22 2 5.48846 3.74098 13.6027
23 2 4.22165 1.03135 10.7677
24 2 2.35493 3.68258 8.16207
25 2 2.56396 0.927395 8.70198
26 2 6.55736 2.90423 10.9038
27 2 5.43853 1.00541 13.2504
28 2 1.58773 0.0107961 10.8978
29 2 4.54555 2.40024 8.21274
30 2 1.01974 0.925373 6.16361
31 2 3.69855 2.42871 5.64317
32 2 5.91328 2.41427 4.02874
33 2 3.42219 0.610236 3.69493
34 2 3.40638 4.00152 3.36037
35 2 5.88008 4.0395 6.08681
ITEM: TIMESTEP
5400
ITEM: NUMBER OF ATOMS
35
ITEM: BOX BOUNDS xy xz yz pp pp pp
0.0000000000000000e+00 7.6685730000000003e+00 2.5561910000000001e+00
0.0000000000000000e+00 4.4274529999999999e+00 0.0000000000000000e+00
0.0000000000000000e+00 3.2699264999999997e+01 0.0000000000000000e+00
ITEM: ATOMS id type x y z
1 1 1.28138 0.488905 27.2323
2 1 5.15108 0.380359 24.544
3 1 6.39806 3.60115 27.7484
4 1 4.69164 2.54575 22.6395
5 1 6.46195 2.59996 25.7985
6 1 2.40566 0.0404753 25.2844
7 1 3.66307 2.3992 24.6669
8 1 3.75551 1.71745 26.8798
9 1 1.58834 2.37434 23.3783
10 1 3.26948 0.494743 22.9239
11 1 3.06418 4.52857 22.1132
12 1 2.78127 1.83297 21.0818
13 1 5.90977 0.834814 20.2183
14 1 1.41034 0.139033 15.5074
15 1 2.19318 1.78791 18.4111
16 2 3.04182 2.33957 13.2738
17 2 5.42993 3.55308 20.1689
18 2 4.566 0.529259 18.2344
19 2 4.57407 3.59086 17.656
20 2 6.93364 2.89205 16.2091
21 2 4.32508 1.74325 15.851
22 2 5.63231 3.93602 13.3145
23 2 4.33548 1.5916 10.4795
24 2 2.24662 3.7389 8.57075
25 2 2.0903 0.63569 8.40017
26 2 6.55254 3.01827 10.8387
27 2 5.30684 0.693764 13.1707
28 2 3.98666 3.95267 11.062
29 2 5.00657 2.30211 8.10991
30 2 0.866495 0.918327 6.01983
31 2 3.50887 2.55265 5.78288
32 2 5.94334 2.39403 3.49799
33 2 3.37849 1.01098 3.34441
34 2 3.42045 4.07817 3.74687
35 2 6.17508 4.14348 6.0032
ITEM: TIMESTEP
5500
ITEM: NUMBER OF ATOMS
35
ITEM: BOX BOUNDS xy xz yz pp pp pp
0.0000000000000000e+00 7.6685730000000003e+00 2.5561910000000001e+00
0.0000000000000000e+00 4.4274529999999999e+00 0.0000000000000000e+00
0.0000000000000000e+00 3.2699264999999997e+01 0.0000000000000000e+00
ITEM: ATOMS id type x y z
1 1 0.916541 0.0388763 27.0079
2 1 5.182 0.356662 25.0821
3 1 5.59872 3.74079 27.8359
4 1 4.44459 2.86143 22.5732
5 1 6.52101 2.42144 26.036
6 1 5.08079 4.24258 24.8366
7 1 3.6255 2.3949 25.095
8 1 4.2988 1.80888 27.5129
9 1 1.58793 2.4008 23.2466
10 1 3.06218 0.610259 22.488
11 1 0.315319 0.309709 22.5858
12 1 2.94173 2.67052 20.6209
13 1 0.715556 0.523717 20.3019
14 1 1.98737 -0.00579683 15.6002
15 1 2.15469 2.196 18.5079
16 2 3.22682 2.49954 13.4697
17 2 5.68747 3.54542 20.3638
18 2 4.20555 0.637339 18.0506
19 2 4.40761 3.48611 18.0158
20 2 1.94673 2.50347 16.0188
21 2 4.53388 1.22805 15.5161
22 2 5.50682 3.82533 13.4367
23 2 3.84792 1.18553 10.6438
24 2 2.46309 3.63048 8.47567
25 2 2.24432 0.672802 8.47655
26 2 6.58172 2.54533 11.1281
27 2 5.4517 0.880993 13.0509
28 2 4.12278 4.41435 10.8916
29 2 5.09765 2.3842 8.10984
30 2 0.903698 1.23212 5.60632
31 2 3.07268 2.42254 6.29229
32 2 6.08645 2.6719 3.26672
33 2 3.44514 1.41623 3.58523
34 2 3.41168 4.04433 3.43425
35 2 6.133 4.10592 5.58485
ITEM: TIMESTEP
5600
ITEM: NUMBER OF ATOMS
35
ITEM: BOX BOUNDS xy xz yz pp pp pp
0.0000000000000000e+00 7.6685730000000003e+00 2.5561910000000001e+00
0.0000000000000000e+00 4.4274529999999999e+00 0.0000000000000000e+00
0.0000000000000000e+00 3.2699264999999997e+01 0.0000000000000000e+00
ITEM: ATOMS id type x y z
1 1 2.68075 3.52825 27.5167
2 1 5.02414 0.194781 25.2308
3 1 5.75535 4.43156 27.1656
4 1 4.14551 2.5979 23.1739
5 1 1.37548 1.85873 26.3123
6 1 5.0561 4.48407 24.7182
7 1 3.71822 2.47142 25.5387
8 1 4.5852 1.76601 27.5246
9 1 6.67822 3.11515 22.8882
10 1 2.45008 0.956522 21.9793
11 1 0.54323 0.491103 22.6555
12 1 3.6664 2.42472 20.4116
13 1 5.50853 1.16397 20.1564
14 1 4.5672 3.95714 15.6698
15 1 1.23588 2.14689 18.2797
16 2 2.88252 2.50059 13.4773
17 2 6.0859 3.57705 20.5621
18 2 3.89518 0.597481 17.9993
19 2 4.15587 3.2615 18.2023
20 2 1.85405 2.57891 15.9441
21 2 4.73747 0.790433 15.5043
22 2 5.74075 3.89766 13.5028
23 2 4.01787 0.99001 11.01
24 2 2.37456 3.86389 8.62931
25 2 2.8585 0.943912 7.99678
26 2 6.53547 2.72409 10.9661
27 2 0.912103 0.907036 13.2324
28 2 3.8689 3.82622 10.562
29 2 5.26188 2.19528 8.4758
30 2 5.52998 1.07377 5.56814
31 2 3.35202 2.89495 6.00804
32 2 6.17134 3.00459 3.12726
33 2 3.61566 1.5159 3.81918
34 2 3.60182 4.27117 3.19212
35 2 5.51032 3.86048 5.67659
ITEM: TIMESTEP
5700
ITEM: NUMBER OF ATOMS
35
ITEM: BOX BOUNDS xy xz yz pp pp pp
0.0000000000000000e+00 7.6685730000000003e+00 2.5561910000000001e+00
0.0000000000000000e+00 4.4274529999999999e+00 0.0000000000000000e+00
0.0000000000000000e+00 3.2699264999999997e+01 0.0000000000000000e+00
ITEM: ATOMS id type x y z
1 1 2.28994 2.90717 27.8098
2 1 4.87479 -0.0362449 25.6181
3 1 5.20785 3.998 26.3222
4 1 3.97663 2.88454 23.1348
5 1 1.31288 1.99893 25.7227
6 1 2.07601 0.633424 23.9119
7 1 3.96356 2.20993 25.5543
8 1 5.12954 2.32382 27.9513
9 1 6.4698 3.14113 23.9799
10 1 2.43987 0.899401 21.8966
11 1 4.88207 0.760398 22.8056
12 1 3.89961 2.68133 20.539
13 1 1.10489 0.369883 20.3504
14 1 4.44706 3.84895 15.7668
15 1 1.07457 1.4819 18.4108
16 2 3.78171 2.50712 13.5029
17 2 6.32008 3.59124 20.3687
18 2 3.38611 0.294126 18.1897
19 2 3.53918 3.32578 18.0448
20 2 1.92643 2.47377 15.9475
21 2 4.70677 0.983777 15.854
22 2 5.99327 3.90038 13.355
23 2 4.12137 0.970455 11.3278
24 2 2.44184 3.97378 8.12517
25 2 2.59233 1.24301 7.88976
26 2 6.6871 2.49569 10.8292
27 2 0.935633 0.846652 13.0681
28 2 4.12782 3.69689 10.7206
29 2 5.31023 2.1562 8.47123
30 2 5.48644 1.21602 6.00294
31 2 2.61703 2.74154 5.62209
32 2 6.39744 3.13023 3.3893
33 2 3.63435 1.4165 3.54023
34 2 1.25529 0.276282 3.26492
35 2 5.59687 3.97962 5.74779
ITEM: TIMESTEP
5800
ITEM: NUMBER OF ATOMS
35
ITEM: BOX BOUNDS xy xz yz pp pp pp
0.0000000000000000e+00 7.6685730000000003e+00 2.5561910000000001e+00
0.0000000000000000e+00 4.4274529999999999e+00 0.0000000000000000e+00
0.0000000000000000e+00 3.2699264999999997e+01 0.0000000000000000e+00
ITEM: ATOMS id type x y z
1 1 2.85549 2.7098 27.7149
2 1 2.48177 4.14125 25.8344
3 1 4.91277 4.24083 26.4003
4 1 3.60666 3.41393 22.5095
5 1 1.07521 1.97656 26.2215
6 1 1.98014 0.765708 23.9758
7 1 3.64043 1.89537 25.2308
8 1 4.86554 2.2754 28.0155
9 1 5.86736 2.91841 23.019
10 1 2.62045 1.30926 21.6468
11 1 4.81174 0.884901 22.9927
12 1 4.48303 1.86588 19.8687
13 1 0.884642 0.148971 20.1452
14 1 4.89584 4.15122 15.6344
15 1 5.60083 2.1548 18.0164
16 2 3.98966 2.34952 13.6011
17 2 6.57021 3.22254 20.6669
18 2 3.01526 0.161887 18.2225
19 2 2.87721 3.13882 18.1459
20 2 2.01635 2.3404 15.7016
21 2 4.50298 1.19311 16.0917
22 2 6.72229 3.72981 13.4765
23 2 4.16942 0.777559 10.6427
24 2 2.63181 3.8967 7.98165
25 2 2.45807 1.05811 8.59356
26 2 1.95694 2.36858 11.0827
27 2 1.3388 0.956617 13.3917
28 2 4.31897 4.09804 10.7126
29 2 4.8299 2.79323 8.25003
30 2 5.1404 1.30081 5.80887
31 2 2.81151 2.38358 5.671
32 2 6.4216 3.14964 3.3441
33 2 4.08192 1.61788 3.21369
34 2 1.29467 0.32109 3.66738
35 2 4.99141 4.24796 5.89059
ITEM: TIMESTEP
5900
ITEM: NUMBER OF ATOMS
35
ITEM: BOX BOUNDS xy xz yz pp pp pp
0.0000000000000000e+00 7.6685730000000003e+00 2.5561910000000001e+00
0.0000000000000000e+00 4.4274529999999999e+00 0.0000000000000000e+00
0.0000000000000000e+00 3.2699264999999997e+01 0.0000000000000000e+00
ITEM: ATOMS id type x y z
1 1 2.35525 2.71107 27.2178
2 1 7.31482 4.25039 25.136
3 1 5.20464 4.36267 26.6508
4 1 3.46463 3.0697 22.1754
5 1 6.05071 2.00227 25.4186
6 1 1.91859 0.488421 24.1006
7 1 3.68579 2.29202 25.2821
8 1 5.49299 1.76236 27.8704
9 1 6.17423 3.21025 23.4864
10 1 2.65861 0.769136 21.6842
11 1 4.35933 0.892741 23.0534
12 1 4.20366 1.64772 20.1419
13 1 3.72936 4.29939 20.0265
14 1 4.46126 3.62944 15.9009
15 1 5.49037 1.73243 18.1148
16 2 4.3684 2.2061 13.3514
17 2 6.45551 3.21953 20.4828
18 2 2.79082 0.367125 18.2028
19 2 2.66737 3.27677 18.1488
20 2 1.86539 2.49051 15.7398
21 2 4.29865 0.853365 15.8836
22 2 6.97202 4.06219 13.2869
23 2 4.90802 1.00905 10.4705
24 2 7.23428 4.23878 8.1749
25 2 2.26307 1.22198 8.52419
26 2 1.79463 2.6249 10.8576
27 2 1.85006 0.743326 13.5511
28 2 4.3267 3.64796 11.2925
29 2 5.14381 2.66284 8.56868
30 2 4.98239 0.981438 5.70995
31 2 2.49939 2.7561 5.81024
32 2 6.49047 3.40621 3.55418
33 2 4.06677 1.9863 3.29331
34 2 1.4444 0.120498 3.49302
35 2 5.1101 3.98937 6.09963
ITEM: TIMESTEP
6000
ITEM: NUMBER OF ATOMS
35
ITEM: BOX BOUNDS xy xz yz pp pp pp
0.0000000000000000e+00 7.6685730000000003e+00 2.5561910000000001e+00
0.0000000000000000e+00 4.4274529999999999e+00 0.0000000000000000e+00
0.0000000000000000e+00 3.2699264999999997e+01 0.0000000000000000e+00
ITEM: ATOMS id type x y z
1 1 2.41229 3.1299 27.1144
2 1 4.55059 0.226274 25.0296
3 1 2.64881 0.146804 26.614
4 1 3.48546 3.16935 22.7248
5 1 6.13122 2.34686 25.0794
6 1 2.29949 -0.0896494 24.322
7 1 3.40643 2.33993 24.8217
8 1 5.48774 0.661872 27.187
9 1 6.36273 3.01683 22.5764
10 1 2.38046 0.628171 22.1419
11 1 5.24076 0.919649 22.7638
12 1 3.84326 1.71159 20.7516
13 1 3.23186 4.34092 20.3371
14 1 4.11412 3.40237 15.7752
15 1 5.26637 1.57717 18.1983
16 2 4.82881 2.32483 13.623
17 2 6.14492 3.12531 20.1102
18 2 2.81021 0.526801 17.9686
19 2 2.64711 3.28318 18.0404
20 2 1.43162 2.28182 15.7061
21 2 4.0844 0.617428 15.5428
22 2 7.17287 3.67295 13.199
23 2 4.66908 0.910827 11.2303
24 2 7.46253 4.26362 8.33771
25 2 2.2968 1.20223 8.29859
26 2 2.25335 2.49543 10.863
27 2 2.15087 0.909365 13.5945
28 2 4.75222 4.09829 10.9744
29 2 4.69245 2.69852 8.43605
30 2 5.17815 1.16681 5.82102
31 2 2.37136 2.35762 6.12068
32 2 6.56342 3.56151 3.6804
33 2 3.76925 1.97385 3.75289
34 2 1.51971 0.676912 3.51194
35 2 4.94037 3.97587 5.97311
ITEM: TIMESTEP
6100
ITEM: NUMBER OF ATOMS
35
ITEM: BOX BOUNDS xy xz yz pp pp pp
0.0000000000000000e+00 7.6685730000000003e+00 2.5561910000000001e+00
0.0000000000000000e+00 4.4274529999999999e+00 0.0000000000000000e+00
0.0000000000000000e+00 3.2699264999999997e+01 0.0000000000000000e+00
ITEM: ATOMS id type x y z
1 1 2.25363 2.18928 26.956
2 1 4.98153 0.0201862 24.6422
3 1 3.00068 -0.0866224 26.9485
4 1 4.17898 2.95497 22.3395
5 1 5.84094 2.30909 24.6715
6 1 4.55274 4.41957 24.7363
7 1 3.53769 2.1088 24.9569
8 1 5.23148 1.22288 26.6706
9 1 6.5739 3.26831 22.5513
10 1 2.44917 1.25906 22.4066
11 1 5.08231 0.902571 22.0446
12 1 3.14518 1.92821 19.8607
13 1 0.92177 0.319577 20.0917
14 1 3.7962 3.9702 15.7848
15 1 4.74194 1.73957 17.9288
16 2 5.01567 2.57932 13.4183
17 2 5.75114 2.97574 19.8093
18 2 2.56909 0.321591 18.0953
19 2 2.78496 3.19368 17.8807
20 2 1.24225 1.97846 16.0403
21 2 3.91808 0.557637 15.5912
22 2 2.6436 3.45349 13.5207
23 2 4.76164 1.03011 11.4383
24 2 2.28643 4.17678 8.70189
25 2 2.43468 0.94746 8.40695
26 2 2.64629 2.65365 10.7801
27 2 2.22113 0.721829 13.2668
28 2 4.84686 4.00703 10.743
29 2 4.67765 2.52511 8.41693
30 2 5.01059 1.11833 6.30656
31 2 2.55026 2.56598 6.23874
32 2 6.50731 3.70243 3.85738
33 2 3.9057 2.18908 3.85118
34 2 1.14818 0.981639 3.60435
35 2 4.79465 4.09349 5.81676
ITEM: TIMESTEP
6200
ITEM: NUMBER OF ATOMS
35
ITEM: BOX BOUNDS xy xz yz pp pp pp
0.0000000000000000e+00 7.6685730000000003e+00 2.5561910000000001e+00
0.0000000000000000e+00 4.4274529999999999e+00 0.0000000000000000e+00
0.0000000000000000e+00 3.2699264999999997e+01 0.0000000000000000e+00
ITEM: ATOMS id type x y z
1 1 2.51606 1.86009 26.4362
2 1 7.22976 4.25378 24.9194
3 1 5.78026 3.68015 26.7611
4 1 3.9707 3.52798 22.0768
5 1 5.9141 1.78352 24.1883
6 1 2.08031 0.0659899 24.8978
7 1 3.54672 2.36117 24.1686
8 1 4.64982 1.46123 26.6379
9 1 6.59887 3.30158 22.0623
10 1 2.67461 1.08349 22.5358
11 1 4.96154 1.36103 21.8456
12 1 3.13601 1.89848 20.3245
13 1 0.821887 0.202238 19.9533
14 1 4.31985 3.32283 15.4158
15 1 4.64942 1.47465 18.1232
16 2 5.50885 2.32779 13.6025
17 2 5.7044 3.02343 19.9577
18 2 2.38066 -0.044628 17.688
19 2 2.50246 3.34879 17.7744
20 2 1.23442 2.03734 16.0572
21 2 3.61102 0.843357 15.4917
22 2 2.62633 3.72731 13.6254
23 2 5.28019 0.882543 10.9999
24 2 7.27083 4.04548 8.74428
25 2 2.22213 1.02349 8.36366
26 2 2.21919 2.50173 11.1794
27 2 2.57373 0.948756 13.117
28 2 5.01273 3.60805 11.1333
29 2 5.22606 2.49151 8.7574
30 2 4.81652 1.109 6.16457
31 2 2.18245 2.89613 6.29138
32 2 6.56132 3.90184 3.91695
33 2 3.84274 2.50704 3.76628
34 2 1.17074 0.884103 3.88108
35 2 4.8798 4.17155 6.06028
ITEM: TIMESTEP
6300
ITEM: NUMBER OF ATOMS
35
ITEM: BOX BOUNDS xy xz yz pp pp pp
0.0000000000000000e+00 7.6685730000000003e+00 2.5561910000000001e+00
0.0000000000000000e+00 4.4274529999999999e+00 0.0000000000000000e+00
0.0000000000000000e+00 3.2699264999999997e+01 0.0000000000000000e+00
ITEM: ATOMS id type x y z
1 1 2.24522 1.77044 26.004
2 1 7.07352 4.15145 24.8095
3 1 5.67048 3.72804 26.8985
4 1 3.80179 3.45124 21.7495
5 1 5.98187 1.95966 24.3175
6 1 4.86723 4.15398 24.5308
7 1 3.37531 2.05938 24.109
8 1 5.17658 1.29282 26.4832
9 1 6.64868 3.47962 22.6909
10 1 2.59342 0.861581 22.3182
11 1 5.04826 1.33335 21.7361
12 1 2.73819 1.52487 19.9082
13 1 0.507754 0.294769 19.5928
14 1 3.60122 3.73084 15.6885
15 1 4.63473 1.6047 18.0358
16 2 5.47305 2.18829 13.3749
17 2 5.76805 3.55901 19.9504
18 2 5.02536 4.4689 17.7325
19 2 2.37662 3.1599 17.8275
20 2 1.1583 1.62131 16.0127
21 2 3.8689 0.86991 15.8679
22 2 2.64547 3.91081 13.515
23 2 5.05848 0.648967 10.9788
24 2 7.66429 3.89977 8.40236
25 2 2.41063 0.985822 8.88383
26 2 2.63639 2.26134 10.8919
27 2 3.10928 1.04234 13.2238
28 2 4.92217 3.78798 11.3096
29 2 4.65527 2.57026 8.6945
30 2 4.61292 1.54755 6.10969
31 2 2.19413 2.61768 6.12576
32 2 6.27884 3.98738 3.67514
33 2 3.69915 2.6047 3.89799
34 2 1.5905 1.01827 4.12307
35 2 4.74132 4.14678 6.4929
ITEM: TIMESTEP
6400
ITEM: NUMBER OF ATOMS
35
ITEM: BOX BOUNDS xy xz yz pp pp pp
0.0000000000000000e+00 7.6685730000000003e+00 2.5561910000000001e+00
0.0000000000000000e+00 4.4274529999999999e+00 0.0000000000000000e+00
0.0000000000000000e+00 3.2699264999999997e+01 0.0000000000000000e+00
ITEM: ATOMS id type x y z
1 1 2.93067 2.2875 26.9927
2 1 2.37906 3.48727 24.9371
3 1 5.66724 4.04928 26.241
4 1 3.65841 3.23173 21.5092
5 1 5.89502 1.74909 24.141
6 1 4.46086 3.94637 23.8809
7 1 3.27527 1.46269 24.3236
8 1 5.10169 1.17289 26.8092
9 1 6.58249 3.51832 22.8883
10 1 2.1271 1.01071 22.0938
11 1 4.89361 1.10148 21.8872
12 1 2.77599 2.09175 19.7179
13 1 0.60067 0.427428 19.8111
14 1 4.26326 2.95076 15.4686
15 1 4.71731 2.14656 18.212
16 2 5.50136 2.47472 13.3258
17 2 5.97595 3.64438 20.5136
18 2 2.29671 0.0663049 18.0582
19 2 2.26537 3.19491 17.8025
20 2 1.40778 2.03355 15.6042
21 2 4.04923 0.294296 15.7884
22 2 2.96128 3.71701 13.2284
23 2 4.79522 0.900079 11.0385
24 2 7.38169 4.0949 8.40091
25 2 2.4947 0.738786 8.83622
26 2 2.61385 2.62588 10.9224
27 2 2.65029 0.926348 13.5952
28 2 5.11483 3.90819 10.9884
29 2 5.01548 2.27578 8.70126
30 2 4.51964 1.12696 6.11189
31 2 1.9311 2.66599 6.18876
32 2 6.27212 3.93358 3.9241
33 2 3.93818 2.74827 3.68369
34 2 1.2444 1.11625 4.03503
35 2 4.73626 4.25125 6.32831
ITEM: TIMESTEP
6500
ITEM: NUMBER OF ATOMS
35
ITEM: BOX BOUNDS xy xz yz pp pp pp
0.0000000000000000e+00 7.6685730000000003e+00 2.5561910000000001e+00
0.0000000000000000e+00 4.4274529999999999e+00 0.0000000000000000e+00
0.0000000000000000e+00 3.2699264999999997e+01 0.0000000000000000e+00
ITEM: ATOMS id type x y z
1 1 3.70287 2.48233 27.6005
2 1 2.34391 3.43754 25.6332
3 1 4.64582 3.83439 26.1395
4 1 3.39893 3.53798 21.6416
5 1 6.06345 1.04297 24.4436
6 1 4.2317 3.16815 23.9894
7 1 3.47241 1.10598 24.6637
8 1 5.4717 1.32863 26.6445
9 1 6.80923 3.39478 23.2852
10 1 1.81052 1.44656 22.2009
11 1 4.65351 1.52307 22.4075
12 1 3.6336 1.71784 19.9527
13 1 0.550823 0.75252 20.2543
14 1 4.0285 3.41008 16.1746
15 1 5.1642 1.55066 17.7526
16 2 5.18149 2.41901 13.3232
17 2 5.92033 3.50465 20.4213
18 2 2.37134 0.441336 17.9775
19 2 2.03946 3.47112 18.0809
20 2 1.81063 1.69469 15.7025
21 2 4.39229 0.225134 15.4618
22 2 2.75219 4.03862 13.3052
23 2 5.12255 1.27461 11.0677
24 2 2.49759 3.97491 8.81653
25 2 2.33895 1.0219 8.32608
26 2 2.31419 2.41282 10.9674
27 2 2.81211 0.673159 13.3328
28 2 5.09023 4.08342 10.9376
29 2 5.22704 2.52852 8.46287
30 2 4.44461 1.13968 6.13697
31 2 1.88604 2.49775 6.25172
32 2 6.56441 4.0052 3.87723
33 2 3.81262 2.60169 3.75201
34 2 1.01425 1.1643 3.63223
35 2 4.23162 3.88109 5.88312
ITEM: TIMESTEP
6600
ITEM: NUMBER OF ATOMS
35
ITEM: BOX BOUNDS xy xz yz pp pp pp
0.0000000000000000e+00 7.6685730000000003e+00 2.5561910000000001e+00
0.0000000000000000e+00 4.4274529999999999e+00 0.0000000000000000e+00
0.0000000000000000e+00 3.2699264999999997e+01 0.0000000000000000e+00
ITEM: ATOMS id type x y z
1 1 3.64196 1.89126 28.1363
2 1 6.94941 3.26925 26.3615
3 1 4.57348 3.87562 26.721
4 1 3.15986 3.65027 21.5617
5 1 0.970644 0.95656 24.3426
6 1 4.34314 2.71783 24.0537
7 1 3.51332 1.18756 25.5484
8 1 5.76145 1.45748 26.7102
9 1 6.55881 3.76892 23.6019
10 1 2.37439 1.09326 21.7831
11 1 4.61863 1.10416 21.939
12 1 3.89446 2.09167 19.8157
13 1 0.846296 0.950253 19.9115
14 1 3.91008 3.36179 15.7741
15 1 5.1015 2.26352 17.8559
16 2 5.1286 2.48087 13.9111
17 2 5.71583 3.49667 20.6904
18 2 2.58464 0.519814 18.0642
19 2 2.21917 3.4034 18.4713
20 2 1.98392 1.59813 15.5716
21 2 4.33459 0.421645 15.9006
22 2 2.64181 3.82015 13.1891
23 2 5.06461 1.06496 10.6701
24 2 2.59421 4.0851 8.57943
25 2 2.67582 1.05923 8.28743
26 2 2.66999 2.45995 10.8355
27 2 2.86709 1.05929 13.2183
28 2 4.97379 3.91765 10.7523
29 2 4.80847 2.78148 8.3692
30 2 4.4827 0.981514 6.32009
31 2 1.66177 2.48499 5.89907
32 2 6.3642 4.02176 3.64526
33 2 3.61932 2.24878 3.54495
34 2 1.29591 1.18257 3.44728
35 2 4.05452 3.99871 5.88143
ITEM: TIMESTEP
6700
ITEM: NUMBER OF ATOMS
35
ITEM: BOX BOUNDS xy xz yz pp pp pp
0.0000000000000000e+00 7.6685730000000003e+00 2.5561910000000001e+00
0.0000000000000000e+00 4.4274529999999999e+00 0.0000000000000000e+00
0.0000000000000000e+00 3.2699264999999997e+01 0.0000000000000000e+00
ITEM: ATOMS id type x y z
1 1 3.20151 1.23412 28.1213
2 1 2.15732 3.54674 26.5782
3 1 4.71899 3.53012 26.5732
4 1 3.27235 3.3665 21.9858
5 1 1.14229 0.916918 24.4547
6 1 4.07738 3.11349 24.2007
7 1 3.04644 1.28207 25.3349
8 1 5.69965 1.26639 26.815
9 1 6.53545 3.8598 23.9338
10 1 1.97268 1.38419 22.306
11 1 4.82054 1.4947 22.4069
12 1 3.39055 1.7198 19.9938
13 1 0.970201 0.944171 19.8888
14 1 4.18354 3.63732 16.123
15 1 5.25495 1.98151 17.5849
16 2 5.30192 2.61759 13.6928
17 2 5.95529 3.60488 21.0034
18 2 2.62524 0.435844 18.1513
19 2 2.55744 3.48605 18.3823
20 2 1.84928 1.96544 15.8291
21 2 4.19147 0.199431 15.9708
22 2 2.72235 4.1304 13.5243
23 2 5.19273 1.04826 11.0602
24 2 7.20713 4.10418 8.03234
25 2 2.27932 1.05913 8.40117
26 2 2.61336 2.78218 10.4404
27 2 2.66764 0.902748 13.1535
28 2 5.33593 3.84694 11.0389
29 2 5.31542 2.37219 8.23152
30 2 4.11088 0.957769 5.63118
31 2 1.4985 2.46964 5.69859
32 2 6.20469 3.96029 3.49508
33 2 3.96414 2.45839 3.59708
34 2 1.06956 0.77639 3.43979
35 2 4.42326 4.0359 5.70784
ITEM: TIMESTEP
6800
ITEM: NUMBER OF ATOMS
35
ITEM: BOX BOUNDS xy xz yz pp pp pp
0.0000000000000000e+00 7.6685730000000003e+00 2.5561910000000001e+00
0.0000000000000000e+00 4.4274529999999999e+00 0.0000000000000000e+00
0.0000000000000000e+00 3.2699264999999997e+01 0.0000000000000000e+00
ITEM: ATOMS id type x y z
1 1 3.0974 0.979861 27.4535
2 1 2.48455 3.51911 26.2411
3 1 4.77465 3.2512 26.7578
4 1 3.63403 3.98287 21.6523
5 1 5.24735 1.5988 24.7981
6 1 3.89194 3.51865 24.2548
7 1 3.15832 1.12363 25.3753
8 1 0.774593 1.27417 27.039
9 1 6.59153 3.3296 23.7877
10 1 2.1725 1.24596 23.0702
11 1 4.61902 1.44029 22.7137
12 1 3.63982 1.97953 20.4278
13 1 0.983707 1.42341 20.4076
14 1 4.32149 3.26649 15.7502
15 1 4.77425 1.58529 18.4249
16 2 5.23665 2.58517 13.3939
17 2 6.15869 3.79293 20.9983
18 2 2.5121 0.230877 18.438
19 2 2.60295 3.30575 18.3833
20 2 1.94421 2.02554 16.1237
21 2 4.0517 0.491408 15.6378
22 2 2.92629 4.0875 13.5471
23 2 5.46204 1.16985 11.0925
24 2 7.35176 3.97239 7.76408
25 2 2.162 0.498174 8.41205
26 2 2.95803 2.7595 10.8024
27 2 2.66196 1.40265 13.3201
28 2 5.49227 4.07224 10.9612
29 2 4.61068 2.32715 8.36764
30 2 3.98653 1.07309 5.48281
31 2 1.59001 2.25377 5.6382
32 2 6.34305 3.79252 2.87987
33 2 3.81648 2.59909 3.16949
34 2 1.10336 0.880194 3.35744
35 2 4.21269 3.8092 6.06094
ITEM: TIMESTEP
6900
ITEM: NUMBER OF ATOMS
35
ITEM: BOX BOUNDS xy xz yz pp pp pp
0.0000000000000000e+00 7.6685730000000003e+00 2.5561910000000001e+00
0.0000000000000000e+00 4.4274529999999999e+00 0.0000000000000000e+00
0.0000000000000000e+00 3.2699264999999997e+01 0.0000000000000000e+00
ITEM: ATOMS id type x y z
1 1 3.83456 1.23111 27.8305
2 1 1.91072 3.40615 25.6791
3 1 4.71375 3.31728 26.9471
4 1 3.87369 3.97949 21.6067
5 1 5.47465 1.87596 24.9974
6 1 3.62843 3.55494 24.1199
7 1 2.48315 0.550041 25.6191
8 1 1.20504 0.630731 27.6863
9 1 6.18172 4.02952 23.3335
10 1 2.54151 1.70697 22.5255
11 1 5.00026 1.65053 22.4105
12 1 3.53641 2.00357 20.3856
13 1 1.05668 1.50003 20.2782
14 1 4.16386 3.59524 15.9396
15 1 4.82451 1.67105 18.0525
16 2 5.59737 2.79418 13.3223
17 2 6.41236 4.15866 20.8892
18 2 5.04247 4.14427 18.6313
19 2 2.27303 3.37011 18.5418
20 2 1.45174 1.9435 16.0943
21 2 4.21516 0.567128 15.7944
22 2 2.93501 4.36653 13.3216
23 2 5.75839 1.26321 10.6409
24 2 6.94208 3.54123 8.28686
25 2 1.92606 0.840966 8.55469
26 2 3.28158 2.60368 11.0563
27 2 2.86689 1.38092 13.6035
28 2 5.80842 4.27447 10.9047
29 2 4.23497 2.02251 8.49047
30 2 4.04849 0.634904 5.49052
31 2 1.33621 2.35592 5.73026
32 2 6.35216 3.843 2.9171
33 2 3.63491 2.3307 2.95843
34 2 1.39319 1.13011 3.29784
35 2 4.13651 3.57476 5.56506
ITEM: TIMESTEP
7000
ITEM: NUMBER OF ATOMS
35
ITEM: BOX BOUNDS xy xz yz pp pp pp
0.0000000000000000e+00 7.6685730000000003e+00 2.5561910000000001e+00
0.0000000000000000e+00 4.4274529999999999e+00 0.0000000000000000e+00
0.0000000000000000e+00 3.2699264999999997e+01 0.0000000000000000e+00
ITEM: ATOMS id type x y z
1 1 3.83158 0.519292 27.3942
2 1 6.81769 3.5747 25.8395
3 1 5.12735 2.6143 27.234
4 1 4.3077 4.4721 21.5542
5 1 5.04677 1.01254 25.008
6 1 3.55053 3.16493 24.4431
7 1 2.39782 1.50806 25.5799
8 1 1.40469 0.949385 27.9313
9 1 5.64681 4.69948 23.5243
10 1 2.77643 2.40887 22.131
11 1 5.51349 2.1616 22.5201
12 1 3.74382 2.32655 20.0482
13 1 6.32431 1.56536 19.8313
14 1 4.06696 3.5487 15.8133
15 1 4.63474 1.41392 17.9818
16 2 5.91637 3.00686 13.5207
17 2 6.67478 4.07479 20.7154
18 2 4.70825 4.42016 18.3283
19 2 2.23361 3.26521 18.1607
20 2 1.26178 2.05529 16.0489
21 2 4.07136 0.125481 15.9341
22 2 0.468589 0.378066 13.1996
23 2 6.02924 1.34529 10.8331
24 2 6.56468 3.48542 8.78535
25 2 1.57894 0.418601 7.74121
26 2 3.35909 2.84633 11.257
27 2 3.00044 1.21042 13.6412
28 2 5.96186 4.33268 11.0923
29 2 4.36629 2.03048 8.10947
30 2 3.92035 0.610635 5.78472
31 2 1.49241 2.09932 5.86909
32 2 6.30707 3.88138 3.39046
33 2 3.9615 2.22477 3.25799
34 2 1.22821 0.816195 3.31257
35 2 3.79742 3.65143 5.3121
ITEM: TIMESTEP
7100
ITEM: NUMBER OF ATOMS
35
ITEM: BOX BOUNDS xy xz yz pp pp pp
0.0000000000000000e+00 7.6685730000000003e+00 2.5561910000000001e+00
0.0000000000000000e+00 4.4274529999999999e+00 0.0000000000000000e+00
0.0000000000000000e+00 3.2699264999999997e+01 0.0000000000000000e+00
ITEM: ATOMS id type x y z
1 1 3.95264 0.301803 27.6875
2 1 6.34736 3.29473 25.3794
3 1 4.30333 2.7747 26.9167
4 1 1.57438 0.111266 21.6979
5 1 5.1787 1.30035 25.0635
6 1 4.20823 3.41613 24.7353
7 1 2.66532 0.910443 25.4374
8 1 1.27338 0.696148 27.428
9 1 3.581 0.135063 23.373
10 1 2.89367 2.54211 22.8434
11 1 5.53979 2.32193 22.4737
12 1 4.03162 2.71075 20.2566
13 1 1.19917 1.99961 20.0712
14 1 3.82796 3.05422 15.5178
15 1 4.458 1.83642 18.0373
16 2 5.84706 3.08179 13.4934
17 2 6.7894 4.54928 20.2734
18 2 2.31049 0.102405 18.0077
19 2 2.26263 3.25209 17.9677
20 2 1.22779 1.32794 16.0064
21 2 3.70408 0.229182 15.6775
22 2 0.644707 0.206548 13.4794
23 2 0.953599 1.54508 10.5854
24 2 6.9011 3.47648 8.58974
25 2 1.54901 0.131291 8.19863
26 2 3.67627 2.97683 11.1993
27 2 3.0881 1.78633 13.4839
28 2 3.25107 0.276822 11.2367
29 2 3.9435 1.86121 8.43479
30 2 3.858 0.638288 5.95641
31 2 1.34894 2.13505 5.71486
32 2 6.42639 3.53212 3.61607
33 2 3.97379 2.00987 3.46061
34 2 1.24953 0.669117 3.30957
35 2 3.64788 3.52352 5.57336
ITEM: TIMESTEP
7200
ITEM: NUMBER OF ATOMS
35
ITEM: BOX BOUNDS xy xz yz pp pp pp
0.0000000000000000e+00 7.6685730000000003e+00 2.5561910000000001e+00
0.0000000000000000e+00 4.4274529999999999e+00 0.0000000000000000e+00
0.0000000000000000e+00 3.2699264999999997e+01 0.0000000000000000e+00
ITEM: ATOMS id type x y z
1 1 3.6651 -0.0918788 27.1624
2 1 6.83368 2.97933 25.5175
3 1 3.42437 2.62263 27.2698
4 1 1.81245 0.331001 22.1543
5 1 5.37812 1.31001 24.6637
6 1 4.15487 3.6235 24.4649
7 1 3.11607 0.91907 25.0543
8 1 1.24686 0.94995 26.8195
9 1 4.37703 0.207372 22.3953
10 1 2.7219 2.19786 22.6845
11 1 5.20015 2.55416 22.5492
12 1 3.61552 3.18502 20.1686
13 1 1.49944 2.0223 19.9837
14 1 4.12674 2.74639 15.9319
15 1 5.00389 1.55037 18.0714
16 2 5.61553 3.08618 13.1945
17 2 4.29657 0.58403 20.0307
18 2 2.37087 0.151551 18.5373
19 2 2.2427 3.45363 17.8488
20 2 1.01791 1.21835 15.8837
21 2 3.54325 0.14516 15.5348
22 2 0.812159 0.202878 13.3965
23 2 5.91271 2.00349 10.8122
24 2 6.82773 3.35104 8.29562
25 2 1.78589 0.353489 8.72895
26 2 3.4913 3.51691 10.832
27 2 3.06043 1.84296 13.2169
28 2 3.64692 0.247867 11.0397
29 2 4.0712 1.6638 8.84035
30 2 3.71485 0.341405 5.81557
31 2 0.882504 1.78049 6.28802
32 2 6.47527 3.38395 3.44204
33 2 3.69682 1.85782 3.58256
34 2 1.48931 0.366497 3.61181
35 2 3.85472 3.43718 6.04465
ITEM: TIMESTEP
7300
ITEM: NUMBER OF ATOMS
35
ITEM: BOX BOUNDS xy xz yz pp pp pp
0.0000000000000000e+00 7.6685730000000003e+00 2.5561910000000001e+00
0.0000000000000000e+00 4.4274529999999999e+00 0.0000000000000000e+00
0.0000000000000000e+00 3.2699264999999997e+01 0.0000000000000000e+00
ITEM: ATOMS id type x y z
1 1 5.66147 4.08095 26.9012
2 1 7.07417 3.44424 24.9302
3 1 3.38489 2.46294 26.9085
4 1 1.62166 0.57856 21.7627
5 1 5.92422 1.14847 24.1414
6 1 4.16749 3.20041 24.8677
7 1 2.9746 1.1221 24.4876
8 1 1.32272 1.24383 26.2888
9 1 6.90697 4.36807 22.7275
10 1 3.17622 2.50688 22.5341
11 1 5.45854 2.42092 22.2354
12 1 3.78125 3.0907 20.1984
13 1 1.48024 2.53446 20.0398
14 1 3.54335 3.01288 15.4434
15 1 4.86613 2.31578 17.9074
16 2 5.5581 3.18104 13.5059
17 2 4.3319 0.581916 20.4228
18 2 2.06041 0.440429 18.504
19 2 2.26416 3.36982 17.7039
20 2 1.39001 1.49638 15.6553
21 2 6.1892 4.28362 15.6116
22 2 0.658455 0.327676 13.271
23 2 6.03814 2.0822 10.9812
24 2 6.83665 3.40269 8.24333
25 2 1.86099 0.194694 8.51449
26 2 3.34173 3.54004 10.7934
27 2 3.12847 1.78404 13.2712
28 2 3.42423 0.733677 11.0092
29 2 4.7096 1.84228 8.51333
30 2 3.5073 0.133444 5.9351
31 2 6.04127 1.39453 6.19527
32 2 6.40727 3.05813 3.7665
33 2 3.89186 1.8718 3.85459
34 2 1.1737 0.158336 4.09962
35 2 3.6443 2.98829 6.36006
ITEM: TIMESTEP
7400
ITEM: NUMBER OF ATOMS
35
ITEM: BOX BOUNDS xy xz yz pp pp pp
0.0000000000000000e+00 7.6685730000000003e+00 2.5561910000000001e+00
0.0000000000000000e+00 4.4274529999999999e+00 0.0000000000000000e+00
0.0000000000000000e+00 3.2699264999999997e+01 0.0000000000000000e+00
ITEM: ATOMS id type x y z
1 1 5.34452 4.12619 26.914
2 1 2.3947 3.37045 24.9825
3 1 3.34967 2.24841 26.8104
4 1 1.94547 0.516151 21.2177
5 1 0.977959 0.601683 23.7996
6 1 5.00191 3.15159 24.1984
7 1 3.33875 1.33077 24.7827
8 1 5.60556 1.52965 26.4058
9 1 3.83017 0.341707 22.892
10 1 2.76996 2.7448 22.2634
11 1 5.56377 2.50896 22.0854
12 1 3.95632 3.09242 19.9397
13 1 6.08807 2.38658 19.9995
14 1 3.9147 3.39209 15.4722
15 1 4.62375 1.76556 17.3626
16 2 5.58363 3.42645 13.3965
17 2 4.40205 0.511951 20.1343
18 2 2.1313 0.798028 18.1621
19 2 2.48869 3.79241 17.969
20 2 1.41986 1.52375 15.7556
21 2 3.70997 0.264712 15.9399
22 2 0.342892 0.433363 13.2228
23 2 5.82651 2.13375 10.9131
24 2 2.24084 3.37295 8.71005
25 2 2.20572 0.430627 8.4544
26 2 3.52678 3.56503 10.8951
27 2 3.08572 1.86349 13.5207
28 2 3.16163 0.711343 10.812
29 2 4.64175 1.64319 8.60065
30 2 5.87842 4.24193 6.21183
31 2 0.982928 1.46228 6.34115
32 2 6.37973 2.77943 4.0341
33 2 3.92224 1.44935 3.92537
34 2 3.55548 4.24123 3.726
35 2 3.33201 2.64606 6.27665
ITEM: TIMESTEP
7500
ITEM: NUMBER OF ATOMS
35
ITEM: BOX BOUNDS xy xz yz pp pp pp
0.0000000000000000e+00 7.6685730000000003e+00 2.5561910000000001e+00
0.0000000000000000e+00 4.4274529999999999e+00 0.0000000000000000e+00
0.0000000000000000e+00 3.2699264999999997e+01 0.0000000000000000e+00
ITEM: ATOMS id type x y z
1 1 4.71488 4.24926 26.5278
2 1 2.60522 3.65757 25.2168
3 1 3.1409 2.53778 27.5834
4 1 1.75933 0.388824 20.9154
5 1 1.54085 0.885304 23.4333
6 1 5.37296 2.99525 24.2917
7 1 3.46622 0.847522 24.9306
8 1 5.50182 1.49 25.986
9 1 3.69029 0.532621 22.6771
10 1 2.68894 3.17549 22.4331
11 1 5.28015 2.5482 21.7936
12 1 3.56398 2.83069 20.0964
13 1 6.50126 2.43223 19.7011
14 1 3.9499 3.08869 15.754
15 1 4.89566 2.98828 18.1416
16 2 5.54156 3.63849 13.3712
17 2 4.33294 0.574054 20.0872
18 2 2.71294 0.783407 18.1081
19 2 2.56078 3.88751 17.586
20 2 1.20102 1.93273 15.6805
21 2 3.84198 0.312165 15.5266
22 2 5.43763 0.737102 13.4679
23 2 5.81512 2.2013 11.0871
24 2 2.23584 3.10048 8.80235
25 2 2.12475 0.271892 8.72893
26 2 3.37332 3.7683 11.2676
27 2 2.85493 2.11545 13.379
28 2 3.54343 0.597985 11.1865
29 2 4.62297 1.84316 8.70613
30 2 6.0397 3.86684 6.21942
31 2 0.608771 0.99322 6.22724
32 2 6.25099 2.49222 3.78978
33 2 3.5505 0.817277 3.87425
34 2 3.79393 3.95189 3.66427
35 2 3.49897 2.86481 6.11604
ITEM: TIMESTEP
7600
ITEM: NUMBER OF ATOMS
35
ITEM: BOX BOUNDS xy xz yz pp pp pp
0.0000000000000000e+00 7.6685730000000003e+00 2.5561910000000001e+00
0.0000000000000000e+00 4.4274529999999999e+00 0.0000000000000000e+00
0.0000000000000000e+00 3.2699264999999997e+01 0.0000000000000000e+00
ITEM: ATOMS id type x y z
1 1 4.91746 3.91382 26.4592
2 1 2.40584 3.48994 24.8091
3 1 2.63274 2.43366 27.0038
4 1 1.97672 0.769056 21.2279
5 1 0.861555 0.986998 23.5325
6 1 5.12419 3.27655 24.3935
7 1 3.59816 1.3334 25.3137
8 1 5.94684 1.79341 26.2023
9 1 3.94528 0.967776 22.6611
10 1 3.14532 2.93705 22.6609
11 1 5.47142 2.97003 21.9363
12 1 3.76425 2.92598 19.8954
13 1 6.21857 2.46408 19.4039
14 1 3.94748 3.23655 15.4711
15 1 4.9899 2.27929 17.7175
16 2 5.15552 3.64285 13.3494
17 2 4.38246 0.354863 20.2403
18 2 2.85221 1.16504 17.9193
19 2 2.78562 4.28728 17.7212
20 2 1.4607 2.1151 16.1284
21 2 3.62568 0.543375 15.463
22 2 5.7303 0.913631 13.6943
23 2 6.1996 2.22924 11.0954
24 2 1.91685 3.05138 8.52441
25 2 1.93788 0.00416839 8.9654
26 2 3.35437 3.76313 11.0815
27 2 2.63142 2.56375 13.3778
28 2 3.53873 1.01246 11.0646
29 2 4.67021 1.61105 8.62382
30 2 6.04306 3.76954 6.32255
31 2 0.946136 0.854578 6.03101
32 2 6.03453 2.06712 3.72683
33 2 3.48901 0.688825 3.93917
34 2 3.5711 3.60486 3.78659
35 2 3.52071 2.11125 6.10008
ITEM: TIMESTEP
7700
ITEM: NUMBER OF ATOMS
35
ITEM: BOX BOUNDS xy xz yz pp pp pp
0.0000000000000000e+00 7.6685730000000003e+00 2.5561910000000001e+00
0.0000000000000000e+00 4.4274529999999999e+00 0.0000000000000000e+00
0.0000000000000000e+00 3.2699264999999997e+01 0.0000000000000000e+00
ITEM: ATOMS id type x y z
1 1 5.48383 4.26765 26.9101
2 1 7.02892 3.28447 24.8346
3 1 2.98063 2.96094 26.9013
4 1 1.97299 0.974564 21.2122
5 1 1.52003 1.50595 23.7495
6 1 4.47464 3.28162 24.0139
7 1 3.24504 1.52713 25.0493
8 1 5.82195 1.37066 26.2471
9 1 3.95841 0.610907 22.9509
10 1 3.05317 3.54349 21.941
11 1 5.68167 2.92211 21.9757
12 1 4.29511 3.13418 20.0189
13 1 6.42943 2.63036 19.4107
14 1 3.66732 4.33999 15.5481
15 1 4.93133 2.62954 17.6234
16 2 5.30319 3.83564 12.8582
17 2 4.38123 0.581537 20.4678
18 2 2.79613 0.71314 18.5473
19 2 2.79908 4.6147 18.2623
20 2 1.68079 2.62263 15.9446
21 2 3.649 0.614536 15.4034
22 2 0.282825 0.982283 13.5492
23 2 6.07794 2.31453 10.8643
24 2 2.24693 2.88241 8.6086
25 2 4.7929 4.2519 8.40467
26 2 3.34485 4.00556 10.8795
27 2 2.67172 2.68136 13.5972
28 2 3.59523 1.12023 11.1624
29 2 4.62287 1.11565 8.6097
30 2 5.83167 3.27139 5.96814
31 2 1.03424 0.518633 6.2933
32 2 5.90582 1.89038 3.81705
33 2 3.54065 0.486482 3.68088
34 2 3.07668 3.25177 4.03156
35 2 3.48534 1.90029 6.3107
ITEM: TIMESTEP
7800
ITEM: NUMBER OF ATOMS
35
ITEM: BOX BOUNDS xy xz yz pp pp pp
0.0000000000000000e+00 7.6685730000000003e+00 2.5561910000000001e+00
0.0000000000000000e+00 4.4274529999999999e+00 0.0000000000000000e+00
0.0000000000000000e+00 3.2699264999999997e+01 0.0000000000000000e+00
ITEM: ATOMS id type x y z
1 1 5.72669 3.93298 27.301
2 1 6.81393 3.65322 24.9557
3 1 3.58834 3.53758 26.6682
4 1 1.80008 0.848227 20.8125
5 1 1.36605 1.09592 23.3601
6 1 4.56814 3.07407 24.6903
7 1 2.86185 1.54469 25.5321
8 1 0.788138 1.53551 26.4234
9 1 3.89036 0.910596 23.2825
10 1 2.81054 3.06962 22.4439
11 1 5.54352 3.50493 21.6583
12 1 4.00195 3.26677 19.7547
13 1 1.90018 2.78355 19.6354
14 1 1.56604 0.00844284 15.7185
15 1 4.08522 2.7464 17.557
16 2 5.43312 3.99997 13.2444
17 2 4.49973 1.19795 21.0172
18 2 2.74935 0.539978 18.2974
19 2 0.206044 0.311014 17.9996
20 2 6.63703 2.77011 16.2174
21 2 3.86663 1.23213 15.7783
22 2 5.27281 1.39999 13.049
23 2 6.0508 2.56629 10.6538
24 2 2.59299 2.34149 8.42287
25 2 5.18376 3.92534 8.52292
26 2 3.39895 3.97777 10.9158
27 2 2.81897 2.50271 13.4481
28 2 3.40785 1.33419 11.0124
29 2 5.0188 1.04823 8.60198
30 2 5.99227 3.10072 6.13486
31 2 0.450133 0.185967 6.12051
32 2 5.74313 1.43343 3.5921
33 2 3.07125 0.177382 3.80109
34 2 3.16542 3.17459 3.78594
35 2 3.38751 1.6725 6.15101
ITEM: TIMESTEP
7900
ITEM: NUMBER OF ATOMS
35
ITEM: BOX BOUNDS xy xz yz pp pp pp
0.0000000000000000e+00 7.6685730000000003e+00 2.5561910000000001e+00
0.0000000000000000e+00 4.4274529999999999e+00 0.0000000000000000e+00
0.0000000000000000e+00 3.2699264999999997e+01 0.0000000000000000e+00
ITEM: ATOMS id type x y z
1 1 6.40216 3.65759 27.6928
2 1 7.4159 3.59619 24.9209
3 1 3.45334 3.65798 27.0079
4 1 2.02514 1.32633 20.7253
5 1 0.98713 0.75347 23.6506
6 1 5.01191 3.48053 24.3209
7 1 2.76727 0.844004 26.0473
8 1 5.06381 1.83297 26.2277
9 1 3.87079 1.35216 23.8532
10 1 2.67376 2.82566 22.4619
11 1 5.46669 3.66206 22.1347
12 1 3.71795 3.49352 20.1662
13 1 1.08486 3.16413 19.0907
14 1 4.00548 4.31119 15.7335
15 1 3.68038 2.98566 17.7826
16 2 5.63005 4.25656 13.6675
17 2 4.56416 1.16183 20.9748
18 2 2.70964 0.638046 18.0783
19 2 5.32563 1.04037 18.009
20 2 6.42797 2.79433 16.3361
21 2 4.26549 1.54126 15.3739
22 2 5.55201 1.2942 13.0514
23 2 6.16294 3.10184 10.9923
24 2 2.62588 2.25917 8.38202
25 2 5.07008 3.84168 8.55878
26 2 3.59445 4.04426 11.1352
27 2 2.70689 2.72007 13.5542
28 2 3.12421 1.13732 10.8026
29 2 5.31756 0.784474 8.56884
30 2 5.82963 2.81479 6.12424
31 2 0.871126 -0.163808 5.97072
32 2 5.5174 1.38312 3.55089
33 2 2.82783 -0.239969 3.85004
34 2 3.17747 2.77991 3.27971
35 2 3.2337 1.34987 5.79605
ITEM: TIMESTEP
8000
ITEM: NUMBER OF ATOMS
35
ITEM: BOX BOUNDS xy xz yz pp pp pp
0.0000000000000000e+00 7.6685730000000003e+00 2.5561910000000001e+00
0.0000000000000000e+00 4.4274529999999999e+00 0.0000000000000000e+00
0.0000000000000000e+00 3.2699264999999997e+01 0.0000000000000000e+00
ITEM: ATOMS id type x y z
1 1 6.45835 3.11368 27.0262
2 1 2.73093 3.17792 25.1188
3 1 3.82887 3.47378 27.2342
4 1 2.07959 1.39735 20.5376
5 1 1.08527 1.54387 22.9378
6 1 5.17077 3.36016 24.8968
7 1 2.51425 1.2388 26.2899
8 1 4.96631 1.30358 26.1542
9 1 3.5199 1.09218 24.0341
10 1 2.71742 3.34495 22.7191
11 1 5.12777 3.68197 21.7631
12 1 3.81198 3.43201 19.9936
13 1 6.47815 3.64546 19.397
14 1 3.92116 4.72563 15.684
15 1 3.32029 3.41371 17.8005
16 2 5.46872 4.2536 13.6057
17 2 4.51913 1.10476 20.9139
18 2 2.66219 0.800036 18.0209
19 2 5.05674 1.46405 18.4274
20 2 6.55707 3.21887 16.138
21 2 4.19313 1.65445 15.5383
22 2 5.63311 1.32217 13.0771
23 2 6.23165 2.8426 11.0973
24 2 2.5751 2.49968 8.2379
25 2 5.07228 3.70057 8.45724
26 2 3.64087 4.01022 11.1039
27 2 2.88131 3.07689 13.7266
28 2 3.44905 1.47998 10.8948
29 2 5.07904 0.812203 8.89199
30 2 5.88703 2.30966 6.01101
31 2 3.58528 3.93214 5.61571
32 2 5.42772 1.10664 3.7296
33 2 5.63462 3.87888 3.35381
34 2 2.68662 2.34448 3.44192
35 2 3.36912 1.23064 5.85393
ITEM: TIMESTEP
8100
ITEM: NUMBER OF ATOMS
35
ITEM: BOX BOUNDS xy xz yz pp pp pp
0.0000000000000000e+00 7.6685730000000003e+00 2.5561910000000001e+00
0.0000000000000000e+00 4.4274529999999999e+00 0.0000000000000000e+00
0.0000000000000000e+00 3.2699264999999997e+01 0.0000000000000000e+00
ITEM: ATOMS id type x y z
1 1 6.32449 3.35423 27.1385
2 1 2.75732 3.30035 24.4803
3 1 3.7618 2.84443 27.1626
4 1 1.83643 1.40253 20.5262
5 1 1.34832 1.81701 23.2581
6 1 5.41394 3.10714 24.6732
7 1 2.73516 0.861633 25.9766
8 1 5.19318 0.501591 26.3089
9 1 3.57962 0.965821 23.6401
10 1 3.09896 3.85507 22.2258
11 1 5.35229 3.70417 22.0947
12 1 3.68079 3.72459 19.9604
13 1 6.7163 3.591 19.5937
14 1 1.47826 0.921996 15.5262
15 1 3.08807 3.82894 17.4308
16 2 5.40609 4.29477 13.2886
17 2 4.29031 1.39742 21.1905
18 2 2.57076 0.921991 18.1046
19 2 5.28648 1.81077 18.306
20 2 6.17184 3.5428 15.9298
21 2 4.00148 1.89915 16.1359
22 2 5.53936 1.6915 13.448
23 2 6.32203 2.8713 10.6
24 2 2.58695 2.54244 8.36112
25 2 5.05416 3.83605 8.42218
26 2 3.85382 4.35151 10.8829
27 2 2.86746 3.09859 13.7223
28 2 3.7581 1.27794 11.2629
29 2 4.9365 0.954255 8.51796
30 2 6.10744 2.19858 6.16996
31 2 3.52267 3.59279 5.68437
32 2 5.16865 0.704211 3.39379
33 2 5.48748 3.75834 3.29573
34 2 2.60218 1.92178 3.79888
35 2 3.6581 0.283963 6.1801
ITEM: TIMESTEP
8200
ITEM: NUMBER OF ATOMS
35
ITEM: BOX BOUNDS xy xz yz pp pp pp
0.0000000000000000e+00 7.6685730000000003e+00 2.5561910000000001e+00
0.0000000000000000e+00 4.4274529999999999e+00 0.0000000000000000e+00
0.0000000000000000e+00 3.2699264999999997e+01 0.0000000000000000e+00
ITEM: ATOMS id type x y z
1 1 6.37921 3.27215 27.0699
2 1 2.79672 3.56711 24.6195
3 1 3.46827 2.29392 26.2982
4 1 1.35991 1.68757 21.0384
5 1 1.90545 0.577435 23.3613
6 1 5.38576 2.79552 24.7454
7 1 2.59858 0.373201 25.5131
8 1 5.72773 1.18442 26.2634
9 1 4.66728 1.00546 23.5881
10 1 2.88558 3.82537 22.1943
11 1 5.76077 3.7376 22.2587
12 1 4.0088 4.02005 19.5478
13 1 6.69456 3.79962 20.0733
14 1 1.2164 0.846607 16.1049
15 1 2.57879 3.83602 17.6276
16 2 2.78833 0.213918 13.4013
17 2 4.0514 1.79737 20.9142
18 2 2.96427 1.27527 18.4314
19 2 5.35026 2.2743 18.3319
20 2 5.79511 3.86613 15.8648
21 2 3.59671 2.08147 15.6663
22 2 5.23575 1.78783 13.5241
23 2 6.49859 3.01525 10.7564
24 2 2.77495 2.35098 8.44191
25 2 4.91969 4.2884 8.42254
26 2 1.29026 0.264167 10.8453
27 2 2.7716 3.14958 13.4552
28 2 4.09211 1.46339 11.0753
29 2 5.09599 1.00156 8.31395
30 2 1.00997 1.35913 5.95218
31 2 3.91209 3.21514 6.02567
32 2 5.12435 0.430531 3.39886
33 2 4.85994 3.04748 3.73594
34 2 2.64137 1.58799 4.10477
35 2 6.37519 4.38942 5.92558
ITEM: TIMESTEP
8300
ITEM: NUMBER OF ATOMS
35
ITEM: BOX BOUNDS xy xz yz pp pp pp
0.0000000000000000e+00 7.6685730000000003e+00 2.5561910000000001e+00
0.0000000000000000e+00 4.4274529999999999e+00 0.0000000000000000e+00
0.0000000000000000e+00 3.2699264999999997e+01 0.0000000000000000e+00
ITEM: ATOMS id type x y z
1 1 6.77501 3.1726 26.854
2 1 2.91669 3.73987 24.6912
3 1 4.02056 2.62786 26.5945
4 1 1.52822 1.31466 21.2728
5 1 2.05043 1.32333 23.5071
6 1 5.56453 2.86004 24.3465
7 1 2.70438 0.488589 25.8803
8 1 5.52826 0.744444 26.5863
9 1 4.10659 1.27047 22.9612
10 1 3.3477 3.72023 22.5141
11 1 5.76827 3.21748 21.9124
12 1 4.31145 4.2353 19.3912
13 1 6.83499 3.72349 20.0321
14 1 5.62209 1.01664 16.0106
15 1 2.51317 4.34376 17.9936
16 2 2.4658 0.525221 13.4698
17 2 3.91536 1.7409 20.5641
18 2 2.98724 1.55672 18.1837
19 2 5.55146 2.52673 18.2956
20 2 5.95026 3.80985 15.8415
21 2 3.03722 2.36719 15.652
22 2 5.25919 1.739 13.5712
23 2 6.4248 3.30649 10.9876
24 2 2.38863 2.70302 8.57099
25 2 5.40271 3.92641 8.52647
26 2 1.4674 0.24491 11.0183
27 2 2.56275 3.59921 13.1226
28 2 3.86502 1.9853 10.6938
29 2 5.26701 0.974724 8.65568
30 2 1.16441 1.01899 6.0005
31 2 3.97703 2.47093 6.45889
32 2 2.63541 4.13637 3.58704
33 2 4.98598 2.82124 3.81178
34 2 2.55114 1.437 3.6928
35 2 6.36554 4.05355 5.79751
ITEM: TIMESTEP
8400
ITEM: NUMBER OF ATOMS
35
ITEM: BOX BOUNDS xy xz yz pp pp pp
0.0000000000000000e+00 7.6685730000000003e+00 2.5561910000000001e+00
0.0000000000000000e+00 4.4274529999999999e+00 0.0000000000000000e+00
0.0000000000000000e+00 3.2699264999999997e+01 0.0000000000000000e+00
ITEM: ATOMS id type x y z
1 1 1.80505 2.48851 26.8784
2 1 2.49806 3.91065 24.9953
3 1 4.71963 3.27789 27.0104
4 1 1.50607 1.50538 21.3041
5 1 1.69145 1.74252 23.923
6 1 5.23151 3.33895 24.4733
7 1 3.25498 1.04145 25.7027
8 1 5.21901 0.76415 26.9544
9 1 4.67774 1.25999 23.0845
10 1 2.9432 3.31027 22.1033
11 1 5.50305 3.76483 22.1803
12 1 4.52539 4.09294 19.5254
13 1 2.08452 3.37914 20.0572
14 1 5.55236 0.976611 15.5437
15 1 2.87386 4.15305 17.7429
16 2 2.60031 0.784966 13.5108
17 2 4.24889 1.71161 20.2308
18 2 2.87107 1.34939 17.806
19 2 5.60236 2.5864 17.9389
20 2 5.61056 3.94478 15.8051
21 2 3.1307 2.70991 15.5947
22 2 4.98505 2.48436 13.4238
23 2 6.17085 3.3827 11.0206
24 2 2.63347 2.43958 8.64843
25 2 4.95928 4.20898 8.46415
26 2 1.28131 0.601409 10.9674
27 2 2.5316 3.73193 13.4092
28 2 3.68385 1.9934 11.1378
29 2 5.22991 0.933994 8.57471
30 2 1.57548 0.615068 6.1276
31 2 3.77522 1.96978 6.22737
32 2 2.78038 3.85359 3.70933
33 2 5.35097 2.61353 3.90338
34 2 2.43993 1.05765 3.48449
35 2 6.51094 3.54666 6.19031
ITEM: TIMESTEP
8500
ITEM: NUMBER OF ATOMS
35
ITEM: BOX BOUNDS xy xz yz pp pp pp
0.0000000000000000e+00 7.6685730000000003e+00 2.5561910000000001e+00
0.0000000000000000e+00 4.4274529999999999e+00 0.0000000000000000e+00
0.0000000000000000e+00 3.2699264999999997e+01 0.0000000000000000e+00
ITEM: ATOMS id type x y z
1 1 2.01521 2.60002 26.6816
2 1 2.56003 3.89752 24.6296
3 1 4.6529 4.09697 26.9562
4 1 1.38521 1.83902 21.7428
5 1 1.59616 1.41292 24.3375
6 1 4.78968 3.70684 24.7067
7 1 3.99529 1.74522 25.3901
8 1 5.2185 0.765861 27.2753
9 1 4.53981 1.22466 22.9465
10 1 3.29324 3.27084 22.4451
11 1 5.54443 4.30896 22.0715
12 1 1.67016 0.0106045 20.0031
13 1 6.76476 3.32252 19.7466
14 1 5.67428 1.37654 15.3902
15 1 3.15912 4.00513 17.7461
16 2 2.46118 1.41043 13.4066
17 2 4.45581 1.41609 20.1323
18 2 3.16498 1.02192 18.0246
19 2 5.52912 2.20773 17.7425
20 2 5.38396 4.32746 15.668
21 2 3.25582 2.53727 15.6021
22 2 5.05969 3.00335 13.2848
23 2 6.24638 3.48856 10.7965
24 2 2.57715 2.6692 8.70394
25 2 4.94683 4.02098 8.68162
26 2 0.913724 0.5851 11.1013
27 2 7.47513 4.29944 13.3117
28 2 3.62826 1.79484 11.0657
29 2 4.81846 1.18208 8.46957
30 2 1.38407 0.0653676 6.07584
31 2 4.03925 1.64296 5.87602
32 2 2.64319 3.87029 3.94969
33 2 5.44904 2.31877 3.86509
34 2 2.90722 0.643355 3.7975
35 2 6.6691 2.95928 6.41247
ITEM: TIMESTEP
8600
ITEM: NUMBER OF ATOMS
35
ITEM: BOX BOUNDS xy xz yz pp pp pp
0.0000000000000000e+00 7.6685730000000003e+00 2.5561910000000001e+00
0.0000000000000000e+00 4.4274529999999999e+00 0.0000000000000000e+00
0.0000000000000000e+00 3.2699264999999997e+01 0.0000000000000000e+00
ITEM: ATOMS id type x y z
1 1 1.9373 2.57492 26.7403
2 1 2.86861 4.02851 24.7627
3 1 2.66052 0.214658 26.4197
4 1 2.14527 1.86527 22.4871
5 1 1.31858 1.60556 24.7633
6 1 5.2275 3.97404 24.1525
7 1 3.98428 2.21748 25.237
8 1 5.05646 0.575053 26.9461
9 1 4.38848 1.7542 23.0127
10 1 3.30775 4.1074 22.3684
11 1 5.77944 4.08473 21.7421
12 1 3.83811 4.00457 19.9465
13 1 6.6706 2.81531 20.0043
14 1 5.77128 1.52445 15.5581
15 1 3.3238 3.82719 17.6761
16 2 2.13638 1.98817 12.9928
17 2 4.38792 1.60211 20.5513
18 2 3.19171 0.797434 18.1894
19 2 5.72223 2.21331 17.8037
20 2 5.60133 4.20453 15.6093
21 2 2.94011 2.60727 15.6941
22 2 4.76724 3.16611 13.2085
23 2 6.21057 3.49611 11.1893
24 2 2.19855 2.78185 8.48947
25 2 4.99492 4.07588 8.59766
26 2 1.21586 0.402173 10.8273
27 2 4.7647 0.376408 13.5758
28 2 3.62484 1.9609 10.6555
29 2 5.20618 1.13501 8.62166
30 2 3.9391 4.17814 6.30979
31 2 3.97064 1.27629 6.38687
32 2 2.92001 3.44279 3.81297
33 2 5.56051 1.9256 3.60234
34 2 2.79309 0.619017 3.98509
35 2 6.36409 2.65711 5.95321
ITEM: TIMESTEP
8700
ITEM: NUMBER OF ATOMS
35
ITEM: BOX BOUNDS xy xz yz pp pp pp
0.0000000000000000e+00 7.6685730000000003e+00 2.5561910000000001e+00
0.0000000000000000e+00 4.4274529999999999e+00 0.0000000000000000e+00
0.0000000000000000e+00 3.2699264999999997e+01 0.0000000000000000e+00
ITEM: ATOMS id type x y z
1 1 1.53724 2.77539 27.5734
2 1 2.66826 4.48308 24.5008
3 1 2.86325 -0.229474 25.9313
4 1 2.10081 1.94922 22.4169
5 1 1.53343 2.54136 25.0808
6 1 5.9247 4.65474 23.4329
7 1 4.0888 2.22 25.8783
8 1 5.75365 0.647839 26.8897
9 1 4.83011 2.42247 23.2375
10 1 0.202651 0.106843 22.1609
11 1 5.82771 3.63349 21.0725
12 1 1.33365 0.272891 20.135
13 1 2.27235 2.32961 20.1517
14 1 0.676644 0.718198 15.8699
15 1 2.87163 3.81145 17.9668
16 2 1.95098 1.81674 13.227
17 2 4.51703 1.7633 20.5467
18 2 3.3668 0.777642 18.3898
19 2 5.60422 2.58729 18.2031
20 2 5.71826 3.91245 15.687
21 2 3.07939 2.56593 15.6185
22 2 3.98176 3.63833 13.4657
23 2 6.39163 3.76898 11.0448
24 2 2.64532 2.66151 8.00012
25 2 5.29579 4.09081 8.61276
26 2 1.17455 0.34177 11.2314
27 2 4.35426 0.780057 13.3418
28 2 3.87312 2.10172 10.765
29 2 5.40158 1.21999 8.70634
30 2 3.60976 4.11112 6.01936
31 2 3.66353 0.890949 6.44002
32 2 3.29454 2.89087 3.6489
33 2 5.14395 1.28566 3.40428
34 2 2.78492 0.330249 3.93486
35 2 6.11636 2.66192 5.59955
ITEM: TIMESTEP
8800
ITEM: NUMBER OF ATOMS
35
ITEM: BOX BOUNDS xy xz yz pp pp pp
0.0000000000000000e+00 7.6685730000000003e+00 2.5561910000000001e+00
0.0000000000000000e+00 4.4274529999999999e+00 0.0000000000000000e+00
0.0000000000000000e+00 3.2699264999999997e+01 0.0000000000000000e+00
ITEM: ATOMS id type x y z
1 1 6.5719 3.24709 27.2772
2 1 0.77186 0.546418 24.6911
3 1 5.72786 4.43136 25.3986
4 1 1.40019 2.29084 22.4155
5 1 2.18193 2.5115 25.0234
6 1 3.45645 0.89999 23.346
7 1 3.95736 1.97511 26.4217
8 1 1.07221 0.676947 27.3022
9 1 4.72577 3.08157 23.7667
10 1 3.62029 4.11114 22.1296
11 1 5.76053 4.51909 21.1717
12 1 1.48147 0.431143 19.6381
13 1 2.2944 2.87177 20.0344
14 1 0.732767 0.979476 16.1945
15 1 3.18408 3.86311 17.7471
16 2 1.18755 2.31951 13.8087
17 2 4.62041 1.85985 20.6917
18 2 3.36457 0.885639 18.1937
19 2 5.39134 2.62235 18.1329
20 2 5.85523 3.73018 15.7495
21 2 3.25797 2.01261 16.1628
22 2 3.9355 3.68493 13.7334
23 2 6.58664 3.41666 10.8901
24 2 2.91989 2.78405 8.41314
25 2 5.41978 4.0925 8.48848
26 2 1.33546 0.807994 10.9524
27 2 3.79606 0.838186 13.3521
28 2 3.84652 2.18528 10.9975
29 2 5.58444 1.25413 8.3957
30 2 3.51943 4.25853 5.9975
31 2 3.56094 0.936485 5.90517
32 2 2.76241 2.47622 3.45491
33 2 5.49796 0.712396 3.31942
34 2 5.32205 3.92294 3.49435
35 2 5.89795 2.38466 5.6624
ITEM: TIMESTEP
8900
ITEM: NUMBER OF ATOMS
35
ITEM: BOX BOUNDS xy xz yz pp pp pp
0.0000000000000000e+00 7.6685730000000003e+00 2.5561910000000001e+00
0.0000000000000000e+00 4.4274529999999999e+00 0.0000000000000000e+00
0.0000000000000000e+00 3.2699264999999997e+01 0.0000000000000000e+00
ITEM: ATOMS id type x y z
1 1 6.93302 3.1672 27.068
2 1 0.82772 0.905679 24.6955
3 1 3.44574 0.608174 25.3148
4 1 6.73689 2.21064 22.7244
5 1 2.39345 2.70679 24.7054
6 1 4.00873 1.46759 22.8433
7 1 4.40002 2.24367 26.9555
8 1 1.22741 0.580777 26.8624
9 1 4.93481 2.99277 24.7286
10 1 3.12439 4.22747 22.3316
11 1 5.83041 4.42739 21.2134
12 1 1.11376 0.497709 19.9554
13 1 2.34789 3.01365 19.9817
14 1 0.755953 0.918284 15.6058
15 1 3.05447 3.87807 17.5868
16 2 5.93439 2.3994 13.281
17 2 4.44641 2.35732 20.7449
18 2 3.4315 0.751912 18.8037
19 2 5.73262 2.40312 18.2638
20 2 6.02944 3.95982 16.1332
21 2 3.36315 2.14822 15.6604
22 2 3.30547 3.75098 13.6935
23 2 6.60812 3.71143 11.056
24 2 2.94072 2.7747 8.68789
25 2 5.54469 4.33415 8.40766
26 2 1.65509 0.629734 10.8064
27 2 3.35518 0.72384 13.4158
28 2 4.27309 2.15109 11.0458
29 2 5.42839 1.29612 8.27855
30 2 3.61412 3.73926 5.72995
31 2 3.28324 1.14834 5.73968
32 2 2.59953 1.92924 3.47401
33 2 0.328795 0.628813 3.49644
34 2 5.23629 3.18961 3.13562
35 2 5.9761 2.51295 5.93634
ITEM: TIMESTEP
9000
ITEM: NUMBER OF ATOMS
35
ITEM: BOX BOUNDS xy xz yz pp pp pp
0.0000000000000000e+00 7.6685730000000003e+00 2.5561910000000001e+00
0.0000000000000000e+00 4.4274529999999999e+00 0.0000000000000000e+00
0.0000000000000000e+00 3.2699264999999997e+01 0.0000000000000000e+00
ITEM: ATOMS id type x y z
1 1 1.99776 2.69714 27.2927
2 1 1.38716 1.12051 24.3352
3 1 3.79035 1.24892 25.5553
4 1 1.50135 1.92097 22.0533
5 1 2.58365 3.64307 24.9711
6 1 4.17297 2.1164 23.3419
7 1 4.67507 2.44884 27.261
8 1 1.71805 0.413852 26.7745
9 1 5.35082 3.4199 24.8843
10 1 2.94584 3.90052 22.5248
11 1 3.40579 0.294259 21.9491
12 1 0.90727 0.681495 20.4051
13 1 1.95787 3.09562 20.1128
14 1 0.885915 0.985608 15.8267
15 1 3.84824 3.77434 18.354
16 2 5.67458 2.14663 13.1606
17 2 4.58534 2.63633 20.4956
18 2 3.42197 0.734168 18.7517
19 2 5.64038 2.00232 17.9108
20 2 5.95581 3.94754 15.9616
21 2 3.4781 2.48378 15.8719
22 2 2.77449 3.97668 13.2022
23 2 7.04685 3.95705 10.8122
24 2 2.82633 2.80609 8.47359
25 2 5.42251 4.30227 8.51517
26 2 1.78758 0.445738 10.9067
27 2 2.85242 0.78576 13.4265
28 2 4.44109 2.18247 10.697
29 2 5.37907 1.30634 8.32248
30 2 3.65617 3.72166 5.87997
31 2 3.4627 0.747335 6.04253
32 2 2.67823 1.76648 3.12272
33 2 4.73189 0.0793894 3.74701
34 2 5.06198 3.11891 3.45723
35 2 6.34694 2.57031 5.95531
ITEM: TIMESTEP
9100
ITEM: NUMBER OF ATOMS
35
ITEM: BOX BOUNDS xy xz yz pp pp pp
0.0000000000000000e+00 7.6685730000000003e+00 2.5561910000000001e+00
0.0000000000000000e+00 4.4274529999999999e+00 0.0000000000000000e+00
0.0000000000000000e+00 3.2699264999999997e+01 0.0000000000000000e+00
ITEM: ATOMS id type x y z
1 1 2.50543 3.05114 26.9814
2 1 2.18684 2.04885 24.789
3 1 4.31559 1.52028 25.7154
4 1 1.48188 2.22109 22.2207
5 1 3.26711 4.15511 24.896
6 1 4.61522 2.36184 23.4239
7 1 5.22833 2.26039 27.7398
8 1 1.70022 0.436812 26.9065
9 1 5.65106 3.83296 25.1189
10 1 3.11783 4.29139 22.276
11 1 3.09286 0.219862 22.3369
12 1 1.16075 0.917375 19.9495
13 1 1.72203 3.184 19.8766
14 1 0.93996 0.586115 15.1726
15 1 3.30154 3.55369 17.9648
16 2 5.03886 2.65806 13.4912
17 2 4.41211 2.68088 20.5566
18 2 3.22852 0.716984 18.4171
19 2 5.80537 1.8304 17.6008
20 2 6.19874 4.03322 15.8297
21 2 3.39887 2.4227 15.9429
22 2 2.71682 3.60495 13.1962
23 2 6.93042 3.50272 10.5399
24 2 2.64031 2.70235 8.10338
25 2 5.15789 4.07673 8.52735
26 2 1.9734 0.995246 11.0674
27 2 2.86565 0.982037 13.5086
28 2 4.21726 2.194 10.6266
29 2 5.52727 1.30521 8.17562
30 2 4.01385 3.80026 6.23583
31 2 3.91545 0.93175 6.0829
32 2 2.24449 1.46371 3.54025
33 2 7.34308 4.34464 3.71333
34 2 4.58845 3.01709 3.98709
35 2 6.4546 1.87055 5.66638
ITEM: TIMESTEP
9200
ITEM: NUMBER OF ATOMS
35
ITEM: BOX BOUNDS xy xz yz pp pp pp
0.0000000000000000e+00 7.6685730000000003e+00 2.5561910000000001e+00
0.0000000000000000e+00 4.4274529999999999e+00 0.0000000000000000e+00
0.0000000000000000e+00 3.2699264999999997e+01 0.0000000000000000e+00
ITEM: ATOMS id type x y z
1 1 3.22107 3.57588 26.4756
2 1 2.39122 2.18883 24.7619
3 1 5.16162 1.67906 25.8067
4 1 2.28687 2.58656 22.2298
5 1 3.79417 4.50264 24.171
6 1 4.45414 2.33338 23.3369
7 1 5.92737 2.9756 27.761
8 1 2.36953 0.832076 27.3809
9 1 6.10131 4.34398 25.4701
10 1 -0.00139195 0.707558 21.8704
11 1 2.8289 0.0947905 22.1461
12 1 1.51482 0.804817 20.2627
13 1 6.42131 3.61649 20.0566
14 1 1.10304 0.8967 15.0437
15 1 3.48006 3.71414 17.983
16 2 5.23684 2.85531 13.4493
17 2 4.0298 2.43098 20.3879
18 2 3.10635 0.752577 18.1675
19 2 5.71412 2.03874 17.5819
20 2 6.3641 3.86884 16.0026
21 2 3.38937 2.10872 15.6349
22 2 2.43041 3.7713 13.004
23 2 6.51396 3.80868 10.7233
24 2 2.57805 2.39091 8.19942
25 2 5.27605 4.25977 8.68684
26 2 1.34589 0.774771 11.2603
27 2 3.21447 0.977703 13.246
28 2 4.2165 2.09215 10.9478
29 2 5.12873 1.13567 8.73722
30 2 4.20847 3.73698 6.27184
31 2 4.02138 0.511433 6.0529
32 2 2.16593 0.86348 3.31856
33 2 7.35083 4.30738 3.62157
34 2 4.44439 2.50581 3.77497
35 2 1.3445 2.31314 5.95507
ITEM: TIMESTEP
9300
ITEM: NUMBER OF ATOMS
35
ITEM: BOX BOUNDS xy xz yz pp pp pp
0.0000000000000000e+00 7.6685730000000003e+00 2.5561910000000001e+00
0.0000000000000000e+00 4.4274529999999999e+00 0.0000000000000000e+00
0.0000000000000000e+00 3.2699264999999997e+01 0.0000000000000000e+00
ITEM: ATOMS id type x y z
1 1 4.35309 4.12671 26.5604
2 1 2.69585 2.41862 24.8801
3 1 5.67941 2.10082 25.8613
4 1 2.12044 2.6615 22.4393
5 1 1.08334 0.368591 24.2361
6 1 5.06104 2.17854 23.5986
7 1 7.0036 4.00292 27.0679
8 1 3.11444 1.98352 26.9838
9 1 3.75933 0.123088 24.734
10 1 5.03362 0.42395 21.7413
11 1 4.90062 4.30102 22.1074
12 1 1.42318 1.02167 20.1701
13 1 6.37595 3.56442 19.9378
14 1 1.50803 0.850454 15.5973
15 1 3.26276 3.96948 17.7475
16 2 5.52047 2.47901 13.445
17 2 3.7475 2.43 19.9333
18 2 3.04079 1.00116 17.8439
19 2 5.49051 1.98515 18.119
20 2 6.4094 3.76775 15.7717
21 2 3.7145 2.33253 15.6847
22 2 3.09181 3.75025 13.6802
23 2 6.22434 3.63351 11.0817
24 2 2.60911 2.68749 8.90997
25 2 4.94195 4.08392 8.40941
26 2 1.13321 0.651251 11.0686
27 2 2.87138 1.09075 13.1783
28 2 3.67099 2.50048 10.9995
29 2 5.14752 1.10609 8.6826
30 2 3.7413 3.67567 6.01667
31 2 3.95991 0.808652 6.20792
32 2 2.17657 0.5127 3.41878
33 2 7.12542 3.51459 3.54413
34 2 4.66153 2.08867 3.65061
35 2 1.47991 2.11578 5.76175
ITEM: TIMESTEP
9400
ITEM: NUMBER OF ATOMS
35
ITEM: BOX BOUNDS xy xz yz pp pp pp
0.0000000000000000e+00 7.6685730000000003e+00 2.5561910000000001e+00
0.0000000000000000e+00 4.4274529999999999e+00 0.0000000000000000e+00
0.0000000000000000e+00 3.2699264999999997e+01 0.0000000000000000e+00
ITEM: ATOMS id type x y z
1 1 2.75857 0.481193 26.4781
2 1 2.79196 2.5515 24.5525
3 1 6.22201 2.5332 26.2813
4 1 2.13695 2.01796 22.1311
5 1 1.5015 0.407694 24.439
6 1 4.95426 2.49231 23.5978
7 1 5.08961 0.274976 26.0419
8 1 3.68291 2.59063 26.8989
9 1 3.70407 0.196224 23.9476
10 1 4.84008 0.516847 21.937
11 1 4.95529 4.05203 21.7716
12 1 1.37949 0.945792 19.9816
13 1 6.41651 4.24074 19.9429
14 1 1.08207 0.844893 15.7251
15 1 2.79312 3.66015 17.7912
16 2 5.7547 2.19161 13.4927
17 2 3.53739 2.58861 20.2137
18 2 2.97701 0.910889 18.0219
19 2 5.53457 2.39198 18.1176
20 2 6.28569 3.78256 15.7921
21 2 4.26391 2.14124 15.8222
22 2 3.11568 4.02075 13.8371
23 2 6.18044 3.64775 11.1369
24 2 2.17498 3.00683 8.35355
25 2 4.89225 3.89497 8.10961
26 2 1.157 0.920685 10.8203
27 2 2.9193 0.724482 13.4846
28 2 3.65241 2.39065 11.2869
29 2 5.16929 1.32559 8.45238
30 2 3.40908 3.65859 5.72623
31 2 3.77739 0.995372 6.26255
32 2 2.10957 0.25273 3.77983
33 2 2.14147 2.92046 3.52387
34 2 4.63593 1.67361 3.82232
35 2 1.23912 1.87503 6.10495
ITEM: TIMESTEP
9500
ITEM: NUMBER OF ATOMS
35
ITEM: BOX BOUNDS xy xz yz pp pp pp
0.0000000000000000e+00 7.6685730000000003e+00 2.5561910000000001e+00
0.0000000000000000e+00 4.4274529999999999e+00 0.0000000000000000e+00
0.0000000000000000e+00 3.2699264999999997e+01 0.0000000000000000e+00
ITEM: ATOMS id type x y z
1 1 2.87698 1.05171 26.1313
2 1 2.91116 2.66527 24.2623
3 1 6.53929 3.04584 26.44
4 1 2.21895 2.28443 22.0621
5 1 1.49502 0.228549 23.8655
6 1 5.25446 2.5183 24.2265
7 1 5.54758 1.07311 26.0727
8 1 4.34697 3.32378 26.2537
9 1 3.9647 0.0534243 23.9717
10 1 5.11273 0.950777 22.0434
11 1 4.98136 3.73296 21.977
12 1 0.993834 0.687208 19.7278
13 1 6.54385 4.07909 20.2446
14 1 1.58531 0.717744 15.9852
15 1 3.17129 3.94827 17.8208
16 2 5.808 2.23776 13.281
17 2 3.48298 2.42086 20.1185
18 2 3.01992 1.07532 18.1722
19 2 5.46008 2.87554 18.4921
20 2 6.45839 3.56598 15.9464
21 2 3.82106 2.0939 15.7354
22 2 2.98427 3.63043 13.3514
23 2 6.39794 4.06948 10.6643
24 2 2.46162 2.83873 8.47925
25 2 4.63218 4.39661 8.3277
26 2 1.305 0.717031 10.8881
27 2 3.26051 0.600458 13.5527
28 2 3.67043 2.25271 11.3346
29 2 4.60694 1.35244 8.77125
30 2 3.29899 3.59151 6.00343
31 2 3.28819 0.51661 6.00051
32 2 4.91082 4.21095 3.73758
33 2 2.12808 2.83125 3.65233
34 2 4.76921 1.18924 3.74663
35 2 5.69504 2.37801 6.05804
ITEM: TIMESTEP
9600
ITEM: NUMBER OF ATOMS
35
ITEM: BOX BOUNDS xy xz yz pp pp pp
0.0000000000000000e+00 7.6685730000000003e+00 2.5561910000000001e+00
0.0000000000000000e+00 4.4274529999999999e+00 0.0000000000000000e+00
0.0000000000000000e+00 3.2699264999999997e+01 0.0000000000000000e+00
ITEM: ATOMS id type x y z
1 1 3.16962 1.20139 26.3428
2 1 3.35325 2.62581 24.1554
3 1 7.13239 3.7753 26.3691
4 1 1.79058 2.71334 22.1698
5 1 1.54578 0.410092 24.0753
6 1 5.71654 2.60051 24.3045
7 1 5.75628 1.62894 26.7484
8 1 4.53638 3.62541 26.2477
9 1 4.19131 0.451567 24.0414
10 1 4.79382 1.30892 22.0313
11 1 4.5613 3.76696 22.2071
12 1 1.6189 0.905283 20.3842
13 1 6.59693 4.25043 20.1626
14 1 0.670889 0.612432 15.3122
15 1 2.90698 4.42701 18.0894
16 2 5.83091 2.1671 13.1815
17 2 3.54878 2.52431 20.1846
18 2 3.09776 1.21073 17.6921
19 2 5.57306 2.63876 18.3599
20 2 6.59433 3.1544 15.9983
21 2 3.98719 2.24953 15.5529
22 2 3.22569 3.57821 13.3941
23 2 6.33209 3.76336 10.8161
24 2 2.04851 2.76146 8.62626
25 2 1.91405 0.074825 8.65783
26 2 1.34017 0.719983 11.2323
27 2 3.09174 0.617232 13.3774
28 2 3.82829 2.31545 10.8614
29 2 4.73391 1.50236 8.425
30 2 3.02866 3.71456 6.33013
31 2 3.02367 0.829252 5.98731
32 2 4.67693 3.72588 3.41885
33 2 2.25391 2.45852 3.95578
34 2 5.00529 0.954509 3.58374
35 2 5.48849 2.07224 6.13118
ITEM: TIMESTEP
9700
ITEM: NUMBER OF ATOMS
35
ITEM: BOX BOUNDS xy xz yz pp pp pp
0.0000000000000000e+00 7.6685730000000003e+00 2.5561910000000001e+00
0.0000000000000000e+00 4.4274529999999999e+00 0.0000000000000000e+00
0.0000000000000000e+00 3.2699264999999997e+01 0.0000000000000000e+00
ITEM: ATOMS id type x y z
1 1 3.7393 1.68774 26.6944
2 1 3.27101 2.86369 24.2277
3 1 7.5863 3.90954 26.4387
4 1 1.42211 3.20459 21.6209
5 1 2.03516 0.984806 24.9434
6 1 5.6848 2.89571 24.4538
7 1 6.08746 1.63621 27.1868
8 1 4.65972 4.01856 26.7415
9 1 4.59718 0.753708 24.3268
10 1 4.71934 1.25144 21.9953
11 1 3.97282 3.96482 22.4229
12 1 1.56921 1.02735 19.9737
13 1 4.00571 0.220374 19.7204
14 1 1.33087 0.561127 15.9262
15 1 0.635394 -0.537339 17.8597
16 2 5.67518 2.25216 13.5668
17 2 3.7304 2.91094 19.9224
18 2 2.89326 1.05808 17.4606
19 2 5.71059 2.43612 18.3931
20 2 6.63399 3.38749 15.7199
21 2 4.14599 2.3601 15.5661
22 2 3.16732 3.43241 13.0431
23 2 6.18481 3.70112 11.3115
24 2 1.68571 2.91503 8.42179
25 2 4.58301 3.99343 8.5098
26 2 1.10379 0.859365 10.9985
27 2 3.18998 0.676595 13.7337
28 2 3.7422 2.20682 10.6594
29 2 4.5622 1.15406 8.4961
30 2 2.94511 3.90808 6.10681
31 2 2.87661 0.650226 6.21483
32 2 4.71178 3.44531 3.6053
33 2 2.40096 2.17197 3.91773
34 2 4.95177 0.535485 3.73413
35 2 5.55177 2.35399 5.72089
ITEM: TIMESTEP
9800
ITEM: NUMBER OF ATOMS
35
ITEM: BOX BOUNDS xy xz yz pp pp pp
0.0000000000000000e+00 7.6685730000000003e+00 2.5561910000000001e+00
0.0000000000000000e+00 4.4274529999999999e+00 0.0000000000000000e+00
0.0000000000000000e+00 3.2699264999999997e+01 0.0000000000000000e+00
ITEM: ATOMS id type x y z
1 1 3.95104 2.2109 26.3797
2 1 2.9171 3.1526 24.6552
3 1 2.67691 3.88306 26.7537
4 1 6.18298 3.2171 21.4197
5 1 2.01385 0.93149 25.0673
6 1 5.824 3.54466 24.6227
7 1 1.68966 1.7141 27.2436
8 1 5.38403 3.90157 27.6708
9 1 4.83385 1.15383 24.3651
10 1 4.4572 1.32646 21.7046
11 1 4.1596 4.56307 22.3128
12 1 1.87078 1.22925 20.2227
13 1 4.62349 0.321022 19.5766
14 1 1.16356 0.874956 15.7859
15 1 3.22941 3.86465 18.0089
16 2 5.56277 1.85595 13.1708
17 2 3.71704 3.0236 20.0602
18 2 2.83763 0.713972 17.6777
19 2 5.82815 2.67858 18.0674
20 2 6.89868 3.80645 15.6173
21 2 4.33308 2.53346 15.9382
22 2 3.08682 3.54825 13.026
23 2 5.91816 3.90379 11.0194
24 2 1.96982 2.23246 8.57597
25 2 4.23185 3.90407 8.70649
26 2 0.971501 1.04959 10.6517
27 2 3.03376 0.83376 13.9614
28 2 3.41813 2.09082 10.8817
29 2 4.26528 0.672449 8.51184
30 2 3.10876 3.70187 5.92984
31 2 2.99248 0.806371 6.25831
32 2 4.9572 3.65291 3.33274
33 2 2.46534 1.7216 3.56571
34 2 4.59499 0.290801 3.65299
35 2 5.47631 2.32782 6.05546
ITEM: TIMESTEP
9900
ITEM: NUMBER OF ATOMS
35
ITEM: BOX BOUNDS xy xz yz pp pp pp
0.0000000000000000e+00 7.6685730000000003e+00 2.5561910000000001e+00
0.0000000000000000e+00 4.4274529999999999e+00 0.0000000000000000e+00
0.0000000000000000e+00 3.2699264999999997e+01 0.0000000000000000e+00
ITEM: ATOMS id type x y z
1 1 4.63604 2.13236 26.676
2 1 3.33741 3.34909 23.7625
3 1 3.242 4.5371 26.8781
4 1 6.20038 3.14705 21.5794
5 1 1.92396 1.39213 24.9685
6 1 5.81222 3.58443 25.0091
7 1 2.40497 2.06332 27.3088
8 1 5.43899 3.85966 27.5884
9 1 4.47349 1.25381 24.6275
10 1 4.13871 0.892859 22.199
11 1 1.88413 0.610107 22.6533
12 1 1.98888 1.09057 20.2506
13 1 4.64501 0.618678 19.9978
14 1 1.30685 1.16896 15.3766
15 1 2.76744 4.09974 17.7777
16 2 5.2946 2.24953 13.1005
17 2 4.06425 3.26382 20.1853
18 2 3.28139 1.08791 17.8667
19 2 5.91784 2.49309 18.4607
20 2 6.84334 3.61016 15.4945
21 2 4.34122 2.82964 15.7043
22 2 3.07094 3.84764 13.4402
23 2 5.72013 3.90354 10.9883
24 2 1.96905 1.75499 8.37545
25 2 4.32995 3.19899 8.53092
26 2 0.637229 0.786546 10.6593
27 2 2.68759 0.852311 13.5261
28 2 3.14478 2.37236 11.1557
29 2 4.33848 0.300521 8.46526
30 2 3.17716 3.66466 5.99891
31 2 3.06774 0.839683 5.68014
32 2 4.5563 3.11131 3.24807
33 2 1.99622 1.97853 3.58122
34 2 4.99135 0.427162 3.56344
35 2 5.61337 1.95489 6.33285
ITEM: TIMESTEP
10000
ITEM: NUMBER OF ATOMS
35
ITEM: BOX BOUNDS xy xz yz pp pp pp
0.0000000000000000e+00 7.6685730000000003e+00 2.5561910000000001e+00
0.0000000000000000e+00 4.4274529999999999e+00 0.0000000000000000e+00
0.0000000000000000e+00 3.2699264999999997e+01 0.0000000000000000e+00
ITEM: ATOMS id type x y z
1 1 5.19468 2.22675 27.134
2 1 3.25422 3.12702 23.1361
3 1 3.71704 4.28236 26.0884
4 1 6.19835 3.13195 22.1018
5 1 2.16145 1.73073 25.117
6 1 5.57101 3.46862 25.1033
7 1 2.01664 2.49141 27.3994
8 1 3.93174 0.530461 27.1935
9 1 4.72761 1.15692 24.7334
10 1 4.59258 1.40049 22.3144
11 1 1.78974 0.71467 23.0174
12 1 2.52506 1.59662 20.2459
13 1 4.31561 0.0750697 20.0183
14 1 1.21005 1.06447 16.0377
15 1 3.69567 4.12008 17.8994
16 2 5.42692 2.68304 13.4834
17 2 4.14348 3.26515 20.3724
18 2 3.48704 1.49118 17.8866
19 2 6.0001 2.65655 18.5864
20 2 6.44975 3.92803 15.9621
21 2 3.91223 2.6472 15.7351
22 2 2.76547 4.08187 13.1605
23 2 5.55418 3.83831 10.7819
24 2 1.98066 1.24969 8.54428
25 2 4.64248 2.61251 8.3577
26 2 0.42352 0.769434 10.7952
27 2 2.99839 1.01533 13.0813
28 2 2.77223 2.46564 10.8258
29 2 6.93633 4.05256 8.16238
30 2 3.20851 3.69066 6.07316
31 2 3.11004 0.203183 5.40132
32 2 4.27182 2.94158 3.84286
33 2 1.78746 2.31365 3.59655
34 2 4.97528 0.309905 3.55792
35 2 5.60938 2.1264 5.83948
ITEM: TIMESTEP
10100
ITEM: NUMBER OF ATOMS
35
ITEM: BOX BOUNDS xy xz yz pp pp pp
0.0000000000000000e+00 7.6685730000000003e+00 2.5561910000000001e+00
0.0000000000000000e+00 4.4274529999999999e+00 0.0000000000000000e+00
0.0000000000000000e+00 3.2699264999999997e+01 0.0000000000000000e+00
ITEM: ATOMS id type x y z
1 1 5.21641 2.95422 26.9712
2 1 3.20221 2.83637 23.0801
3 1 3.54298 4.25853 25.725
4 1 6.37001 3.73562 22.1508
5 1 2.69758 2.06439 25.3911
6 1 5.93638 3.50368 24.4271
7 1 3.05113 2.7272 27.7132
8 1 3.7086 0.28957 26.4367
9 1 4.86593 1.27455 24.4518
10 1 5.15401 1.20427 22.0565
11 1 1.97292 0.80308 23.2281
12 1 1.71188 1.51022 20.7471
13 1 4.69745 0.139624 19.9234
14 1 1.17584 1.56038 15.7562
15 1 3.80878 4.35804 18.3123
16 2 5.74544 2.63976 13.3542
17 2 4.23762 3.2619 20.7261
18 2 3.50094 1.65988 18.3464
19 2 6.07151 2.71653 18.3573
20 2 6.14812 4.24989 16.2362
21 2 3.61655 2.51034 15.4929
22 2 2.89786 4.12777 13.2893
23 2 5.16897 3.8451 10.7199
24 2 1.98468 0.728759 8.12269
25 2 4.47392 2.21042 8.39003
26 2 0.167954 1.21942 10.8867
27 2 2.98191 1.31695 13.2507
28 2 2.74559 2.3673 10.5394
29 2 6.89686 3.85636 8.45269
30 2 3.17079 3.19847 6.09965
31 2 3.05482 0.580932 5.70929
32 2 4.47277 3.25542 3.60008
33 2 1.9433 1.75515 3.4306
34 2 4.56878 0.466383 3.36004
35 2 5.83052 1.6369 6.09292
ITEM: TIMESTEP
10200
ITEM: NUMBER OF ATOMS
35
ITEM: BOX BOUNDS xy xz yz pp pp pp
0.0000000000000000e+00 7.6685730000000003e+00 2.5561910000000001e+00
0.0000000000000000e+00 4.4274529999999999e+00 0.0000000000000000e+00
0.0000000000000000e+00 3.2699264999999997e+01 0.0000000000000000e+00
ITEM: ATOMS id type x y z
1 1 5.69289 2.11106 26.526
2 1 3.47681 3.45156 23.2598
3 1 4.1965 4.32586 25.6562
4 1 6.29617 3.59704 21.9464
5 1 2.71366 2.39378 25.514
6 1 6.23787 3.59985 24.0914
7 1 2.96217 2.72084 27.6769
8 1 4.22225 0.459186 26.6354
9 1 4.62192 1.49128 24.4971
10 1 5.14357 1.16503 21.9353
11 1 2.28658 0.949415 23.2779
12 1 2.06961 1.5901 20.5606
13 1 4.67912 0.0741359 19.7804
14 1 0.733831 1.22592 15.7173
15 1 3.73925 4.53733 17.571
16 2 5.73087 2.78001 13.326
17 2 4.26596 3.21219 20.548
18 2 3.48054 1.87187 18.4695
19 2 5.95614 2.83353 18.2077
20 2 6.0851 4.50532 15.8199
21 2 3.44259 2.87367 15.9003
22 2 3.24359 4.23672 13.5201
23 2 4.93574 4.26843 11.039
24 2 1.6955 0.33436 8.37425
25 2 4.23131 1.99928 8.38159
26 2 5.20473 1.12849 10.9633
27 2 3.02833 1.1312 13.253
28 2 2.60596 2.47499 10.8438
29 2 6.89055 3.66296 8.66748
30 2 3.086 3.09591 5.6473
31 2 3.43814 0.083728 5.93048
32 2 4.70232 3.35302 3.54292
33 2 1.98217 1.62758 3.37759
34 2 4.42775 0.394555 3.42769
35 2 5.66969 1.56983 5.82284
ITEM: TIMESTEP
10300
ITEM: NUMBER OF ATOMS
35
ITEM: BOX BOUNDS xy xz yz pp pp pp
0.0000000000000000e+00 7.6685730000000003e+00 2.5561910000000001e+00
0.0000000000000000e+00 4.4274529999999999e+00 0.0000000000000000e+00
0.0000000000000000e+00 3.2699264999999997e+01 0.0000000000000000e+00
ITEM: ATOMS id type x y z
1 1 5.93141 1.87494 26.5521
2 1 3.8484 3.9623 23.1003
3 1 4.40808 4.45934 26.2203
4 1 6.51846 3.36042 21.7413
5 1 3.07095 2.3093 25.0705
6 1 6.10994 3.66591 24.5278
7 1 3.4687 2.65365 27.3479
8 1 4.05146 -0.188216 27.2685
9 1 5.4547 1.27695 24.3384
10 1 4.91954 1.31169 21.7511
11 1 2.98084 1.77559 22.6949
12 1 2.37725 1.58102 20.218
13 1 4.63382 0.200852 19.6558
14 1 5.70882 1.86666 15.8318
15 1 1.18691 0.552278 18.1597
16 2 5.70336 2.82931 13.4317
17 2 4.29615 3.24554 20.1675
18 2 3.44762 1.56281 18.0101
19 2 5.85054 3.26671 17.9603
20 2 3.20024 0.0093863 15.6495
21 2 3.04775 3.12425 15.8968
22 2 3.32137 4.26419 13.6175
23 2 5.17412 3.97028 10.9001
24 2 1.26594 0.398775 8.6799
25 2 3.98221 1.9042 8.45333
26 2 5.00171 1.19491 10.9941
27 2 3.49325 1.40835 13.4123
28 2 2.61299 2.92954 11.3663
29 2 6.53924 3.03342 8.44298
30 2 3.17739 2.94384 5.66023
31 2 5.43944 4.03447 6.24281
32 2 4.76921 3.20054 3.46859
33 2 2.02278 1.9925 3.40606
34 2 4.78572 0.315764 3.58851
35 2 5.90403 1.31801 5.77275
ITEM: TIMESTEP
10400
ITEM: NUMBER OF ATOMS
35
ITEM: BOX BOUNDS xy xz yz pp pp pp
0.0000000000000000e+00 7.6685730000000003e+00 2.5561910000000001e+00
0.0000000000000000e+00 4.4274529999999999e+00 0.0000000000000000e+00
0.0000000000000000e+00 3.2699264999999997e+01 0.0000000000000000e+00
ITEM: ATOMS id type x y z
1 1 6.12164 2.46954 26.7393
2 1 4.68821 4.01439 22.4186
3 1 1.82687 -0.302045 26.0355
4 1 6.96915 3.5392 22.2223
5 1 3.31987 1.86977 25.0152
6 1 6.50365 3.97532 24.6991
7 1 3.31931 1.9698 27.437
8 1 7.16065 4.40951 26.85
9 1 5.96364 1.2057 24.2664
10 1 5.75642 1.345 21.8776
11 1 3.19241 1.82041 22.6067
12 1 1.6512 1.67421 19.7872
13 1 4.18295 0.1728 19.9958
14 1 5.54927 1.5047 15.7404
15 1 0.623974 0.0043183 18.0797
16 2 6.05938 3.02478 13.3914
17 2 4.28389 3.26447 20.0314
18 2 3.68419 1.75117 17.6742
19 2 5.92178 3.24401 17.9387
20 2 2.73401 0.268113 15.6565
21 2 2.73007 3.24222 15.8002
22 2 3.47454 4.74942 13.412
23 2 5.28987 4.17717 10.7741
24 2 0.92281 -0.0948705 8.67033
25 2 3.5959 1.5503 8.53248
26 2 5.02664 1.32527 10.9424
27 2 3.52729 1.58207 13.4537
28 2 2.72634 2.87466 11.1538
29 2 6.23696 2.93529 8.5655
30 2 3.01415 2.39503 6.18984
31 2 5.66708 4.32251 6.17088
32 2 4.72695 3.50998 3.55064
33 2 2.50618 1.80743 3.44374
34 2 4.6788 0.35555 3.80967
35 2 0.357324 1.00992 6.20854
ITEM: TIMESTEP
10500
ITEM: NUMBER OF ATOMS
35
ITEM: BOX BOUNDS xy xz yz pp pp pp
0.0000000000000000e+00 7.6685730000000003e+00 2.5561910000000001e+00
0.0000000000000000e+00 4.4274529999999999e+00 0.0000000000000000e+00
0.0000000000000000e+00 3.2699264999999997e+01 0.0000000000000000e+00
ITEM: ATOMS id type x y z
1 1 6.32781 2.69885 26.4231
2 1 5.09683 3.639 23.1826
3 1 4.7641 3.91294 25.3641
4 1 2.53487 3.74394 22.2057
5 1 3.51024 1.75974 25.0604
6 1 7.05067 3.70979 24.5661
7 1 2.96771 1.38003 27.5026
8 1 5.18849 0.500081 26.7256
9 1 1.00014 1.28595 24.3537
10 1 1.41216 1.94011 21.815
11 1 3.72507 1.36974 22.5084
12 1 1.47343 1.51134 19.5945
13 1 3.81617 0.613824 20.1574
14 1 5.0607 2.0449 15.2578
15 1 0.924264 0.0763734 17.689
16 2 6.40291 3.5774 13.2419
17 2 3.98523 3.14733 20.2887
18 2 3.70484 1.70806 17.767
19 2 6.04473 3.11344 17.5976
20 2 2.23354 0.259594 15.699
21 2 2.49726 3.4255 15.4793
22 2 1.20461 0.461476 13.116
23 2 2.51446 0.0823802 11.0565
24 2 3.40649 3.84728 8.39891
25 2 3.29697 1.01927 8.72923
26 2 5.32089 1.42874 10.8682
27 2 3.55831 1.79668 13.5054
28 2 2.6977 2.73822 10.8849
29 2 5.82093 2.78752 8.61636
30 2 2.9543 2.65433 6.1135
31 2 5.789 3.81866 6.17349
32 2 4.55753 3.37701 4.12384
33 2 2.24011 1.78046 3.9097
34 2 4.81746 0.296492 3.89002
35 2 5.49291 1.3667 6.38968
ITEM: TIMESTEP
10600
ITEM: NUMBER OF ATOMS
35
ITEM: BOX BOUNDS xy xz yz pp pp pp
0.0000000000000000e+00 7.6685730000000003e+00 2.5561910000000001e+00
0.0000000000000000e+00 4.4274529999999999e+00 0.0000000000000000e+00
0.0000000000000000e+00 3.2699264999999997e+01 0.0000000000000000e+00
ITEM: ATOMS id type x y z
1 1 6.62946 2.80454 27.1047
2 1 5.38372 3.58327 22.836
3 1 4.65834 3.93796 25.505
4 1 0.803056 0.0622641 22.2325
5 1 3.8767 1.60088 25.1547
6 1 2.59595 3.51968 24.4423
7 1 3.03415 0.727642 27.2759
8 1 0.408178 0.69423 26.7011
9 1 1.06255 1.62816 24.1634
10 1 1.70007 2.08689 21.6248
11 1 3.7722 1.46687 22.6542
12 1 1.62223 1.44147 19.5499
13 1 6.35909 4.08775 20.1461
14 1 5.17207 1.95114 15.6744
15 1 0.550166 -0.0977014 18.0956
16 2 6.39873 3.72543 13.058
17 2 4.03475 2.90778 19.8738
18 2 3.60319 1.6186 17.7046
19 2 6.06937 3.15912 17.8271
20 2 2.41068 0.552248 15.7829
21 2 2.20067 3.68006 15.4892
22 2 1.168 0.684066 13.4866
23 2 5.02302 4.17649 10.7739
24 2 3.26448 4.02777 8.63018
25 2 3.0963 0.992275 8.62972
26 2 5.04849 1.28885 11.1476
27 2 3.83324 2.35363 13.1862
28 2 2.59768 3.03509 10.7598
29 2 5.68692 2.26851 8.57739
30 2 3.38471 2.48075 6.28924
31 2 5.74529 4.35359 6.25791
32 2 4.44922 2.98572 3.83566
33 2 1.63412 1.82129 4.04398
34 2 4.5124 0.271012 3.98617
35 2 0.769158 0.974571 6.24447
ITEM: TIMESTEP
10700
ITEM: NUMBER OF ATOMS
35
ITEM: BOX BOUNDS xy xz yz pp pp pp
0.0000000000000000e+00 7.6685730000000003e+00 2.5561910000000001e+00
0.0000000000000000e+00 4.4274529999999999e+00 0.0000000000000000e+00
0.0000000000000000e+00 3.2699264999999997e+01 0.0000000000000000e+00
ITEM: ATOMS id type x y z
1 1 7.11917 3.21501 26.6057
2 1 5.54863 4.1406 22.6473
3 1 5.28782 3.45055 24.9435
4 1 3.27387 4.56974 21.805
5 1 3.7241 1.16166 25.1311
6 1 2.61847 3.90076 24.2792
7 1 3.18515 0.719393 27.4366
8 1 0.628948 0.520868 27.0396
9 1 1.57047 1.12923 24.8687
10 1 2.00134 2.16799 21.858
11 1 4.56177 1.94371 22.5278
12 1 1.88985 0.688684 19.7313
13 1 6.61281 4.65883 20.1634
14 1 4.90884 2.19822 15.5683
15 1 3.28888 4.6924 17.6921
16 2 6.14982 3.89704 13.3667
17 2 4.27358 2.53289 20.1894
18 2 3.58055 1.676 17.7562
19 2 5.87576 3.04065 18.0735
20 2 2.39662 0.602969 15.6665
21 2 2.39975 3.51863 15.7391
22 2 1.38629 1.26699 13.4588
23 2 4.81895 4.03358 10.7065
24 2 2.84683 4.17044 8.51546
25 2 3.41485 1.44236 8.68815
26 2 4.78125 1.00271 11.2741
27 2 3.69232 2.81812 13.4794
28 2 2.11015 2.44666 11.127
29 2 5.85106 2.61012 8.36776
30 2 3.42842 2.45302 6.16056
31 2 5.83838 3.67765 6.2017
32 2 4.19681 3.1725 3.63265
33 2 1.90753 1.83036 3.82071
34 2 4.02702 0.139856 3.60174
35 2 0.732459 0.740679 6.06138
ITEM: TIMESTEP
10800
ITEM: NUMBER OF ATOMS
35
ITEM: BOX BOUNDS xy xz yz pp pp pp
0.0000000000000000e+00 7.6685730000000003e+00 2.5561910000000001e+00
0.0000000000000000e+00 4.4274529999999999e+00 0.0000000000000000e+00
0.0000000000000000e+00 3.2699264999999997e+01 0.0000000000000000e+00
ITEM: ATOMS id type x y z
1 1 2.55664 2.85851 26.0449
2 1 3.67469 0.528781 22.4065
3 1 5.33482 3.53671 25.623
4 1 0.756562 -0.0491472 21.9017
5 1 4.20798 1.03561 24.9052
6 1 2.75913 3.19374 23.9866
7 1 3.31405 0.695266 26.9068
8 1 0.945088 0.678287 27.1949
9 1 1.60549 1.08053 24.662
10 1 2.00639 2.31785 22.0515
11 1 5.08734 2.42096 23.0786
12 1 1.96361 1.16714 20.0732
13 1 4.82393 -0.37365 19.8315
14 1 5.15188 1.96492 15.6949
15 1 0.873496 0.27011 17.9088
16 2 6.12973 4.65376 13.4457
17 2 4.69158 2.59374 20.6948
18 2 3.43505 1.67526 18.0329
19 2 5.92199 2.94809 18.126
20 2 2.30266 0.414178 15.8785
21 2 2.41954 3.35335 16.0349
22 2 0.96858 1.40635 13.5498
23 2 4.49042 3.65394 10.9051
24 2 3.2459 4.32505 8.45278
25 2 3.29937 1.46807 8.50266
26 2 4.47587 0.753093 11.0063
27 2 3.45395 3.14398 13.3251
28 2 1.96742 2.07604 10.977
29 2 5.86157 2.70049 8.85153
30 2 3.06367 2.10722 5.90648
31 2 5.7829 3.6783 5.82907
32 2 4.20581 3.38079 3.68312
33 2 1.76389 1.59732 3.55527
34 2 4.30755 0.307143 3.35704
35 2 0.45369 0.879946 5.78306
ITEM: TIMESTEP
10900
ITEM: NUMBER OF ATOMS
35
ITEM: BOX BOUNDS xy xz yz pp pp pp
0.0000000000000000e+00 7.6685730000000003e+00 2.5561910000000001e+00
0.0000000000000000e+00 4.4274529999999999e+00 0.0000000000000000e+00
0.0000000000000000e+00 3.2699264999999997e+01 0.0000000000000000e+00
ITEM: ATOMS id type x y z
1 1 3.00132 3.02487 27.0735
2 1 3.79142 0.722993 22.0275
3 1 5.15449 3.23932 25.9483
4 1 1.26524 0.379876 22.2174
5 1 4.32207 0.416748 24.5214
6 1 3.10455 2.71825 24.3775
7 1 3.98937 0.824283 27.7123
8 1 0.8628 1.1813 26.1744
9 1 1.94523 0.761999 24.371
10 1 2.18775 2.88814 22.2254
11 1 5.36323 3.22161 23.628
12 1 2.29479 0.783371 20.2532
13 1 2.43545 3.87927 20.1668
14 1 4.47944 1.85912 15.9408
15 1 1.06002 0.118446 18.3238
16 2 3.2484 0.386663 13.4836
17 2 4.99891 2.44079 20.4865
18 2 3.60758 1.59602 18.199
19 2 5.80216 2.97624 18.1864
20 2 2.35165 0.319751 16.0636
21 2 2.22439 3.45157 15.9303
22 2 5.77253 1.73629 13.4724
23 2 4.43336 3.51139 10.9967
24 2 3.59133 4.25168 8.30378
25 2 3.30617 1.10247 8.32685
26 2 4.43218 0.358327 10.6951
27 2 3.29756 3.10491 13.5391
28 2 2.12055 2.02349 10.8829
29 2 5.80859 2.77261 8.35643
30 2 2.63392 2.32446 5.78594
31 2 5.5411 4.00945 5.85419
32 2 4.29707 3.11176 3.65387
33 2 1.63509 1.82962 3.2587
34 2 4.45763 0.261105 3.47038
35 2 5.38298 1.02647 6.00613
ITEM: TIMESTEP
11000
ITEM: NUMBER OF ATOMS
35
ITEM: BOX BOUNDS xy xz yz pp pp pp
0.0000000000000000e+00 7.6685730000000003e+00 2.5561910000000001e+00
0.0000000000000000e+00 4.4274529999999999e+00 0.0000000000000000e+00
0.0000000000000000e+00 3.2699264999999997e+01 0.0000000000000000e+00
ITEM: ATOMS id type x y z
1 1 2.63715 3.04691 27.3796
2 1 3.70729 0.612175 22.3913
3 1 5.36322 3.97165 26.5388
4 1 1.06868 0.321015 22.3408
5 1 4.82097 0.276406 24.8559
6 1 3.69726 2.7307 25.3192
7 1 4.13463 0.929723 27.3438
8 1 1.23706 1.30775 26.654
9 1 2.23048 0.727946 24.326
10 1 2.64129 2.60025 22.5946
11 1 5.22728 2.43263 23.4541
12 1 2.27059 0.531319 20.1209
13 1 2.20724 3.88175 20.3001
14 1 4.65463 1.9672 15.5296
15 1 0.800213 0.304308 18.115
16 2 2.93073 0.0647172 13.2994
17 2 5.14398 2.35817 20.5726
18 2 3.65583 1.48405 18.2014
19 2 6.20459 2.97664 18.0565
20 2 1.95419 0.570807 15.8105
21 2 1.96473 3.71442 15.9552
22 2 5.89725 1.81997 13.2448
23 2 4.81335 3.4063 10.7195
24 2 3.1544 3.85575 8.40468
25 2 3.55111 1.24813 8.27073
26 2 4.81296 0.301863 10.8124
27 2 3.07674 3.29017 13.5097
28 2 1.96588 1.80678 10.7627
29 2 6.07374 2.52087 8.20562
30 2 2.67553 2.90666 5.80931
31 2 5.0835 4.20156 5.85338
32 2 4.25759 3.01955 3.54639
33 2 1.74085 1.8315 3.46536
34 2 4.13997 0.195574 3.73358
35 2 5.34027 1.15429 5.90952
ITEM: TIMESTEP
11100
ITEM: NUMBER OF ATOMS
35
ITEM: BOX BOUNDS xy xz yz pp pp pp
0.0000000000000000e+00 7.6685730000000003e+00 2.5561910000000001e+00
0.0000000000000000e+00 4.4274529999999999e+00 0.0000000000000000e+00
0.0000000000000000e+00 3.2699264999999997e+01 0.0000000000000000e+00
ITEM: ATOMS id type x y z
1 1 2.5329 3.95937 27.9031
2 1 3.43778 -0.524732 22.7711
3 1 5.7671 3.73228 26.6666
4 1 1.3811 0.319168 22.3694
5 1 5.07773 -0.0736849 25.3081
6 1 3.91047 2.48501 25.0061
7 1 4.3982 1.99468 27.5203
8 1 1.58696 1.44725 26.7432
9 1 2.43416 0.562273 24.728
10 1 2.73789 2.18983 22.9697
11 1 4.93945 1.75184 23.0626
12 1 2.606 1.0199 20.2067
13 1 2.47296 3.56449 20.3983
14 1 4.40462 2.69154 15.6102
15 1 0.96165 -0.287695 18.3052
16 2 3.16305 0.10906 13.0235
17 2 4.98518 2.19063 20.6285
18 2 3.50604 1.74968 17.9399
19 2 6.03159 2.64977 18.3465
20 2 1.82437 1.27142 15.4476
21 2 6.97251 4.01448 15.5519
22 2 5.66103 1.588 13.177
23 2 4.99145 3.14458 10.4988
24 2 3.43675 4.07882 8.54377
25 2 3.49583 0.874203 8.39582
26 2 4.87681 0.317264 11.0022
27 2 3.0641 3.16044 13.0494
28 2 2.46482 1.64446 10.6676
29 2 6.02931 2.19233 8.29118
30 2 2.67525 2.851 5.94016
31 2 5.02843 4.51527 6.18982
32 2 4.11818 3.27737 3.43897
33 2 1.57726 1.47455 3.7716
34 2 3.91952 0.227703 3.66514
35 2 5.04297 1.68128 5.76467
ITEM: TIMESTEP
11200
ITEM: NUMBER OF ATOMS
35
ITEM: BOX BOUNDS xy xz yz pp pp pp
0.0000000000000000e+00 7.6685730000000003e+00 2.5561910000000001e+00
0.0000000000000000e+00 4.4274529999999999e+00 0.0000000000000000e+00
0.0000000000000000e+00 3.2699264999999997e+01 0.0000000000000000e+00
ITEM: ATOMS id type x y z
1 1 0.721819 0.524333 28.0109
2 1 6.33259 3.67 22.6293
3 1 5.70232 3.85638 27.0407
4 1 3.94366 3.52622 22.135
5 1 2.73238 4.4302 25.4022
6 1 4.46124 2.19932 25.5979
7 1 3.6905 2.55857 27.7644
8 1 2.04941 1.76216 26.4868
9 1 2.42564 0.159289 24.4923
10 1 2.49358 1.54277 22.6194
11 1 5.10642 1.24672 23.4077
12 1 2.49679 0.411568 20.3751
13 1 2.19505 3.50643 20.2349
14 1 4.41955 3.62394 15.2985
15 1 1.2154 0.167712 18.094
16 2 2.96992 0.143989 13.1333
17 2 4.90707 2.0181 20.6411
18 2 3.37085 1.44214 17.5266
19 2 5.91145 2.77014 18.1577
20 2 1.94577 1.78464 15.5448
21 2 6.92322 4.46071 15.4196
22 2 5.43387 1.65481 13.3763
23 2 5.21677 2.94727 10.9135
24 2 3.77857 3.68186 8.34753
25 2 3.85414 0.607995 8.5328
26 2 5.18262 0.0975279 10.6906
27 2 3.17779 2.87124 13.0546
28 2 2.64076 1.70427 10.782
29 2 6.15667 2.36532 8.25311
30 2 2.17318 3.25565 6.04586
31 2 2.40229 0.245074 5.98525
32 2 3.77229 3.1373 3.56922
33 2 1.34389 1.61591 3.7406
34 2 3.98777 0.0415031 3.71428
35 2 4.68968 1.91527 5.89789
ITEM: TIMESTEP
11300
ITEM: NUMBER OF ATOMS
35
ITEM: BOX BOUNDS xy xz yz pp pp pp
0.0000000000000000e+00 7.6685730000000003e+00 2.5561910000000001e+00
0.0000000000000000e+00 4.4274529999999999e+00 0.0000000000000000e+00
0.0000000000000000e+00 3.2699264999999997e+01 0.0000000000000000e+00
ITEM: ATOMS id type x y z
1 1 1.17215 1.49988 27.3961
2 1 6.49469 3.58629 22.1247
3 1 5.72383 4.08615 27.2756
4 1 3.5366 3.27219 22.9769
5 1 3.05714 3.97599 26.0086
6 1 4.60824 1.98973 25.9013
7 1 3.31155 3.00254 28.0773
8 1 1.81717 1.99814 24.8993
9 1 5.5075 4.12171 24.8233
10 1 2.41908 1.10471 21.8585
11 1 5.39833 1.59669 23.0985
12 1 4.51677 4.11538 19.7802
13 1 2.20581 3.30304 19.9425
14 1 4.32558 3.49948 15.8268
15 1 3.05793 4.20325 17.7189
16 2 2.74529 0.00756703 13.2628
17 2 5.18103 1.45402 20.3152
18 2 3.6831 1.3719 18.2276
19 2 5.78675 3.03478 17.6858
20 2 1.88782 2.22153 15.6657
21 2 4.52264 0.764281 15.6003
22 2 5.63769 1.46765 13.3122
23 2 5.42801 2.94198 10.9612
24 2 4.07415 3.39409 8.25863
25 2 4.04117 0.743917 8.4267
26 2 3.05526 4.26633 10.8832
27 2 2.67447 3.17582 13.3971
28 2 2.67009 1.32902 10.6845
29 2 1.50949 2.16331 8.55046
30 2 7.08997 3.66321 6.12837
31 2 1.86219 0.576131 5.71482
32 2 3.64551 2.79716 3.75649
33 2 1.05088 1.80054 3.62499
34 2 3.75048 0.103207 3.53889
35 2 4.60669 1.87509 5.99232
ITEM: TIMESTEP
11400
ITEM: NUMBER OF ATOMS
35
ITEM: BOX BOUNDS xy xz yz pp pp pp
0.0000000000000000e+00 7.6685730000000003e+00 2.5561910000000001e+00
0.0000000000000000e+00 4.4274529999999999e+00 0.0000000000000000e+00
0.0000000000000000e+00 3.2699264999999997e+01 0.0000000000000000e+00
ITEM: ATOMS id type x y z
1 1 1.57174 2.23942 26.1773
2 1 6.16639 3.5681 22.1879
3 1 5.73952 4.61157 27.171
4 1 3.79594 3.58878 23.5435
5 1 3.40362 4.49718 25.5562
6 1 3.96636 1.73363 25.685
7 1 3.54358 3.04616 27.8545
8 1 2.29113 1.54312 23.9901
9 1 6.07114 3.81056 24.6761
10 1 2.7101 1.26016 21.4719
11 1 4.71532 1.09522 22.8686
12 1 4.62293 3.70882 20.1544
13 1 1.95127 3.26557 20.0876
14 1 4.15232 3.9118 15.4857
15 1 3.35384 4.25953 17.6693
16 2 3.05082 0.0481482 13.5078
17 2 5.3937 1.05661 20.4312
18 2 3.18658 1.3536 18.6644
19 2 5.76463 2.93511 17.8741
20 2 1.91923 2.17213 15.7416
21 2 4.31337 1.26882 15.7639
22 2 5.39063 1.52947 13.0486
23 2 5.47928 2.73826 10.6716
24 2 4.38027 3.79837 8.48154
25 2 4.31904 0.457439 8.50793
26 2 2.82169 4.1031 10.8619
27 2 2.7856 3.001 13.2506
28 2 3.31667 1.17431 11.215
29 2 1.85094 1.90284 8.38266
30 2 6.90849 3.42683 6.05694
31 2 1.78769 0.663547 5.96492
32 2 3.27161 3.12023 3.7438
33 2 5.85926 1.67095 3.30502
34 2 3.46431 0.213794 3.45517
35 2 4.43419 2.24146 6.1574
ITEM: TIMESTEP
11500
ITEM: NUMBER OF ATOMS
35
ITEM: BOX BOUNDS xy xz yz pp pp pp
0.0000000000000000e+00 7.6685730000000003e+00 2.5561910000000001e+00
0.0000000000000000e+00 4.4274529999999999e+00 0.0000000000000000e+00
0.0000000000000000e+00 3.2699264999999997e+01 0.0000000000000000e+00
ITEM: ATOMS id type x y z
1 1 1.76007 2.40965 26.0825
2 1 6.21143 2.76114 22.3519
3 1 3.07311 0.595005 26.6944
4 1 3.56446 3.44773 22.9406
5 1 0.740562 0.154379 25.4057
6 1 4.29942 2.2874 24.9253
7 1 4.11373 3.00285 26.983
8 1 2.21281 1.25436 23.5785
9 1 6.14902 4.20569 24.6525
10 1 2.97242 1.5681 20.9105
11 1 4.96575 0.99323 23.1564
12 1 4.21247 3.49469 20.7821
13 1 6.6369 3.52623 20.1871
14 1 4.23219 4.00426 15.8699
15 1 2.94874 4.26288 18.4232
16 2 3.22987 -0.140966 13.606
17 2 5.69021 1.25415 20.5238
18 2 2.81239 1.12922 18.476
19 2 5.53681 2.73971 18.0021
20 2 1.652 2.43477 15.6123
21 2 4.23643 1.01411 16.1582
22 2 5.60896 1.56097 13.3458
23 2 5.80502 2.55068 10.8122
24 2 4.5764 3.49332 8.47722
25 2 4.63069 0.58351 8.25606
26 2 3.24509 4.10223 10.8114
27 2 3.14782 2.81301 13.2923
28 2 2.97481 1.20643 10.8366
29 2 2.14507 2.17652 8.53217
30 2 6.69361 3.60419 5.91307
31 2 1.8449 0.701033 5.99049
32 2 3.03053 3.33511 3.62929
33 2 5.67166 1.62972 3.61035
34 2 2.97231 0.2724 3.79377
35 2 4.18011 2.17611 5.98142
ITEM: TIMESTEP
11600
ITEM: NUMBER OF ATOMS
35
ITEM: BOX BOUNDS xy xz yz pp pp pp
0.0000000000000000e+00 7.6685730000000003e+00 2.5561910000000001e+00
0.0000000000000000e+00 4.4274529999999999e+00 0.0000000000000000e+00
0.0000000000000000e+00 3.2699264999999997e+01 0.0000000000000000e+00
ITEM: ATOMS id type x y z
1 1 1.80698 2.58053 26.4121
2 1 5.6492 3.48612 22.3276
3 1 3.61473 0.811148 26.4425
4 1 3.58621 3.1778 22.2158
5 1 0.720353 0.291435 25.2731
6 1 4.35745 2.12777 24.6506
7 1 4.75922 3.01232 26.947
8 1 2.01017 1.3856 23.5281
9 1 6.40814 3.93472 24.5404
10 1 2.87579 1.34186 21.1459
11 1 5.01124 1.0099 22.7391
12 1 4.10582 3.61196 19.9249
13 1 7.01121 3.65082 19.9898
14 1 4.18485 3.79806 15.9406
15 1 2.66831 3.56712 17.7813
16 2 5.79566 4.33165 13.4206
17 2 5.60937 1.64951 20.4396
18 2 2.60926 1.22208 18.362
19 2 5.08271 2.42451 18.1137
20 2 1.6547 2.62284 15.7888
21 2 4.12896 0.746899 16.0911
22 2 6.00899 0.967351 13.6819
23 2 5.85952 2.75872 11.3179
24 2 4.87778 3.40358 8.22988
25 2 4.77805 0.776908 8.35973
26 2 3.31967 4.24788 11.1213
27 2 3.55226 2.6792 13.5753
28 2 3.37132 0.992418 10.5443
29 2 2.20504 2.34932 8.36953
30 2 6.75366 3.75094 6.01325
31 2 1.39339 0.836838 6.37091
32 2 2.88529 3.11196 3.5467
33 2 5.46928 1.73586 3.88625
34 2 2.70947 0.2347 3.61928
35 2 3.93888 2.28386 5.89188
ITEM: TIMESTEP
11700
ITEM: NUMBER OF ATOMS
35
ITEM: BOX BOUNDS xy xz yz pp pp pp
0.0000000000000000e+00 7.6685730000000003e+00 2.5561910000000001e+00
0.0000000000000000e+00 4.4274529999999999e+00 0.0000000000000000e+00
0.0000000000000000e+00 3.2699264999999997e+01 0.0000000000000000e+00
ITEM: ATOMS id type x y z
1 1 2.47989 2.40075 26.6101
2 1 5.51867 3.59386 22.1133
3 1 4.41385 0.566571 26.7822
4 1 2.71947 3.43849 21.6559
5 1 1.33738 0.682586 25.3716
6 1 3.85655 2.60332 24.9145
7 1 5.21917 2.9628 26.7274
8 1 2.17546 1.70839 23.2512
9 1 6.38908 3.74728 24.4842
10 1 3.09615 1.38122 21.0446
11 1 4.68069 1.61698 23.0542
12 1 4.03858 3.58839 19.86
13 1 6.44358 4.01651 19.4691
14 1 4.57337 3.84344 15.8184
15 1 2.7654 4.21629 17.6355
16 2 6.26602 4.10239 13.3037
17 2 5.19747 1.60003 20.3163
18 2 2.52156 1.1325 18.3017
19 2 4.99962 2.06227 17.6536
20 2 1.64187 2.18269 15.7037
21 2 3.85167 1.05361 15.6065
22 2 0.909563 0.684631 13.8681
23 2 6.02768 2.43803 11.227
24 2 4.95464 3.94024 8.63683
25 2 5.09459 0.733719 8.68435
26 2 3.4374 3.98022 11.2599
27 2 3.74892 2.41132 13.5101
28 2 3.65202 1.35397 11.144
29 2 2.47989 2.49764 8.8419
30 2 6.31336 4.03262 5.84082
31 2 1.21377 0.911921 5.99567
32 2 2.62164 3.02631 3.65501
33 2 5.37124 1.59854 3.60486
34 2 2.63127 0.0539856 3.75182
35 2 3.62742 2.42446 6.21249
ITEM: TIMESTEP
11800
ITEM: NUMBER OF ATOMS
35
ITEM: BOX BOUNDS xy xz yz pp pp pp
0.0000000000000000e+00 7.6685730000000003e+00 2.5561910000000001e+00
0.0000000000000000e+00 4.4274529999999999e+00 0.0000000000000000e+00
0.0000000000000000e+00 3.2699264999999997e+01 0.0000000000000000e+00
ITEM: ATOMS id type x y z
1 1 3.23651 2.16198 27.0306
2 1 4.82837 3.6955 22.0707
3 1 0.241156 0.0519675 26.7424
4 1 7.25802 3.97678 22.3273
5 1 1.29668 1.7377 25.1071
6 1 3.8628 3.70182 24.8512
7 1 5.57359 2.64578 27.0725
8 1 1.46277 1.63062 22.6134
9 1 6.3754 4.03884 24.9929
10 1 2.71127 1.2867 20.244
11 1 4.14167 1.46138 23.2131
12 1 3.55487 3.62367 19.3652
13 1 6.44748 3.58341 19.4264
14 1 4.32821 3.85469 15.4888
15 1 2.76429 3.99997 17.329
16 2 6.3448 3.28128 13.2859
17 2 5.34473 1.25541 20.2755
18 2 2.4583 1.33626 17.9684
19 2 4.9628 2.32734 17.8619
20 2 1.55021 2.47592 15.6617
21 2 4.0737 0.759776 15.6147
22 2 1.16242 0.878544 13.4606
23 2 6.21455 2.17164 10.9121
24 2 5.32309 4.26491 9.03617
25 2 5.2571 1.07536 8.50495
26 2 3.85164 3.98205 11.1044
27 2 3.817 2.54803 13.6269
28 2 3.53459 0.831323 11.4053
29 2 2.70413 2.45478 8.76579
30 2 6.08878 3.99254 6.49143
31 2 1.12788 1.15326 5.90725
32 2 2.49398 3.03002 3.97608
33 2 4.72178 1.47724 3.56504
34 2 4.89255 4.42041 3.57245
35 2 3.76417 2.55178 6.44416
ITEM: TIMESTEP
11900
ITEM: NUMBER OF ATOMS
35
ITEM: BOX BOUNDS xy xz yz pp pp pp
0.0000000000000000e+00 7.6685730000000003e+00 2.5561910000000001e+00
0.0000000000000000e+00 4.4274529999999999e+00 0.0000000000000000e+00
0.0000000000000000e+00 3.2699264999999997e+01 0.0000000000000000e+00
ITEM: ATOMS id type x y z
1 1 3.78435 1.4282 26.6734
2 1 4.41055 3.38857 22.2964
3 1 3.31182 4.29688 26.8927
4 1 7.12247 4.085 22.721
5 1 1.51851 2.10145 25.1624
6 1 3.91064 4.09298 24.4669
7 1 5.76191 3.43178 27.1346
8 1 1.04017 1.32605 22.7377
9 1 3.81317 0.00641901 24.9354
10 1 2.4437 1.75677 20.779
11 1 3.09409 1.96134 23.4289
12 1 4.04665 3.72746 19.7305
13 1 6.48104 3.59912 20.0245
14 1 4.03525 3.96376 15.8204
15 1 2.5391 4.04672 18.1291
16 2 6.48549 3.72439 13.4058
17 2 5.24562 1.38273 20.1743
18 2 2.59068 0.98183 17.8252
19 2 4.97442 2.45506 17.756
20 2 1.40208 2.29358 15.676
21 2 4.19894 0.671057 15.5454
22 2 1.43238 0.582694 13.2573
23 2 6.04999 2.20968 10.789
24 2 5.41472 4.22633 8.92568
25 2 5.33314 1.3354 8.3845
26 2 3.51407 3.39316 10.9348
27 2 3.78265 2.13205 13.4364
28 2 4.00447 0.723784 11.0444
29 2 2.80767 2.65686 8.61319
30 2 6.47768 4.11169 6.41076
31 2 1.35759 1.13301 5.96732
32 2 1.97098 3.12097 4.28022
33 2 4.29389 1.38116 4.02353
34 2 4.59313 4.27742 3.83932
35 2 4.02891 2.85636 6.07769
ITEM: TIMESTEP
12000
ITEM: NUMBER OF ATOMS
35
ITEM: BOX BOUNDS xy xz yz pp pp pp
0.0000000000000000e+00 7.6685730000000003e+00 2.5561910000000001e+00
0.0000000000000000e+00 4.4274529999999999e+00 0.0000000000000000e+00
0.0000000000000000e+00 3.2699264999999997e+01 0.0000000000000000e+00
ITEM: ATOMS id type x y z
1 1 4.08112 2.09792 26.4955
2 1 4.40226 3.51611 22.312
3 1 3.22948 4.30135 27.1943
4 1 6.8463 4.43587 22.1507
5 1 1.43338 1.78704 25.9322
6 1 4.28231 3.75497 24.6199
7 1 5.9665 4.14571 26.7323
8 1 5.44487 1.64465 23.3807
9 1 6.81224 4.2335 24.5098
10 1 2.76797 1.65891 21.2712
11 1 3.09389 1.90006 23.8301
12 1 3.82103 3.76311 20.1497
13 1 6.29536 3.36153 19.8698
14 1 3.8076 3.23948 15.4228
15 1 2.40448 3.42752 17.7141
16 2 6.49389 3.62694 13.3224
17 2 4.9928 1.42518 20.0391
18 2 2.73335 1.06607 18.517
19 2 5.01154 2.67125 17.7308
20 2 1.51155 1.93907 15.5083
21 2 4.01414 0.699843 15.9589
22 2 1.51591 0.541097 13.2173
23 2 6.50865 2.08023 11.1165
24 2 4.83673 4.19365 8.60329
25 2 5.33245 1.39911 8.53823
26 2 3.68787 3.58057 10.9584
27 2 4.02336 2.05551 13.1983
28 2 3.87842 0.612493 10.6439
29 2 2.62364 2.72969 8.2782
30 2 4.30979 0.150185 6.49376
31 2 1.83944 1.36136 6.228
32 2 6.62606 2.77527 3.73115
33 2 4.20728 1.25849 4.02862
34 2 4.10435 4.20175 3.67863
35 2 4.36644 2.98474 6.34677
ITEM: TIMESTEP
12100
ITEM: NUMBER OF ATOMS
35
ITEM: BOX BOUNDS xy xz yz pp pp pp
0.0000000000000000e+00 7.6685730000000003e+00 2.5561910000000001e+00
0.0000000000000000e+00 4.4274529999999999e+00 0.0000000000000000e+00
0.0000000000000000e+00 3.2699264999999997e+01 0.0000000000000000e+00
ITEM: ATOMS id type x y z
1 1 4.33061 2.08981 26.1326
2 1 4.30871 3.62282 22.2803
3 1 2.81021 4.31856 27.323
4 1 6.79927 4.24918 22.15
5 1 1.53586 1.82615 26.4558
6 1 4.80898 4.14174 24.5472
7 1 3.08259 -0.0143438 26.6711
8 1 5.68379 2.14265 23.5731
9 1 7.55382 4.18135 24.8491
10 1 1.95348 1.5999 21.6925
11 1 2.95556 1.68333 24.239
12 1 3.93183 3.42861 19.7171
13 1 6.4116 3.54502 19.5467
14 1 4.18088 3.44839 15.3862
15 1 2.96734 4.4331 17.3958
16 2 6.63028 3.50679 13.3113
17 2 4.91283 1.3887 20.1738
18 2 2.44317 1.13428 18.8877
19 2 5.16445 2.50963 17.5695
20 2 1.42601 1.76498 15.7937
21 2 3.68768 0.441647 15.9552
22 2 1.42392 0.501881 13.3548
23 2 1.5775 2.07012 10.9077
24 2 4.91224 4.46217 8.36942
25 2 4.91335 1.60113 8.90724
26 2 4.07281 3.68067 10.9752
27 2 4.19726 1.8119 13.2363
28 2 3.87558 0.376896 10.9233
29 2 2.30622 2.82352 8.65287
30 2 4.67145 0.0895735 6.21313
31 2 2.02779 1.69215 5.76474
32 2 6.41358 2.53589 3.52564
33 2 3.96707 1.23304 3.76004
34 2 3.64818 4.15277 3.80033
35 2 4.81882 2.92297 5.92408
ITEM: TIMESTEP
12200
ITEM: NUMBER OF ATOMS
35
ITEM: BOX BOUNDS xy xz yz pp pp pp
0.0000000000000000e+00 7.6685730000000003e+00 2.5561910000000001e+00
0.0000000000000000e+00 4.4274529999999999e+00 0.0000000000000000e+00
0.0000000000000000e+00 3.2699264999999997e+01 0.0000000000000000e+00
ITEM: ATOMS id type x y z
1 1 4.24926 2.00448 26.2601
2 1 3.91388 3.41046 21.7752
3 1 3.13457 4.17732 27.1654
4 1 6.38611 4.25011 22.5472
5 1 1.7864 2.22534 26.3278
6 1 5.02323 4.30884 24.6188
7 1 5.2669 4.30536 27.0545
8 1 6.11195 1.52936 23.7611
9 1 7.26513 4.3402 24.7117
10 1 2.40578 1.67683 21.6134
11 1 3.35565 2.45049 23.6373
12 1 3.50288 3.57169 19.7341
13 1 6.2957 3.5296 20.0167
14 1 3.80654 3.06886 15.7879
15 1 0.188269 -0.433113 17.6213
16 2 6.73138 3.22495 13.525
17 2 5.1029 1.324 20.6242
18 2 2.45715 1.51213 18.6599
19 2 4.92812 2.59473 18.1208
20 2 1.61311 1.9766 15.6914
21 2 3.65235 0.188845 15.7873
22 2 1.57931 0.383806 13.3585
23 2 1.54705 1.78422 11.0805
24 2 2.41447 0.359255 8.16595
25 2 4.58656 1.79201 8.58086
26 2 3.93858 3.14016 10.9857
27 2 4.00208 1.88364 13.4938
28 2 4.20687 0.430067 11.2419
29 2 2.30705 3.3757 8.37693
30 2 5.05953 0.013089 6.10924
31 2 2.45486 1.5369 5.84422
32 2 6.08573 2.80869 3.15927
33 2 3.47883 1.04813 3.45772
34 2 3.48272 3.97392 3.69338
35 2 5.1239 3.0209 5.81326
ITEM: TIMESTEP
12300
ITEM: NUMBER OF ATOMS
35
ITEM: BOX BOUNDS xy xz yz pp pp pp
0.0000000000000000e+00 7.6685730000000003e+00 2.5561910000000001e+00
0.0000000000000000e+00 4.4274529999999999e+00 0.0000000000000000e+00
0.0000000000000000e+00 3.2699264999999997e+01 0.0000000000000000e+00
ITEM: ATOMS id type x y z
1 1 4.38081 2.07361 26.3437
2 1 4.17117 4.21768 22.5708
3 1 3.21346 4.50993 27.0675
4 1 6.79691 3.95069 22.7753
5 1 1.53275 1.98491 25.7103
6 1 4.62809 4.04761 25.0947
7 1 5.91885 4.31522 27.1141
8 1 0.918135 1.88862 23.127
9 1 7.3687 4.27553 24.8623
10 1 2.47836 1.84698 20.7276
11 1 3.72979 2.05381 23.9823
12 1 3.36443 4.06745 19.9067
13 1 5.69352 3.98123 20.2807
14 1 4.08277 3.41801 16.077
15 1 6.90756 4.15469 18.2773
16 2 6.57253 3.17343 13.2386
17 2 5.09088 1.61693 21.1255
18 2 2.55904 1.25882 18.3083
19 2 5.19404 2.26504 18.3325
20 2 1.08864 1.53852 16.0881
21 2 3.77067 0.475979 15.7229
22 2 1.60142 0.0903915 13.6564
23 2 1.48198 1.46156 10.9469
24 2 2.03156 0.374987 8.6063
25 2 4.84873 2.04664 8.09999
26 2 4.2016 3.08504 10.9842
27 2 4.17125 1.79901 13.6659
28 2 4.11096 0.119692 10.9458
29 2 2.13448 3.5531 8.44707
30 2 5.19691 0.389091 5.60535
31 2 2.79278 1.70042 5.88511
32 2 5.89442 2.56875 3.33513
33 2 3.30961 0.998253 3.26769
34 2 3.43163 3.96821 3.23411
35 2 5.29158 3.20563 5.82285
ITEM: TIMESTEP
12400
ITEM: NUMBER OF ATOMS
35
ITEM: BOX BOUNDS xy xz yz pp pp pp
0.0000000000000000e+00 7.6685730000000003e+00 2.5561910000000001e+00
0.0000000000000000e+00 4.4274529999999999e+00 0.0000000000000000e+00
0.0000000000000000e+00 3.2699264999999997e+01 0.0000000000000000e+00
ITEM: ATOMS id type x y z
1 1 4.10354 2.14145 27.1915
2 1 4.65265 4.12732 22.5146
3 1 1.337 0.335132 27.3506
4 1 7.56441 4.02747 22.3411
5 1 2.00312 1.96795 25.9805
6 1 4.91295 3.88225 25.0979
7 1 6.38842 3.89064 27.1549
8 1 5.99818 2.35686 23.6352
9 1 7.50222 4.6941 25.3022
10 1 2.09021 2.24295 20.6233
11 1 3.16456 1.49669 23.1224
12 1 3.84342 4.32601 20.2432
13 1 6.03562 4.5829 20.3805
14 1 3.43559 2.8253 16.2563
15 1 7.72959 3.64295 18.1705
16 2 6.76019 3.01777 13.4369
17 2 4.62196 1.99364 21.0827
18 2 2.43825 0.911773 18.2438
19 2 4.93546 2.12582 18.669
20 2 1.00219 1.7382 15.9454
21 2 3.6954 0.175926 15.9627
22 2 1.35487 0.158805 13.6288
23 2 1.45471 1.58638 11.1707
24 2 1.95212 0.364581 8.51447
25 2 4.88483 1.89168 8.17039
26 2 4.19377 3.01873 10.9419
27 2 4.19018 1.54682 13.1108
28 2 4.02633 0.170985 10.6864
29 2 2.06865 3.28172 8.37324
30 2 5.37665 0.539986 5.43718
31 2 2.6407 2.30743 5.85198
32 2 6.08823 2.13644 3.53576
33 2 3.35636 1.02692 3.45002
34 2 3.43087 3.71301 2.94782
35 2 5.24243 3.91914 5.65026
ITEM: TIMESTEP
12500
ITEM: NUMBER OF ATOMS
35
ITEM: BOX BOUNDS xy xz yz pp pp pp
0.0000000000000000e+00 7.6685730000000003e+00 2.5561910000000001e+00
0.0000000000000000e+00 4.4274529999999999e+00 0.0000000000000000e+00
0.0000000000000000e+00 3.2699264999999997e+01 0.0000000000000000e+00
ITEM: ATOMS id type x y z
1 1 4.78908 1.88117 27.376
2 1 2.82304 0.446376 22.47
3 1 1.30493 0.317297 27.5747
4 1 2.37364 4.16568 22.9345
5 1 2.53604 2.1229 25.6707
6 1 4.88792 3.74002 25.623
7 1 6.70392 3.70244 27.4467
8 1 5.72275 2.02573 23.4031
9 1 5.25615 0.887647 25.3445
10 1 2.24249 1.96752 20.5205
11 1 3.48651 2.1866 23.91
12 1 0.663579 0.181535 20.6511
13 1 5.90821 3.94212 20.1021
14 1 3.79905 2.73213 15.2915
15 1 2.45957 3.50112 17.9936
16 2 6.78427 3.07491 13.5705
17 2 4.42503 2.26611 21.274
18 2 2.29248 0.685882 18.0727
19 2 4.76343 2.19392 18.1565
20 2 6.08441 1.55354 15.8456
21 2 6.10442 4.26608 16.0197
22 2 1.51112 0.0831082 13.5743
23 2 1.51712 1.7421 11.0633
24 2 2.08608 0.198749 8.12338
25 2 4.44711 1.71457 8.22211
26 2 3.89021 3.27741 10.7208
27 2 3.913 1.33994 13.2495
28 2 4.19472 0.212607 10.7006
29 2 2.08214 3.15444 8.40951
30 2 5.20615 1.00903 5.98206
31 2 2.59436 2.51282 5.74955
32 2 6.24104 2.3444 3.38794
33 2 3.6864 0.616583 3.48824
34 2 3.5694 3.49355 3.08929
35 2 5.25632 4.1229 5.778
ITEM: TIMESTEP
12600
ITEM: NUMBER OF ATOMS
35
ITEM: BOX BOUNDS xy xz yz pp pp pp
0.0000000000000000e+00 7.6685730000000003e+00 2.5561910000000001e+00
0.0000000000000000e+00 4.4274529999999999e+00 0.0000000000000000e+00
0.0000000000000000e+00 3.2699264999999997e+01 0.0000000000000000e+00
ITEM: ATOMS id type x y z
1 1 4.94287 2.21734 27.6441
2 1 2.655 0.45253 22.514
3 1 4.35626 4.39724 27.6586
4 1 5.09855 0.287367 23.2791
5 1 2.19322 1.75036 26.2448
6 1 5.63629 3.83603 25.5309
7 1 6.79584 4.29934 27.6546
8 1 6.67585 2.73022 22.9735
9 1 5.22006 0.418627 25.6116
10 1 1.73668 2.24209 19.9609
11 1 4.24304 2.8078 23.7454
12 1 2.8663 4.31706 20.6465
13 1 5.83493 4.26865 19.9735
14 1 3.73331 2.74459 15.9897
15 1 2.22356 3.30105 17.8217
16 2 6.48611 2.97221 13.2743
17 2 4.45015 2.17202 21.376
18 2 1.86273 0.629177 17.9768
19 2 4.74017 2.04534 18.1512
20 2 0.933504 0.772026 15.5374
21 2 3.50522 0.0572712 15.6068
22 2 1.62532 0.0470103 13.0059
23 2 1.45775 1.72793 10.6571
24 2 1.7044 0.227658 8.39312
25 2 4.11244 1.75828 8.65243
26 2 4.11497 3.29155 10.8438
27 2 4.06548 1.60611 13.4323
28 2 3.98074 0.330094 10.9918
29 2 6.66701 3.2074 8.39619
30 2 5.2691 1.3794 5.88118
31 2 2.78549 2.49481 5.65423
32 2 6.23897 1.96449 3.4139
33 2 4.13251 0.472738 3.41065
34 2 4.02605 3.68563 3.72068
35 2 5.37782 3.94698 5.77268
ITEM: TIMESTEP
12700
ITEM: NUMBER OF ATOMS
35
ITEM: BOX BOUNDS xy xz yz pp pp pp
0.0000000000000000e+00 7.6685730000000003e+00 2.5561910000000001e+00
0.0000000000000000e+00 4.4274529999999999e+00 0.0000000000000000e+00
0.0000000000000000e+00 3.2699264999999997e+01 0.0000000000000000e+00
ITEM: ATOMS id type x y z
1 1 5.34026 2.36076 26.8993
2 1 2.68029 0.00813373 22.3438
3 1 1.61619 0.080521 27.8408
4 1 6.06733 1.15425 23.381
5 1 2.71187 1.96358 25.8961
6 1 6.06077 3.80505 25.2501
7 1 4.18913 0.0414956 28.2709
8 1 2.3943 3.0352 22.4072
9 1 0.838018 0.283519 25.7039
10 1 1.48829 2.22223 20.3609
11 1 3.86263 2.94689 24.384
12 1 3.45082 4.16043 20.348
13 1 3.0513 0.430097 19.9154
14 1 3.31446 2.55264 15.8161
15 1 6.81213 3.63922 17.8875
16 2 6.83571 3.01796 13.1604
17 2 4.36642 2.10921 21.2144
18 2 1.73346 0.26107 17.6727
19 2 4.46404 1.87396 18.5148
20 2 0.702712 1.03229 15.2302
21 2 5.7816 3.99881 15.5647
22 2 1.41697 0.253663 12.8899
23 2 1.5039 1.77603 10.7034
24 2 0.965343 0.294416 8.40928
25 2 3.8017 1.7291 8.34202
26 2 4.17385 2.90712 10.7162
27 2 4.11975 2.00311 13.3553
28 2 3.90697 0.281321 11.1085
29 2 6.25253 3.2995 8.29271
30 2 5.53309 0.832058 5.96917
31 2 2.79443 2.57347 6.20779
32 2 1.75374 1.94516 3.53788
33 2 4.10807 0.428045 3.60715
34 2 4.35138 3.49171 3.71862
35 2 5.55473 4.4417 6.12456
ITEM: TIMESTEP
12800
ITEM: NUMBER OF ATOMS
35
ITEM: BOX BOUNDS xy xz yz pp pp pp
0.0000000000000000e+00 7.6685730000000003e+00 2.5561910000000001e+00
0.0000000000000000e+00 4.4274529999999999e+00 0.0000000000000000e+00
0.0000000000000000e+00 3.2699264999999997e+01 0.0000000000000000e+00
ITEM: ATOMS id type x y z
1 1 5.34134 2.56189 26.4569
2 1 5.50896 4.29882 22.4528
3 1 1.68178 0.205843 27.9079
4 1 1.38984 1.85759 23.627
5 1 2.98861 1.80165 26.7566
6 1 6.52139 4.45724 24.6148
7 1 6.73901 4.22344 27.1288
8 1 2.79908 4.11587 22.3985
9 1 0.911633 0.280719 25.6557
10 1 2.1689 2.00204 20.0061
11 1 4.40126 2.58325 23.8168
12 1 2.93192 4.64214 19.746
13 1 5.4648 4.18101 19.9692
14 1 2.86528 2.533 15.896
15 1 6.77006 3.29695 17.8061
16 2 6.92398 3.45553 13.3879
17 2 4.44496 1.77864 21.3059
18 2 1.6455 0.162856 17.6383
19 2 4.29816 2.03562 18.2708
20 2 5.30835 1.15917 15.8121
21 2 5.35426 3.73576 15.432
22 2 1.66042 0.374526 13.0515
23 2 1.63979 1.71714 10.8279
24 2 0.758778 0.174032 8.64213
25 2 3.4516 1.55645 8.24611
26 2 3.93883 3.12708 10.6435
27 2 4.25594 1.72783 13.1879
28 2 4.04892 0.121682 10.7221
29 2 5.97594 3.02693 8.63454
30 2 5.65402 1.45521 5.86756
31 2 2.83983 3.05166 6.05624
32 2 2.01114 2.1008 3.83471
33 2 4.34827 0.380243 3.77539
34 2 4.54815 2.9814 3.83342
35 2 5.40608 4.04962 6.03528
ITEM: TIMESTEP
12900
ITEM: NUMBER OF ATOMS
35
ITEM: BOX BOUNDS xy xz yz pp pp pp
0.0000000000000000e+00 7.6685730000000003e+00 2.5561910000000001e+00
0.0000000000000000e+00 4.4274529999999999e+00 0.0000000000000000e+00
0.0000000000000000e+00 3.2699264999999997e+01 0.0000000000000000e+00
ITEM: ATOMS id type x y z
1 1 5.1718 2.39482 25.9487
2 1 5.6388 4.38047 22.245
3 1 4.04831 4.36306 27.4388
4 1 2.16642 2.42246 23.1631
5 1 2.82539 1.93754 26.7339
6 1 3.99026 0.262387 24.3331
7 1 7.16237 4.09884 26.3506
8 1 0.572677 0.0444189 22.5731
9 1 1.91461 0.309347 24.9152
10 1 2.0959 1.82955 20.1395
11 1 4.48631 2.7971 23.8904
12 1 2.56676 4.16779 19.8638
13 1 5.38184 3.48222 19.8797
14 1 2.65805 2.1783 15.3189
15 1 6.64323 3.12699 17.612
16 2 6.9279 3.29934 13.3572
17 2 4.41452 1.93991 21.5137
18 2 1.97605 0.531657 17.9151
19 2 4.1627 1.96986 18.1689
20 2 4.79629 0.699533 15.8806
21 2 4.92075 3.93093 15.6377
22 2 1.83442 0.419727 13.3202
23 2 1.56798 1.66282 11.0646
24 2 0.793242 0.00145098 8.40394
25 2 3.10068 1.47461 8.34193
26 2 4.0488 3.21446 11.0573
27 2 4.39913 1.71863 13.1776
28 2 4.12231 0.356158 10.7579
29 2 5.65315 2.81835 8.54807
30 2 5.57466 1.55785 6.25265
31 2 3.01669 3.21898 6.10989
32 2 1.8911 1.49403 3.5635
33 2 4.61664 0.128467 3.72788
34 2 4.67085 3.36809 3.58889
35 2 2.97894 0.227376 6.1642
ITEM: TIMESTEP
13000
ITEM: NUMBER OF ATOMS
35
ITEM: BOX BOUNDS xy xz yz pp pp pp
0.0000000000000000e+00 7.6685730000000003e+00 2.5561910000000001e+00
0.0000000000000000e+00 4.4274529999999999e+00 0.0000000000000000e+00
0.0000000000000000e+00 3.2699264999999997e+01 0.0000000000000000e+00
ITEM: ATOMS id type x y z
1 1 5.64159 1.7994 26.471
2 1 5.95981 4.1094 21.5878
3 1 4.50867 3.87234 26.2717
4 1 2.0339 2.51338 22.6613
5 1 3.23756 1.89649 26.4091
6 1 4.49401 0.501123 23.972
7 1 6.74231 4.11073 26.4805
8 1 1.12464 -0.0545984 22.2686
9 1 1.65959 1.16548 24.3909
10 1 1.6006 1.56105 20.582
11 1 4.97726 3.05782 24.0972
12 1 2.90365 4.13055 19.9139
13 1 5.59099 3.55312 19.4581
14 1 2.23689 1.7644 15.6217
15 1 7.09128 3.44305 17.8514
16 2 6.83941 3.3547 13.1747
17 2 4.12582 2.19185 21.3363
18 2 1.68709 0.883207 18.0569
19 2 4.31381 1.83282 18.3646
20 2 4.72204 0.402629 15.6889
21 2 4.61751 3.19869 16.0778
22 2 1.7427 0.362446 13.4566
23 2 1.53276 1.93508 10.8625
24 2 2.96129 4.30013 8.55121
25 2 2.96234 1.61527 8.81339
26 2 4.27182 3.40497 11.088
27 2 4.40615 1.93291 13.6686
28 2 4.24421 0.417453 10.957
29 2 5.46337 2.95357 8.66347
30 2 5.63151 1.70615 5.9604
31 2 3.11291 3.12289 5.81702
32 2 2.05579 1.57597 3.64941
33 2 4.70412 0.0317107 3.70395
34 2 4.61052 2.90102 3.63867
35 2 3.1469 0.466733 5.85423
ITEM: TIMESTEP
13100
ITEM: NUMBER OF ATOMS
35
ITEM: BOX BOUNDS xy xz yz pp pp pp
0.0000000000000000e+00 7.6685730000000003e+00 2.5561910000000001e+00
0.0000000000000000e+00 4.4274529999999999e+00 0.0000000000000000e+00
0.0000000000000000e+00 3.2699264999999997e+01 0.0000000000000000e+00
ITEM: ATOMS id type x y z
1 1 0.901419 1.58192 27.0486
2 1 6.15059 4.13167 21.736
3 1 4.35714 3.882 26.0114
4 1 2.5548 2.82626 22.9572
5 1 3.44779 1.80481 25.8668
6 1 4.0806 0.857007 23.9447
7 1 6.97419 3.72359 25.9516
8 1 1.45663 0.547683 22.3172
9 1 1.72491 1.25811 24.587
10 1 1.65954 1.95341 20.1258
11 1 5.30336 2.83855 23.6245
12 1 2.9376 4.27805 20.146
13 1 5.32166 4.05431 19.3039
14 1 2.05262 1.91769 15.5385
15 1 2.26259 3.11791 17.7894
16 2 6.75135 3.38515 13.5944
17 2 4.4101 2.08102 21.0361
18 2 1.48504 0.841465 17.6392
19 2 4.01142 1.53121 18.6751
20 2 4.49291 0.108287 15.6999
21 2 4.6533 2.78755 16.4045
22 2 1.79136 0.36287 13.5394
23 2 1.62298 2.12188 11.1071
24 2 0.0398352 0.167781 8.49114
25 2 2.85117 1.42233 8.36884
26 2 4.24252 3.6726 10.9044
27 2 4.19215 2.1508 13.505
28 2 4.30076 0.663585 11.2956
29 2 5.32966 3.15739 8.2729
30 2 6.04482 1.89418 6.09578
31 2 3.23183 3.41184 6.21579
32 2 2.19363 1.59059 3.65081
33 2 7.10031 4.23185 3.48924
34 2 4.70654 2.4876 3.69707
35 2 3.13588 0.0463581 6.08343
ITEM: TIMESTEP
13200
ITEM: NUMBER OF ATOMS
35
ITEM: BOX BOUNDS xy xz yz pp pp pp
0.0000000000000000e+00 7.6685730000000003e+00 2.5561910000000001e+00
0.0000000000000000e+00 4.4274529999999999e+00 0.0000000000000000e+00
0.0000000000000000e+00 3.2699264999999997e+01 0.0000000000000000e+00
ITEM: ATOMS id type x y z
1 1 6.19974 2.27646 27.2084
2 1 6.4676 4.24678 21.2396
3 1 4.78234 3.7689 25.9483
4 1 3.03721 3.54763 23.0072
5 1 3.8342 0.874543 26.3637
6 1 4.01011 0.787778 23.4048
7 1 7.53231 3.04568 25.024
8 1 1.93347 1.2564 22.5485
9 1 0.635123 0.896564 25.0828
10 1 2.43832 2.04102 20.192
11 1 5.43832 3.11325 23.9748
12 1 0.634096 0.081598 19.881
13 1 4.90673 3.312 19.2805
14 1 2.54885 2.1352 15.7954
15 1 1.67862 3.32309 17.9879
16 2 6.44518 3.43739 13.2394
17 2 4.54507 2.07465 21.4683
18 2 1.26067 0.346243 17.3012
19 2 3.84223 1.36581 18.3872
20 2 4.12075 0.348101 16.0691
21 2 4.99593 2.92524 16.1079
22 2 1.55696 0.528015 13.5723
23 2 1.75074 2.3035 10.9132
24 2 5.27383 0.373538 8.87128
25 2 2.47183 1.71621 8.45161
26 2 4.10291 3.80059 10.8677
27 2 4.03536 2.10546 13.408
28 2 4.10801 0.823643 11.0043
29 2 5.25392 3.05044 8.6514
30 2 0.910916 1.5347 6.00281
31 2 3.40045 3.31231 6.27042
32 2 2.10716 0.817404 3.68157
33 2 7.23222 3.79348 3.74209
34 2 4.65685 2.78252 3.96197
35 2 3.69641 0.550203 5.79759
ITEM: TIMESTEP
13300
ITEM: NUMBER OF ATOMS
35
ITEM: BOX BOUNDS xy xz yz pp pp pp
0.0000000000000000e+00 7.6685730000000003e+00 2.5561910000000001e+00
0.0000000000000000e+00 4.4274529999999999e+00 0.0000000000000000e+00
0.0000000000000000e+00 3.2699264999999997e+01 0.0000000000000000e+00
ITEM: ATOMS id type x y z
1 1 1.34806 2.41685 26.9955
2 1 6.24375 4.19465 20.7836
3 1 4.41083 3.77648 26.5787
4 1 2.84464 4.13865 22.2689
5 1 4.2673 0.138638 26.9807
6 1 3.95313 1.04483 23.8143
7 1 3.12023 1.98866 25.8607
8 1 1.83355 1.59552 22.819
9 1 1.05739 1.04695 25.0022
10 1 2.49988 2.03456 20.6213
11 1 5.63242 3.3882 23.7925
12 1 0.549068 0.575305 19.8977
13 1 4.84581 3.06254 18.8869
14 1 2.68499 2.4747 15.5699
15 1 1.95967 2.78084 18.1243
16 2 6.34928 3.80687 13.1817
17 2 4.74068 2.30151 21.5797
18 2 1.26436 0.289749 17.3031
19 2 3.73469 1.13393 18.117
20 2 4.11972 0.512124 15.383
21 2 5.04837 2.88621 15.5297
22 2 1.10853 0.739996 14.0709
23 2 1.32836 2.33634 11.0053
24 2 0.156094 0.132021 8.43591
25 2 2.81803 1.69554 8.50169
26 2 3.9529 3.84929 11.3974
27 2 3.81867 2.09622 13.2771
28 2 3.81231 0.921247 10.9256
29 2 5.20681 3.32078 8.56989
30 2 1.33409 1.91838 6.07079
31 2 3.6643 3.27685 6.38767
32 2 1.95798 0.798345 3.55802
33 2 2.2837 3.5295 3.9027
34 2 4.76596 2.13597 3.91892
35 2 3.5867 0.325958 6.28193
ITEM: TIMESTEP
13400
ITEM: NUMBER OF ATOMS
35
ITEM: BOX BOUNDS xy xz yz pp pp pp
0.0000000000000000e+00 7.6685730000000003e+00 2.5561910000000001e+00
0.0000000000000000e+00 4.4274529999999999e+00 0.0000000000000000e+00
0.0000000000000000e+00 3.2699264999999997e+01 0.0000000000000000e+00
ITEM: ATOMS id type x y z
1 1 5.6663 1.93786 27.257
2 1 3.00371 0.466123 20.7966
3 1 4.78692 4.31523 27.0417
4 1 3.08157 3.89608 22.2483
5 1 4.86707 -0.32719 27.0484
6 1 4.48396 1.31784 23.7064
7 1 3.77102 1.61645 25.9674
8 1 2.04296 1.69616 22.6755
9 1 1.3936 1.0605 25.0582
10 1 2.27422 2.73741 19.8761
11 1 5.10019 3.43603 24.5632
12 1 0.840413 0.545326 19.776
13 1 4.69442 2.95022 19.0014
14 1 2.40364 2.54749 15.6805
15 1 1.8745 2.63759 17.7424
16 2 6.27034 3.79904 13.1523
17 2 5.06048 2.49809 21.4673
18 2 1.18651 0.5534 16.9862
19 2 3.71613 0.762558 18.1148
20 2 4.06168 0.653703 15.6217
21 2 4.87953 2.87158 15.9441
22 2 1.33496 0.840203 14.0243
23 2 5.97449 2.1894 11.0366
24 2 0.21716 0.191051 8.49871
25 2 2.85049 1.7833 8.59503
26 2 3.70832 4.21109 11.0991
27 2 3.35398 2.20477 13.1163
28 2 3.82505 0.807791 10.6973
29 2 5.30239 3.20146 8.84627
30 2 1.52387 1.86506 6.37835
31 2 3.87287 3.43126 5.8639
32 2 2.33489 0.549205 3.81792
33 2 2.0568 3.51115 3.98067
34 2 4.75379 1.69015 3.86335
35 2 3.71246 0.180737 6.13838
ITEM: TIMESTEP
13500
ITEM: NUMBER OF ATOMS
35
ITEM: BOX BOUNDS xy xz yz pp pp pp
0.0000000000000000e+00 7.6685730000000003e+00 2.5561910000000001e+00
0.0000000000000000e+00 4.4274529999999999e+00 0.0000000000000000e+00
0.0000000000000000e+00 3.2699264999999997e+01 0.0000000000000000e+00
ITEM: ATOMS id type x y z
1 1 5.60327 1.82437 27.5131
2 1 3.45676 1.17741 21.0649
3 1 2.7186 0.213415 27.4193
4 1 3.23266 3.98851 22.2542
5 1 2.38747 3.22433 25.8367
6 1 4.41173 0.998968 23.4238
7 1 3.98381 1.64985 25.8008
8 1 2.15714 1.53724 23.1113
9 1 1.29392 1.24465 25.2898
10 1 2.22283 3.5289 20.3413
11 1 5.17671 3.54928 24.9976
12 1 1.20071 0.862212 19.6765
13 1 4.84254 2.98093 18.8521
14 1 2.27125 2.7104 15.1563
15 1 2.42329 3.09512 17.7142
16 2 5.96472 3.78488 13.2646
17 2 5.27238 2.62019 21.4128
18 2 0.886511 0.636706 17.0745
19 2 3.46686 0.752129 18.5857
20 2 3.69367 0.639337 15.5106
21 2 4.92932 3.027 16.3214
22 2 0.958745 0.57896 13.7555
23 2 6.27984 2.35255 11.2124
24 2 0.361929 0.365544 8.5543
25 2 2.62276 2.0925 8.69984
26 2 3.71649 3.6225 10.8578
27 2 3.70874 2.30983 13.0615
28 2 3.5427 0.648131 10.8851
29 2 5.2236 3.1944 8.31302
30 2 1.29646 1.72577 6.2368
31 2 3.75871 3.21849 5.80376
32 2 2.39131 0.394138 3.9583
33 2 1.9782 2.92716 3.53206
34 2 4.9766 1.67016 3.8488
35 2 4.19036 0.619179 6.34894
ITEM: TIMESTEP
13600
ITEM: NUMBER OF ATOMS
35
ITEM: BOX BOUNDS xy xz yz pp pp pp
0.0000000000000000e+00 7.6685730000000003e+00 2.5561910000000001e+00
0.0000000000000000e+00 4.4274529999999999e+00 0.0000000000000000e+00
0.0000000000000000e+00 3.2699264999999997e+01 0.0000000000000000e+00
ITEM: ATOMS id type x y z
1 1 5.42773 1.58064 27.5719
2 1 3.13148 1.14632 21.3637
3 1 2.56665 -0.191011 27.0544
4 1 3.64437 3.75765 22.8434
5 1 2.86812 3.47841 24.7933
6 1 4.40341 0.989072 23.2352
7 1 3.81339 1.34959 25.7071
8 1 1.66204 2.00066 23.4764
9 1 1.54952 1.27872 25.6919
10 1 2.61318 3.56017 20.103
11 1 5.34547 3.75721 24.289
12 1 1.09436 1.28987 20.1343
13 1 4.79271 3.06544 19.1643
14 1 2.02275 3.1875 15.2579
15 1 2.30301 3.08943 17.7247
16 2 5.95184 3.85591 13.2486
17 2 5.7148 3.12381 21.7106
18 2 0.898792 0.93146 17.2899
19 2 3.71076 0.61748 18.5396
20 2 3.36353 0.849793 16.0244
21 2 4.65708 3.05848 16.0421
22 2 0.7392 0.536826 13.7777
23 2 1.29701 1.75636 11.1251
24 2 0.298973 0.751917 8.88504
25 2 2.64146 2.11615 8.53203
26 2 3.72312 3.42857 10.8742
27 2 3.7229 2.02883 13.4426
28 2 3.67017 0.480294 10.7875
29 2 5.10765 3.44272 8.08081
30 2 1.46507 1.94164 5.82799
31 2 3.58357 3.41966 5.8662
32 2 2.43749 0.00817321 3.96534
33 2 2.57917 3.10821 3.35437
34 2 4.8515 1.14684 3.62123
35 2 3.74418 0.311622 6.257
ITEM: TIMESTEP
13700
ITEM: NUMBER OF ATOMS
35
ITEM: BOX BOUNDS xy xz yz pp pp pp
0.0000000000000000e+00 7.6685730000000003e+00 2.5561910000000001e+00
0.0000000000000000e+00 4.4274529999999999e+00 0.0000000000000000e+00
0.0000000000000000e+00 3.2699264999999997e+01 0.0000000000000000e+00
ITEM: ATOMS id type x y z
1 1 4.93915 1.1917 27.9167
2 1 3.37483 1.67245 21.1993
3 1 5.101 3.40934 26.4249
4 1 3.3528 4.07526 22.2354
5 1 2.9199 3.96866 25.7816
6 1 4.58276 1.62279 23.2714
7 1 4.09774 1.21324 25.4981
8 1 2.17035 1.20098 23.1484
9 1 1.51119 1.76377 25.8206
10 1 2.89204 3.44736 19.5862
11 1 5.52463 3.69615 24.2008
12 1 0.743286 1.35878 20.3137
13 1 4.7505 3.0081 18.3041
14 1 1.69563 3.35163 15.4208
15 1 2.35064 2.77734 17.7905
16 2 5.8966 3.61224 13.0498
17 2 6.09077 3.76691 21.6898
18 2 0.900407 0.833685 17.5336
19 2 3.65999 0.702078 18.9399
20 2 3.21268 0.936197 16.1212
21 2 4.47943 3.10556 15.9672
22 2 1.09293 0.7575 14.2781
23 2 1.02924 1.53796 11.4442
24 2 5.24904 0.886638 8.32367
25 2 2.61274 2.3861 8.13713
26 2 3.81394 3.10996 11.1624
27 2 3.16127 2.05565 13.5304
28 2 3.95279 -0.0285312 10.6661
29 2 5.16629 3.63032 8.87159
30 2 0.902769 1.97533 5.73841
31 2 3.74468 3.57341 5.98673
32 2 5.31708 3.94188 3.41111
33 2 2.7138 2.68655 3.45538
34 2 4.9115 1.36157 3.50196
35 2 3.84442 0.514559 5.96985
ITEM: TIMESTEP
13800
ITEM: NUMBER OF ATOMS
35
ITEM: BOX BOUNDS xy xz yz pp pp pp
0.0000000000000000e+00 7.6685730000000003e+00 2.5561910000000001e+00
0.0000000000000000e+00 4.4274529999999999e+00 0.0000000000000000e+00
0.0000000000000000e+00 3.2699264999999997e+01 0.0000000000000000e+00
ITEM: ATOMS id type x y z
1 1 4.30629 0.577715 27.5582
2 1 3.83841 2.18842 21.1024
3 1 5.3472 3.42305 26.7984
4 1 3.33983 4.0251 22.9308
5 1 2.96813 3.8726 25.9146
6 1 5.16806 1.77342 23.0508
7 1 4.10726 1.52735 25.3616
8 1 2.49939 1.8718 23.3226
9 1 1.3837 1.75656 25.7123
10 1 3.28698 4.23244 19.9582
11 1 6.368 3.75073 24.2872
12 1 1.29657 1.75625 20.6826
13 1 5.06915 2.82513 18.8098
14 1 2.15144 2.97696 15.1286
15 1 2.09941 2.75126 17.6157
16 2 5.70974 3.67505 13.3068
17 2 5.90516 4.08295 21.2405
18 2 0.536475 0.514153 17.4887
19 2 3.14252 0.898378 19.0934
20 2 3.3265 0.701092 16.2754
21 2 4.64374 3.06788 15.704
22 2 0.528557 0.810512 14.714
23 2 1.38743 1.25029 11.3447
24 2 5.10208 0.878093 8.027
25 2 2.4182 2.45861 8.47599
26 2 3.75735 2.83384 10.8983
27 2 3.46248 1.91622 13.4269
28 2 4.14151 0.0947824 10.82
29 2 4.88671 3.87401 8.5933
30 2 6.34792 2.37138 6.0608
31 2 3.84596 3.50723 5.94403
32 2 5.3705 4.0313 3.09469
33 2 2.41962 2.29081 3.8553
34 2 5.33715 0.976312 3.22696
35 2 3.46315 0.56791 5.72375
ITEM: TIMESTEP
13900
ITEM: NUMBER OF ATOMS
35
ITEM: BOX BOUNDS xy xz yz pp pp pp
0.0000000000000000e+00 7.6685730000000003e+00 2.5561910000000001e+00
0.0000000000000000e+00 4.4274529999999999e+00 0.0000000000000000e+00
0.0000000000000000e+00 3.2699264999999997e+01 0.0000000000000000e+00
ITEM: ATOMS id type x y z
1 1 4.15414 1.02457 26.9575
2 1 4.23328 2.60938 21.238
3 1 5.21342 3.26663 26.6025
4 1 4.02364 4.18369 23.4565
5 1 2.85179 3.78888 25.8028
6 1 5.55178 2.10798 23.179
7 1 4.33676 1.73671 24.9517
8 1 2.66835 1.7869 23.3272
9 1 1.88989 1.21205 25.6444
10 1 2.72676 4.23143 20.0517
11 1 6.09083 4.15007 24.1973
12 1 1.77737 2.16162 21.2109
13 1 4.86471 2.67133 18.8394
14 1 2.03345 2.55283 15.3737
15 1 1.61347 3.20475 17.7599
16 2 5.51159 3.58996 13.2624
17 2 5.78752 4.47973 21.5895
18 2 0.798193 0.51251 17.3875
19 2 2.85148 0.865472 18.9657
20 2 3.31187 0.651094 16.4376
21 2 4.43884 2.79714 16.0213
22 2 0.723867 0.495348 14.4327
23 2 1.61597 1.32969 11.2925
24 2 4.69628 0.922072 8.29976
25 2 2.13701 2.27331 8.83176
26 2 4.36648 2.87641 10.4889
27 2 3.59938 1.85693 13.2094
28 2 3.88606 -0.0663571 10.6444
29 2 4.83206 4.23492 8.08176
30 2 6.24861 2.32952 6.35277
31 2 3.62831 3.67624 5.77593
32 2 5.25921 3.78738 3.37893
33 2 2.63273 2.39563 3.49324
34 2 5.43955 0.557795 3.66278
35 2 3.68687 0.751365 5.5798
ITEM: TIMESTEP
14000
ITEM: NUMBER OF ATOMS
35
ITEM: BOX BOUNDS xy xz yz pp pp pp
0.0000000000000000e+00 7.6685730000000003e+00 2.5561910000000001e+00
0.0000000000000000e+00 4.4274529999999999e+00 0.0000000000000000e+00
0.0000000000000000e+00 3.2699264999999997e+01 0.0000000000000000e+00
ITEM: ATOMS id type x y z
1 1 4.01825 1.44817 27.4051
2 1 3.98466 2.99339 21.1245
3 1 5.48633 3.37314 26.5081
4 1 0.875166 0.209049 23.6137
5 1 2.89236 3.69091 26.1907
6 1 5.60776 1.91739 22.254
7 1 4.81114 1.6916 24.89
8 1 2.76717 2.25272 23.3434
9 1 2.27066 1.13482 25.4134
10 1 0.251831 0.332471 20.0444
11 1 6.07296 3.72856 24.1297
12 1 1.37583 2.42947 20.2307
13 1 4.34519 2.59144 18.7938
14 1 1.83872 2.59624 15.4742
15 1 1.94588 2.83494 18.114
16 2 5.90146 3.40681 13.1805
17 2 3.4578 0.405577 21.9875
18 2 0.795407 0.749609 17.3339
19 2 2.87872 0.624331 19.2456
20 2 3.27041 0.393167 15.8499
21 2 4.43035 2.72201 16.3719
22 2 0.914004 0.122034 13.9589
23 2 1.24332 1.2485 11.501
24 2 4.72912 1.11042 8.2904
25 2 2.07709 2.55057 8.73321
26 2 4.34068 2.83132 10.4883
27 2 3.30792 1.95683 13.0569
28 2 6.94557 4.40322 10.8848
29 2 4.80765 4.17704 8.11667
30 2 6.04105 2.2395 6.06247
31 2 3.30346 3.53316 5.90053
32 2 5.35538 3.27491 3.93637
33 2 2.78605 2.25128 3.16112
34 2 5.52956 0.886166 3.71036
35 2 3.46798 0.941426 5.79122
ITEM: TIMESTEP
14100
ITEM: NUMBER OF ATOMS
35
ITEM: BOX BOUNDS xy xz yz pp pp pp
0.0000000000000000e+00 7.6685730000000003e+00 2.5561910000000001e+00
0.0000000000000000e+00 4.4274529999999999e+00 0.0000000000000000e+00
0.0000000000000000e+00 3.2699264999999997e+01 0.0000000000000000e+00
ITEM: ATOMS id type x y z
1 1 3.95298 1.52946 27.2573
2 1 3.24368 3.55518 21.5452
3 1 6.11045 3.612 26.9607
4 1 1.28953 0.0700026 23.5621
5 1 3.50003 3.82302 26.1255
6 1 5.69319 2.20944 22.1917
7 1 4.50055 1.27077 24.865
8 1 2.5557 2.31109 23.439
9 1 2.05227 1.49653 25.8113
10 1 0.602116 0.930898 19.7679
11 1 5.73313 3.55514 24.5361
12 1 2.03022 2.74003 20.0231
13 1 4.22612 2.55686 19.1164
14 1 1.6905 2.25758 15.2036
15 1 2.26726 2.72452 17.6873
16 2 5.88888 3.22009 13.3096
17 2 3.52517 0.49916 21.6666
18 2 0.452272 0.587181 17.3132
19 2 2.97572 0.40458 18.8235
20 2 3.53642 0.284063 15.4715
21 2 4.47843 2.83632 16.0465
22 2 0.603232 0.348004 14.0227
23 2 1.80734 1.17839 11.1895
24 2 4.87881 1.3082 8.39221
25 2 2.27292 2.81573 8.42499
26 2 3.86991 2.79795 10.8687
27 2 3.58439 1.91555 13.2929
28 2 6.755 4.2222 10.9615
29 2 4.80626 4.28658 8.73851
30 2 5.79455 1.87404 6.09144
31 2 2.94052 3.74348 5.92678
32 2 5.35198 3.84453 3.87934
33 2 3.02174 1.96781 3.50131
34 2 0.50892 0.426251 3.4661
35 2 3.10075 0.769722 5.9775
ITEM: TIMESTEP
14200
ITEM: NUMBER OF ATOMS
35
ITEM: BOX BOUNDS xy xz yz pp pp pp
0.0000000000000000e+00 7.6685730000000003e+00 2.5561910000000001e+00
0.0000000000000000e+00 4.4274529999999999e+00 0.0000000000000000e+00
0.0000000000000000e+00 3.2699264999999997e+01 0.0000000000000000e+00
ITEM: ATOMS id type x y z
1 1 4.43468 1.84939 26.8464
2 1 3.76149 3.61338 21.7092
3 1 6.7325 3.9864 27.2653
4 1 1.563 0.480573 23.7479
5 1 3.4797 3.64067 25.7245
6 1 5.4788 2.34987 22.3572
7 1 4.40408 0.909061 24.3607
8 1 2.83843 2.67206 23.7196
9 1 1.63471 1.5895 26.1634
10 1 0.483975 0.540217 19.9294
11 1 5.683 3.31444 24.6898
12 1 2.1704 2.57213 19.9978
13 1 4.97881 2.88058 19.4717
14 1 1.67087 2.03726 15.2935
15 1 1.6847 2.81252 17.6997
16 2 5.74654 3.38659 13.0955
17 2 3.34978 0.626831 21.2789
18 2 0.603898 0.35478 17.3234
19 2 3.1326 0.41375 18.0236
20 2 3.68361 0.267093 15.7894
21 2 4.21274 2.97142 15.9931
22 2 0.76104 0.0827732 13.6839
23 2 1.63661 1.29874 10.9935
24 2 4.74054 1.46557 9.0719
25 2 2.23497 2.899 8.28762
26 2 4.15477 2.8041 11.1998
27 2 3.36225 1.6587 13.5874
28 2 6.69528 4.06702 10.7827
29 2 4.64381 4.39156 8.63439
30 2 5.30602 2.30437 5.7639
31 2 3.16966 3.74855 5.94392
32 2 5.68919 3.39516 3.46731
33 2 3.16178 2.07413 4.16751
34 2 0.159257 0.479653 3.44768
35 2 3.16405 0.427396 6.51848
ITEM: TIMESTEP
14300
ITEM: NUMBER OF ATOMS
35
ITEM: BOX BOUNDS xy xz yz pp pp pp
0.0000000000000000e+00 7.6685730000000003e+00 2.5561910000000001e+00
0.0000000000000000e+00 4.4274529999999999e+00 0.0000000000000000e+00
0.0000000000000000e+00 3.2699264999999997e+01 0.0000000000000000e+00
ITEM: ATOMS id type x y z
1 1 5.1251 1.87103 26.5139
2 1 3.93451 3.57434 21.6315
3 1 6.24884 4.45898 27.2035
4 1 2.30187 0.787882 23.5785
5 1 2.94512 3.70063 25.7998
6 1 5.99548 1.83603 21.9931
7 1 4.46598 1.0385 24.3322
8 1 2.60212 3.41772 23.4815
9 1 2.45388 0.979619 25.9928
10 1 0.393133 0.578136 20.0279
11 1 5.65024 2.97987 24.3886
12 1 1.85311 2.5751 20.1067
13 1 4.49992 3.05613 19.3771
14 1 1.06117 1.33528 15.373
15 1 1.51391 3.04512 17.6105
16 2 6.03919 3.10533 13.2418
17 2 3.29468 0.58821 21.2801
18 2 0.966775 0.419817 17.5791
19 2 3.42164 1.19306 18.677
20 2 3.86768 -0.00810586 15.4536
21 2 3.76945 2.63832 16.0842
22 2 0.849456 -0.115813 13.4452
23 2 1.42971 1.29921 11.2532
24 2 4.63509 1.59091 8.65914
25 2 1.9513 2.6301 8.42619
26 2 4.10684 2.95911 11.1738
27 2 3.04511 1.63992 13.1429
28 2 6.87329 4.10199 10.756
29 2 4.20054 4.23444 8.69204
30 2 5.70423 2.32815 6.20994
31 2 3.3238 4.20817 6.04048
32 2 5.70804 3.24302 3.41534
33 2 2.66073 1.69535 4.09709
34 2 5.39819 0.622674 3.6829
35 2 3.45915 0.748129 6.29341
ITEM: TIMESTEP
14400
ITEM: NUMBER OF ATOMS
35
ITEM: BOX BOUNDS xy xz yz pp pp pp
0.0000000000000000e+00 7.6685730000000003e+00 2.5561910000000001e+00
0.0000000000000000e+00 4.4274529999999999e+00 0.0000000000000000e+00
0.0000000000000000e+00 3.2699264999999997e+01 0.0000000000000000e+00
ITEM: ATOMS id type x y z
1 1 5.65248 1.82281 26.6621
2 1 4.03462 3.15414 21.3357
3 1 3.45505 -0.487723 27.3932
4 1 1.80908 0.540082 23.3176
5 1 3.10192 3.69262 25.7335
6 1 5.62394 1.82123 22.1965
7 1 4.62932 1.05989 24.3858
8 1 2.42303 3.14934 22.9863
9 1 2.56722 1.43148 25.6672
10 1 0.748203 0.774136 20.2503
11 1 5.67195 3.64604 24.4801
12 1 2.09567 3.08377 19.9615
13 1 4.82482 3.73769 19.55
14 1 1.48584 1.52578 15.3902
15 1 5.96306 3.00879 17.5987
16 2 5.69177 2.59214 13.3812
17 2 3.62307 0.613799 21.5199
18 2 0.955853 0.552374 17.5813
19 2 3.72892 1.55619 18.7765
20 2 6.26675 4.37404 15.5204
21 2 3.53861 2.51276 16.2329
22 2 3.32091 4.12537 13.4293
23 2 1.36824 1.26724 10.866
24 2 4.35041 1.24426 8.47853
25 2 1.95487 2.77062 8.81135
26 2 4.19973 2.7845 10.743
27 2 3.59301 1.2754 13.3042
28 2 6.45805 4.48184 10.8626
29 2 4.42691 4.38428 8.57869
30 2 6.16586 2.54273 6.10812
31 2 3.65347 3.68092 6.15366
32 2 5.23161 3.66404 3.99391
33 2 2.59874 1.90661 3.65658
34 2 5.21298 0.30302 3.70837
35 2 3.30697 0.939807 6.07332
ITEM: TIMESTEP
14500
ITEM: NUMBER OF ATOMS
35
ITEM: BOX BOUNDS xy xz yz pp pp pp
0.0000000000000000e+00 7.6685730000000003e+00 2.5561910000000001e+00
0.0000000000000000e+00 4.4274529999999999e+00 0.0000000000000000e+00
0.0000000000000000e+00 3.2699264999999997e+01 0.0000000000000000e+00
ITEM: ATOMS id type x y z
1 1 5.114 1.36997 26.604
2 1 3.71945 3.72832 21.3955
3 1 6.23754 4.28867 27.1875
4 1 1.74704 0.237915 23.5994
5 1 3.61881 3.84741 25.6518
6 1 5.73888 2.5239 22.3806
7 1 4.4165 1.23779 23.8569
8 1 2.61718 2.86526 23.9107
9 1 2.72999 1.616 25.7727
10 1 0.808389 1.21851 20.1642
11 1 5.78248 3.03263 24.824
12 1 2.26183 3.23889 19.742
13 1 5.11276 4.1763 19.3867
14 1 1.29546 1.19877 15.4263
15 1 6.61008 2.8983 17.6419
16 2 5.74085 2.73746 13.1951
17 2 3.69258 0.565912 21.6819
18 2 0.846695 0.299249 17.7577
19 2 3.8266 1.64422 18.5689
20 2 6.07554 4.31 15.7576
21 2 3.9401 2.77626 16.1274
22 2 3.34858 3.79128 13.4608
23 2 1.29281 1.24227 11.0716
24 2 4.64268 1.30282 8.30232
25 2 2.08784 3.09248 8.83413
26 2 4.00956 2.8266 10.7355
27 2 3.36464 1.03367 13.3976
28 2 3.76018 -0.109435 11.1031
29 2 4.79397 4.38557 8.26208
30 2 6.16937 2.22497 6.13698
31 2 3.36505 3.54322 6.32459
32 2 4.77604 3.46305 3.81415
33 2 2.56553 2.2834 3.30001
34 2 4.94765 0.533436 3.97268
35 2 3.43408 0.814867 5.75254
ITEM: TIMESTEP
14600
ITEM: NUMBER OF ATOMS
35
ITEM: BOX BOUNDS xy xz yz pp pp pp
0.0000000000000000e+00 7.6685730000000003e+00 2.5561910000000001e+00
0.0000000000000000e+00 4.4274529999999999e+00 0.0000000000000000e+00
0.0000000000000000e+00 3.2699264999999997e+01 0.0000000000000000e+00
ITEM: ATOMS id type x y z
1 1 5.0285 1.79128 26.4727
2 1 4.11181 3.70626 21.7239
3 1 6.19262 3.6765 27.1102
4 1 1.97476 0.971544 23.785
5 1 3.84029 3.90587 26.7201
6 1 6.42643 2.75429 22.355
7 1 4.60628 0.296367 24.5457
8 1 3.31375 2.94732 23.8665
9 1 2.3844 1.6793 26.171
10 1 5.77145 1.73131 20.1591
11 1 5.68391 3.11019 24.5418
12 1 2.3815 3.42606 20.0961
13 1 5.17682 3.80086 19.4621
14 1 1.1263 1.25773 15.3983
15 1 1.58356 2.38827 17.3088
16 2 5.89377 2.67481 13.3256
17 2 3.55634 0.803343 21.4469
18 2 0.762953 0.0868319 17.7263
19 2 3.89163 1.65931 18.5106
20 2 3.63151 0.0420332 16.2184
21 2 4.16442 2.52605 15.6164
22 2 3.18142 4.06854 13.5326
23 2 1.10368 1.01597 11.0401
24 2 4.96983 1.69745 8.54192
25 2 2.23791 2.8759 8.50478
26 2 3.77496 2.71657 11.0034
27 2 3.07985 1.22757 13.4916
28 2 6.47148 4.10799 10.8763
29 2 2.48987 0.180393 8.52189
30 2 5.81876 2.0111 5.83368
31 2 3.09287 3.67243 6.10463
32 2 4.8615 3.44398 3.55217
33 2 2.13016 2.12644 3.39115
34 2 5.2162 0.775671 3.53692
35 2 3.16573 0.63393 6.01882
ITEM: TIMESTEP
14700
ITEM: NUMBER OF ATOMS
35
ITEM: BOX BOUNDS xy xz yz pp pp pp
0.0000000000000000e+00 7.6685730000000003e+00 2.5561910000000001e+00
0.0000000000000000e+00 4.4274529999999999e+00 0.0000000000000000e+00
0.0000000000000000e+00 3.2699264999999997e+01 0.0000000000000000e+00
ITEM: ATOMS id type x y z
1 1 4.78312 1.92617 27.0029
2 1 4.78922 3.63886 21.6803
3 1 6.01891 3.94561 26.614
4 1 2.09024 0.615798 23.9551
5 1 3.60512 4.04467 27.0201
6 1 7.11144 3.15557 22.2558
7 1 5.09431 0.341122 24.5079
8 1 3.55712 2.42814 24.6609
9 1 2.29157 1.31451 26.5249
10 1 1.38342 1.01246 20.1692
11 1 6.04952 2.92403 24.4107
12 1 2.54751 3.441 19.8611
13 1 5.54965 3.68248 19.0793
14 1 1.65187 1.28141 15.5617
15 1 1.24997 2.09082 17.9622
16 2 5.77334 2.85566 13.5032
17 2 3.71979 1.56071 21.4145
18 2 3.33984 4.07426 17.5819
19 2 3.70474 1.55145 18.5968
20 2 3.7165 0.0396987 16.1388
21 2 3.98839 2.75272 15.5857
22 2 2.85518 4.58072 13.4928
23 2 1.21469 1.01119 10.9761
24 2 4.81251 1.75072 8.79839
25 2 2.53316 3.06557 8.21841
26 2 3.52618 2.26436 11.2436
27 2 3.10657 1.00628 13.3604
28 2 6.32768 3.83454 10.8647
29 2 2.2317 0.114563 8.70879
30 2 5.55805 2.25359 5.69895
31 2 3.1546 3.69937 5.61035
32 2 4.94637 3.91659 3.56712
33 2 2.58949 2.11854 3.75946
34 2 4.69721 0.254727 3.1407
35 2 3.10213 0.630575 5.98891
ITEM: TIMESTEP
14800
ITEM: NUMBER OF ATOMS
35
ITEM: BOX BOUNDS xy xz yz pp pp pp
0.0000000000000000e+00 7.6685730000000003e+00 2.5561910000000001e+00
0.0000000000000000e+00 4.4274529999999999e+00 0.0000000000000000e+00
0.0000000000000000e+00 3.2699264999999997e+01 0.0000000000000000e+00
ITEM: ATOMS id type x y z
1 1 4.5476 1.73681 27.3243
2 1 5.75068 3.89696 21.7794
3 1 5.93544 4.29696 25.9656
4 1 2.68854 0.226086 24.1921
5 1 3.16867 3.73394 26.5924
6 1 3.1274 3.53312 22.5385
7 1 4.88224 0.723144 23.9393
8 1 3.91199 2.69163 24.8293
9 1 1.66738 1.98204 26.663
10 1 1.54373 1.41255 20.6395
11 1 6.51705 2.19639 24.2987
12 1 2.41015 3.80134 20.2873
13 1 4.83629 3.26998 19.7676
14 1 1.33779 1.78955 15.6394
15 1 1.11551 2.33898 18.0144
16 2 5.64717 2.86412 13.3351
17 2 4.37461 1.67278 21.4173
18 2 3.50211 3.68169 17.7855
19 2 3.76232 1.12957 18.6039
20 2 6.47449 4.38419 15.9941
21 2 3.90141 2.74453 15.3152
22 2 0.24536 -0.105776 13.5589
23 2 1.0424 0.750409 11.0425
24 2 4.74943 1.43758 8.43607
25 2 2.00592 3.24148 8.19669
26 2 3.77659 2.43862 11.0162
27 2 2.56679 1.28873 13.6124
28 2 6.2273 3.61891 10.944
29 2 2.00773 -0.00169132 8.27905
30 2 5.44763 2.40786 5.91035
31 2 3.21555 4.33287 5.74197
32 2 4.68176 3.53649 3.40151
33 2 2.68732 1.92009 3.78731
34 2 4.92633 0.513184 3.14477
35 2 3.38201 0.852684 6.30371
ITEM: TIMESTEP
14900
ITEM: NUMBER OF ATOMS
35
ITEM: BOX BOUNDS xy xz yz pp pp pp
0.0000000000000000e+00 7.6685730000000003e+00 2.5561910000000001e+00
0.0000000000000000e+00 4.4274529999999999e+00 0.0000000000000000e+00
0.0000000000000000e+00 3.2699264999999997e+01 0.0000000000000000e+00
ITEM: ATOMS id type x y z
1 1 4.05386 2.1873 27.0732
2 1 6.40463 3.54741 21.9677
3 1 5.55394 3.95477 26.4106
4 1 2.45872 0.95902 23.5425
5 1 3.0612 4.29024 26.5312
6 1 3.55823 3.46482 22.3098
7 1 5.01752 0.49439 24.3186
8 1 4.29438 2.62855 24.8656
9 1 1.65929 2.2734 26.3063
10 1 2.46739 1.56355 20.7678
11 1 1.86081 2.93427 24.0419
12 1 2.70636 3.8531 20.0399
13 1 4.99885 3.73413 20.4859
14 1 1.19659 1.03585 16.2601
15 1 6.30117 2.35506 18.2029
16 2 4.96161 2.88076 13.0257
17 2 4.88249 1.30813 21.7183
18 2 3.71144 3.6106 17.8235
19 2 3.56786 0.75676 18.5485
20 2 3.71561 0.086337 16.061
21 2 4.06562 2.66768 15.5456
22 2 2.39048 4.22313 13.5026
23 2 1.06603 0.683608 10.7947
24 2 4.5604 1.41044 8.53818
25 2 1.79074 2.6956 8.4624
26 2 3.68319 2.27955 10.7369
27 2 2.68551 1.20038 13.217
28 2 6.25513 3.94818 10.6325
29 2 4.3854 4.29484 8.42913
30 2 5.88519 3.03468 5.90448
31 2 3.34022 4.22116 5.92108
32 2 4.93179 3.23753 3.40569
33 2 2.12547 2.01978 3.83438
34 2 5.17685 0.656076 3.56772
35 2 3.2435 1.3424 5.92782
ITEM: TIMESTEP
15000
ITEM: NUMBER OF ATOMS
35
ITEM: BOX BOUNDS xy xz yz pp pp pp
0.0000000000000000e+00 7.6685730000000003e+00 2.5561910000000001e+00
0.0000000000000000e+00 4.4274529999999999e+00 0.0000000000000000e+00
0.0000000000000000e+00 3.2699264999999997e+01 0.0000000000000000e+00
ITEM: ATOMS id type x y z
1 1 4.29343 2.39531 27.2989
2 1 6.49295 3.27838 22.1868
3 1 5.21479 4.06559 26.1073
4 1 3.13121 0.857366 23.1775
5 1 4.90605 0.259848 26.8026
6 1 4.09417 3.48014 22.2435
7 1 0.956665 1.02596 24.3373
8 1 4.0297 2.93521 24.6872
9 1 1.95756 1.9563 26.4605
10 1 2.93517 1.5963 20.8646
11 1 6.55548 3.53198 24.5357
12 1 7.30956 3.96899 20.1107
13 1 5.01641 3.29111 20.1562
14 1 1.43184 1.50749 15.4116
15 1 6.05432 1.76243 18.6307
16 2 4.82291 2.79911 12.9897
17 2 5.38748 1.12091 21.8655
18 2 3.88999 3.56238 17.8643
19 2 3.60611 1.11308 18.4522
20 2 6.14576 3.98435 15.9282
21 2 3.94899 2.40596 15.5414
22 2 7.4808 4.32295 13.3159
23 2 0.942778 0.995326 10.9691
24 2 4.4408 1.05784 8.0932
25 2 2.10679 2.36076 8.37661
26 2 3.28086 2.3463 10.7991
27 2 2.34241 1.19751 13.221
28 2 6.16422 3.93542 10.7465
29 2 4.54764 3.97999 8.55675
30 2 6.05516 3.12755 6.07345
31 2 3.50387 4.33806 6.19408
32 2 4.71163 3.80765 3.69171
33 2 2.33847 2.1806 3.2794
34 2 4.53257 0.323602 3.86861
35 2 3.45132 1.65206 5.81
ITEM: TIMESTEP
15100
ITEM: NUMBER OF ATOMS
35
ITEM: BOX BOUNDS xy xz yz pp pp pp
0.0000000000000000e+00 7.6685730000000003e+00 2.5561910000000001e+00
0.0000000000000000e+00 4.4274529999999999e+00 0.0000000000000000e+00
0.0000000000000000e+00 3.2699264999999997e+01 0.0000000000000000e+00
ITEM: ATOMS id type x y z
1 1 4.08658 2.31011 27.5787
2 1 6.99132 3.15746 22.3373
3 1 5.04122 4.79323 26.2647
4 1 3.36493 1.23053 22.9367
5 1 5.34561 0.257191 26.7093
6 1 4.43643 3.37543 22.9862
7 1 1.32093 1.33979 24.5301
8 1 3.68408 2.03198 25.4755
9 1 1.44118 2.48615 26.8929
10 1 2.89967 1.24128 20.6425
11 1 7.23862 4.3033 24.456
12 1 2.45005 3.69772 19.5671
13 1 4.6841 3.23767 19.7921
14 1 0.739995 0.976397 15.9136
15 1 1.25911 1.96816 18.4831
16 2 5.0825 2.85971 13.3004
17 2 5.71421 1.16876 21.7136
18 2 3.73354 3.92944 17.561
19 2 3.64243 0.916697 17.8991
20 2 6.35919 3.6713 15.8772
21 2 3.53557 2.05694 15.4868
22 2 7.38894 4.31037 13.4483
23 2 0.548381 1.05287 10.7604
24 2 4.72637 0.573268 8.34169
25 2 2.09623 2.2028 8.34673
26 2 3.40765 2.50769 10.8698
27 2 2.30266 1.36795 13.2635
28 2 6.01307 3.8709 11.0232
29 2 4.74882 3.49648 8.66198
30 2 5.86558 2.9749 5.89389
31 2 1.2402 0.478936 6.11663
32 2 4.33708 3.79196 3.77707
33 2 2.18304 2.0197 3.19309
34 2 4.6485 0.660598 3.80456
35 2 3.27915 2.09919 5.75186
ITEM: TIMESTEP
15200
ITEM: NUMBER OF ATOMS
35
ITEM: BOX BOUNDS xy xz yz pp pp pp
0.0000000000000000e+00 7.6685730000000003e+00 2.5561910000000001e+00
0.0000000000000000e+00 4.4274529999999999e+00 0.0000000000000000e+00
0.0000000000000000e+00 3.2699264999999997e+01 0.0000000000000000e+00
ITEM: ATOMS id type x y z
1 1 3.4987 2.33764 27.9282
2 1 2.21603 3.41252 22.2432
3 1 2.90346 0.440279 26.4769
4 1 3.35633 1.19049 22.5215
5 1 0.224385 0.142671 26.9965
6 1 4.85337 4.01791 24.0137
7 1 1.51416 2.13896 24.1608
8 1 4.42101 2.23356 25.4544
9 1 6.20031 2.65907 26.9338
10 1 2.86102 1.17342 19.9114
11 1 7.47161 4.32186 24.5242
12 1 2.18313 3.74133 19.8674
13 1 4.78673 2.87986 20.449
14 1 6.03533 0.694051 15.5404
15 1 1.08208 2.14316 17.8972
16 2 4.85315 2.89835 13.6809
17 2 5.89728 1.11672 21.4999
18 2 3.94906 3.54669 17.5446
19 2 3.83438 0.802573 17.7511
20 2 6.14489 3.56117 15.77
21 2 3.06174 1.97083 15.5386
22 2 7.5405 4.35245 13.3103
23 2 6.03228 1.06072 10.8153
24 2 4.49718 0.161703 8.43452
25 2 2.22999 1.80564 8.60858
26 2 3.38777 2.61423 10.9648
27 2 2.26204 1.4697 13.0581
28 2 5.87323 4.00554 11.1028
29 2 4.69195 3.09926 8.33472
30 2 6.04886 3.67561 5.72513
31 2 0.979871 0.648335 6.19835
32 2 4.57207 3.4042 3.21893
33 2 1.70095 2.14065 3.55877
34 2 4.5855 0.773093 3.81463
35 2 3.40844 2.35942 6.03714
ITEM: TIMESTEP
15300
ITEM: NUMBER OF ATOMS
35
ITEM: BOX BOUNDS xy xz yz pp pp pp
0.0000000000000000e+00 7.6685730000000003e+00 2.5561910000000001e+00
0.0000000000000000e+00 4.4274529999999999e+00 0.0000000000000000e+00
0.0000000000000000e+00 3.2699264999999997e+01 0.0000000000000000e+00
ITEM: ATOMS id type x y z
1 1 3.57469 2.45033 27.6439
2 1 2.25682 3.40994 22.326
3 1 2.55973 0.275692 26.0376
4 1 3.91801 1.46073 22.2283
5 1 0.0940247 0.193977 27.1288
6 1 5.24983 3.9857 23.5594
7 1 1.58165 2.47647 24.5072
8 1 4.13756 2.69117 25.1987
9 1 6.26907 2.35158 26.7047
10 1 2.76621 1.10944 19.88
11 1 7.70226 4.72197 24.7075
12 1 2.2364 3.74577 19.722
13 1 4.5019 3.32996 20.5362
14 1 0.505248 0.412018 15.3315
15 1 6.49993 1.68473 17.916
16 2 4.59643 2.9011 13.1738
17 2 1.21835 1.0203 21.969
18 2 4.29562 3.34042 18.0573
19 2 4.07159 0.714327 17.8431
20 2 5.85711 3.69411 15.5422
21 2 3.18041 1.99231 15.6136
22 2 7.26672 4.44078 13.0757
23 2 0.77365 1.0854 10.8525
24 2 4.61633 -0.11914 8.51921
25 2 2.07431 1.27276 8.46472
26 2 3.56449 2.61133 10.7805
27 2 2.12431 1.43771 13.3071
28 2 5.95206 3.93572 10.7819
29 2 4.71995 2.8688 8.41108
30 2 5.94111 4.11849 6.17172
31 2 0.790247 1.15972 6.15142
32 2 4.34962 3.59915 3.14539
33 2 1.97001 2.09008 4.05437
34 2 4.38918 0.600112 3.60107
35 2 3.48856 2.43207 5.97471
ITEM: TIMESTEP
15400
ITEM: NUMBER OF ATOMS
35
ITEM: BOX BOUNDS xy xz yz pp pp pp
0.0000000000000000e+00 7.6685730000000003e+00 2.5561910000000001e+00
0.0000000000000000e+00 4.4274529999999999e+00 0.0000000000000000e+00
0.0000000000000000e+00 3.2699264999999997e+01 0.0000000000000000e+00
ITEM: ATOMS id type x y z
1 1 3.79871 2.41904 26.795
2 1 2.9351 3.62491 22.7443
3 1 2.4827 0.248764 25.7065
4 1 4.11512 1.39052 22.5768
5 1 4.80218 0.140467 26.826
6 1 5.57278 3.42348 23.0215
7 1 1.42551 2.41304 24.7773
8 1 3.88643 2.89189 24.4898
9 1 6.30912 2.54587 27.1875
10 1 3.2082 1.35897 20.3312
11 1 4.92767 0.798597 24.5605
12 1 2.1298 3.43672 19.9917
13 1 4.76189 2.94715 20.6317
14 1 0.538788 0.873926 15.5649
15 1 1.74225 1.7449 17.423
16 2 4.48175 3.00201 12.8263
17 2 1.61455 1.13809 22.6936
18 2 4.69801 3.32369 18.2333
19 2 4.32739 0.374692 17.561
20 2 5.64178 3.45684 15.489
21 2 3.37999 2.64401 15.7247
22 2 4.16786 0.035196 13.2092
23 2 0.704307 0.860019 10.9011
24 2 7.70477 4.15322 8.36922
25 2 2.24936 1.24373 8.36099
26 2 3.00201 2.10027 10.627
27 2 1.89676 1.51963 13.3866
28 2 5.95004 3.74605 10.6502
29 2 4.82216 2.58889 8.44961
30 2 5.65058 4.26266 6.19708
31 2 0.563451 1.27049 5.91531
32 2 4.28164 3.84344 4.0287
33 2 1.96676 2.06173 3.6332
34 2 4.33941 0.483583 3.42838
35 2 3.32724 2.95167 6.08709
ITEM: TIMESTEP
15500
ITEM: NUMBER OF ATOMS
35
ITEM: BOX BOUNDS xy xz yz pp pp pp
0.0000000000000000e+00 7.6685730000000003e+00 2.5561910000000001e+00
0.0000000000000000e+00 4.4274529999999999e+00 0.0000000000000000e+00
0.0000000000000000e+00 3.2699264999999997e+01 0.0000000000000000e+00
ITEM: ATOMS id type x y z
1 1 3.55213 2.20522 26.9576
2 1 3.40301 3.33935 21.8052
3 1 2.29128 0.64892 25.3178
4 1 4.65053 1.20175 21.9409
5 1 5.05671 0.110976 27.3887
6 1 5.80359 3.63828 22.9742
7 1 6.31225 2.90687 25.4919
8 1 3.95151 2.85144 24.2155
9 1 1.20361 1.86901 28.059
10 1 2.55631 0.663719 20.0656
11 1 4.83949 0.46366 24.2962
12 1 2.3965 3.52798 19.8839
13 1 5.44599 2.87289 20.8084
14 1 0.904639 1.08602 15.4895
15 1 1.97319 1.58093 18.0273
16 2 4.17393 3.08617 13.1425
17 2 2.00909 1.51737 23.0137
18 2 4.59465 3.25822 17.8141
19 2 4.77112 0.177327 17.6312
20 2 5.75081 4.04495 15.5977
21 2 3.01658 2.51536 15.5491
22 2 4.32806 0.210596 13.3016
23 2 0.472364 0.300079 11.0017
24 2 2.52163 4.12481 8.51562
25 2 2.52523 1.22087 8.3078
26 2 2.97934 1.99852 11.0166
27 2 1.69475 1.72422 13.1857
28 2 5.62215 3.53689 10.6672
29 2 5.18654 2.32095 8.29903
30 2 3.32469 0.121847 6.08327
31 2 5.48486 1.69678 5.71156
32 2 4.48293 3.62034 3.90093
33 2 1.77203 2.31135 3.38338
34 2 4.29862 0.655553 3.67607
35 2 2.60567 2.64369 5.9398
ITEM: TIMESTEP
15600
ITEM: NUMBER OF ATOMS
35
ITEM: BOX BOUNDS xy xz yz pp pp pp
0.0000000000000000e+00 7.6685730000000003e+00 2.5561910000000001e+00
0.0000000000000000e+00 4.4274529999999999e+00 0.0000000000000000e+00
0.0000000000000000e+00 3.2699264999999997e+01 0.0000000000000000e+00
ITEM: ATOMS id type x y z
1 1 3.9791 1.99689 27.0813
2 1 4.00975 3.16611 22.2084
3 1 1.97014 0.82813 25.9898
4 1 4.9278 0.662748 21.4665
5 1 7.46631 3.97277 27.2368
6 1 6.0913 3.90123 23.0104
7 1 6.04993 3.15203 25.736
8 1 3.97812 2.55494 24.793
9 1 1.35578 1.78058 27.9904
10 1 2.23733 0.486658 20.014
11 1 5.28674 0.384485 24.24
12 1 3.07858 3.46161 19.7133
13 1 6.05125 2.26589 20.0102
14 1 5.47843 1.54474 15.4128
15 1 2.08754 1.90231 17.8224
16 2 4.32554 3.33573 13.536
17 2 2.00698 1.68983 22.9373
18 2 4.60206 2.98295 17.8519
19 2 4.73953 0.452923 17.7286
20 2 5.43496 4.171 15.6263
21 2 3.08626 2.42026 15.6339
22 2 4.31199 0.351274 13.4145
23 2 0.380243 0.476419 10.9702
24 2 2.51448 3.82206 8.46433
25 2 2.53266 0.882715 8.70303
26 2 3.34342 1.91512 10.8098
27 2 1.55175 1.96591 13.1235
28 2 5.39156 3.39465 10.8676
29 2 5.05823 2.55517 8.25123
30 2 2.82507 -0.0392764 5.99114
31 2 5.44523 1.42593 5.83738
32 2 4.28319 3.66135 3.48588
33 2 1.68634 2.25006 3.37012
34 2 4.23397 0.799001 3.40251
35 2 3.1456 3.0411 5.73191
ITEM: TIMESTEP
15700
ITEM: NUMBER OF ATOMS
35
ITEM: BOX BOUNDS xy xz yz pp pp pp
0.0000000000000000e+00 7.6685730000000003e+00 2.5561910000000001e+00
0.0000000000000000e+00 4.4274529999999999e+00 0.0000000000000000e+00
0.0000000000000000e+00 3.2699264999999997e+01 0.0000000000000000e+00
ITEM: ATOMS id type x y z
1 1 4.29682 1.73795 27.1762
2 1 4.41672 2.6792 22.6514
3 1 2.56784 0.46755 25.5995
4 1 5.15861 0.242497 21.7212
5 1 3.08233 4.04346 26.8082
6 1 5.83656 4.4079 23.404
7 1 6.30367 2.83943 25.3473
8 1 3.44676 2.19197 24.8136
9 1 1.4565 2.21802 27.8061
10 1 3.41534 0.151345 19.9207
11 1 0.36389 0.362618 24.5416
12 1 3.29295 2.38183 20.6316
13 1 5.83717 2.18932 20.3983
14 1 5.74392 1.25447 15.6728
15 1 1.94149 1.52796 17.7447
16 2 4.13534 3.6891 13.0478
17 2 1.78057 1.69674 22.6775
18 2 4.63963 3.2466 18.0826
19 2 4.42604 0.291761 17.8462
20 2 5.3681 4.28631 15.792
21 2 2.79969 3.12004 15.6908
22 2 4.04671 0.497928 13.5312
23 2 0.707171 0.664292 10.7754
24 2 2.34198 3.76255 8.25832
25 2 2.21701 0.747749 8.26262
26 2 3.09697 1.99242 11.0177
27 2 1.85184 2.07687 13.2232
28 2 5.95945 3.69663 11.0067
29 2 4.82006 2.31068 8.46152
30 2 5.64405 4.3614 5.67592
31 2 5.56927 1.16874 5.83398
32 2 4.11949 3.97477 3.00183
33 2 1.59303 2.16548 3.71428
34 2 4.15809 0.763758 3.43937
35 2 3.0088 2.64973 5.86726
ITEM: TIMESTEP
15800
ITEM: NUMBER OF ATOMS
35
ITEM: BOX BOUNDS xy xz yz pp pp pp
0.0000000000000000e+00 7.6685730000000003e+00 2.5561910000000001e+00
0.0000000000000000e+00 4.4274529999999999e+00 0.0000000000000000e+00
0.0000000000000000e+00 3.2699264999999997e+01 0.0000000000000000e+00
ITEM: ATOMS id type x y z
1 1 4.29968 1.60141 26.7939
2 1 4.63589 2.36838 22.6094
3 1 5.94904 4.02182 25.835
4 1 3.07162 3.93747 22.0945
5 1 3.61059 4.23341 26.7686
6 1 3.35717 0.0938811 23.1664
7 1 1.18174 1.88203 25.2201
8 1 3.82908 2.63326 24.8199
9 1 1.99668 2.64432 27.1835
10 1 5.58206 4.22857 21.0041
11 1 0.12218 0.11734 24.4256
12 1 3.25094 2.29767 20.203
13 1 5.68537 1.32828 19.9632
14 1 5.17451 1.93898 15.9669
15 1 2.02783 1.64074 18.1192
16 2 3.94703 3.91792 12.871
17 2 1.80697 1.95835 22.8691
18 2 4.15361 3.26795 18.2915
19 2 4.54721 0.104479 18.1446
20 2 2.74797 0.0808192 15.5498
21 2 2.87769 3.21836 15.8335
22 2 4.279 1.03897 13.3534
23 2 1.0308 0.768971 10.4463
24 2 6.89934 3.67291 8.33633
25 2 2.13019 0.757278 7.93309
26 2 3.33316 2.20443 10.7143
27 2 1.47514 2.21764 13.767
28 2 6.23156 3.92275 10.8476
29 2 4.59408 2.06084 8.5782
30 2 5.78502 3.72176 5.71074
31 2 5.56672 1.17303 6.04077
32 2 3.9727 3.91488 3.29556
33 2 1.47192 2.41658 3.44484
34 2 4.16772 0.895999 3.36791
35 2 3.21542 2.32925 5.83296
ITEM: TIMESTEP
15900
ITEM: NUMBER OF ATOMS
35
ITEM: BOX BOUNDS xy xz yz pp pp pp
0.0000000000000000e+00 7.6685730000000003e+00 2.5561910000000001e+00
0.0000000000000000e+00 4.4274529999999999e+00 0.0000000000000000e+00
0.0000000000000000e+00 3.2699264999999997e+01 0.0000000000000000e+00
ITEM: ATOMS id type x y z
1 1 4.76592 1.55349 27.1354
2 1 4.30309 1.66114 22.1961
3 1 5.91724 4.09872 25.888
4 1 3.19939 4.14713 21.9554
5 1 4.02794 4.45038 27.2479
6 1 2.5939 -0.456408 23.4061
7 1 1.83652 1.51463 25.234
8 1 4.45706 2.04255 24.6105
9 1 2.5149 2.55751 27.2973
10 1 5.51422 3.74713 20.6992
11 1 0.404694 -0.216598 24.1763
12 1 2.65766 2.04133 20.4241
13 1 5.83339 1.40513 19.5983
14 1 5.30576 1.62329 16.234
15 1 1.95947 1.67507 17.6605
16 2 4.03897 4.09582 13.1343
17 2 2.02825 2.18894 22.8741
18 2 4.39108 3.33971 18.2542
19 2 3.9183 -0.0924841 18.2194
20 2 2.69892 0.461202 15.6113
21 2 2.83896 3.4011 15.732
22 2 4.09227 1.24741 13.2133
23 2 1.06914 0.968131 10.4587
24 2 7.08163 3.23691 8.22736
25 2 2.23945 0.527163 8.01127
26 2 3.48173 2.44453 10.9383
27 2 1.42576 2.70042 13.5954
28 2 6.01614 3.88415 10.9687
29 2 4.47115 2.24057 8.2423
30 2 5.78898 3.50216 5.71163
31 2 5.52212 0.577013 5.8747
32 2 3.95886 3.87449 3.84591
33 2 1.40628 2.52512 3.08532
34 2 4.05092 1.17393 3.47187
35 2 3.1817 2.44364 5.90243
ITEM: TIMESTEP
16000
ITEM: NUMBER OF ATOMS
35
ITEM: BOX BOUNDS xy xz yz pp pp pp
0.0000000000000000e+00 7.6685730000000003e+00 2.5561910000000001e+00
0.0000000000000000e+00 4.4274529999999999e+00 0.0000000000000000e+00
0.0000000000000000e+00 3.2699264999999997e+01 0.0000000000000000e+00
ITEM: ATOMS id type x y z
1 1 5.19821 1.73687 26.978
2 1 4.51052 1.17261 22.065
3 1 6.18898 3.79396 26.0051
4 1 3.57858 4.13736 20.9299
5 1 4.50649 4.2924 27.5533
6 1 5.13004 4.01532 23.247
7 1 2.12424 1.39147 25.205
8 1 4.48809 1.7562 24.6715
9 1 2.7052 2.48843 27.4914
10 1 6.01045 3.65459 20.6663
11 1 3.40196 3.60888 24.8168
12 1 2.80562 1.88464 20.0967
13 1 5.34867 1.46924 19.6687
14 1 5.24482 2.10533 15.7551
15 1 1.79447 1.707 17.7363
16 2 1.38686 0.0567374 13.3242
17 2 1.7757 2.19452 22.7344
18 2 3.7993 3.35907 18.1223
19 2 6.66987 4.4159 18.0177
20 2 2.85206 0.488237 15.6598
21 2 2.78287 3.51011 15.6418
22 2 3.95997 1.24133 13.4003
23 2 0.67069 1.09352 10.8361
24 2 2.26551 3.37344 8.56828
25 2 2.28655 0.290457 8.20128
26 2 3.37937 2.64975 10.8815
27 2 6.64446 2.83532 13.1665
28 2 5.91073 3.92326 10.8073
29 2 4.89735 1.92447 8.34912
30 2 5.76605 3.52181 5.532
31 2 5.51773 0.783953 6.08023
32 2 3.91669 4.20336 3.44831
33 2 1.47697 2.52169 3.3637
34 2 4.00279 1.18708 3.66551
35 2 2.81449 1.68741 5.88051
ITEM: TIMESTEP
16100
ITEM: NUMBER OF ATOMS
35
ITEM: BOX BOUNDS xy xz yz pp pp pp
0.0000000000000000e+00 7.6685730000000003e+00 2.5561910000000001e+00
0.0000000000000000e+00 4.4274529999999999e+00 0.0000000000000000e+00
0.0000000000000000e+00 3.2699264999999997e+01 0.0000000000000000e+00
ITEM: ATOMS id type x y z
1 1 5.41685 1.69126 26.88
2 1 4.34093 0.999749 22.2463
3 1 6.18429 3.60746 24.9492
4 1 3.93367 3.70348 20.4757
5 1 4.68211 4.33377 27.1551
6 1 4.84183 3.87839 23.0472
7 1 2.29821 1.35597 25.1887
8 1 5.13018 1.20188 24.4799
9 1 3.06194 2.25987 27.194
10 1 7.00366 3.81747 20.3964
11 1 3.44718 3.30265 25.3391
12 1 2.60177 1.35186 20.0868
13 1 5.18538 2.0162 20.1631
14 1 5.30299 2.26088 15.3744
15 1 0.628201 1.55605 17.5546
16 2 1.48613 0.00970755 13.3873
17 2 1.89285 2.19388 22.6398
18 2 4.14149 3.27334 17.8871
19 2 3.8161 0.0383199 18.0724
20 2 2.71991 0.837734 15.7125
21 2 2.65441 3.50206 15.5214
22 2 4.0662 1.60412 13.3793
23 2 5.66939 1.10516 11.1746
24 2 2.35061 3.38623 8.37674
25 2 2.33668 0.34695 8.46162
26 2 3.31887 2.58889 10.8355
27 2 6.59423 2.93103 13.1373
28 2 5.74195 4.35912 10.9004
29 2 5.19851 1.71714 8.59933
30 2 5.17689 3.33569 5.93007
31 2 5.25658 0.307254 5.92946
32 2 3.93378 4.16812 3.48402
33 2 1.66397 2.58065 3.55178
34 2 4.16304 1.18264 3.48273
35 2 2.79139 2.02522 6.04471
ITEM: TIMESTEP
16200
ITEM: NUMBER OF ATOMS
35
ITEM: BOX BOUNDS xy xz yz pp pp pp
0.0000000000000000e+00 7.6685730000000003e+00 2.5561910000000001e+00
0.0000000000000000e+00 4.4274529999999999e+00 0.0000000000000000e+00
0.0000000000000000e+00 3.2699264999999997e+01 0.0000000000000000e+00
ITEM: ATOMS id type x y z
1 1 5.68518 1.67625 26.6584
2 1 4.17257 0.654723 22.2423
3 1 6.47274 3.24165 24.5118
4 1 4.63513 4.22922 20.5215
5 1 5.17853 4.06289 26.8004
6 1 4.2173 3.07499 22.6553
7 1 2.84069 1.15074 24.5238
8 1 5.27527 0.860697 24.3422
9 1 2.96125 2.07335 27.1206
10 1 6.69437 3.52091 20.4835
11 1 3.91555 3.43707 24.9082
12 1 3.08937 2.0177 19.6562
13 1 5.40047 1.16246 19.9075
14 1 5.21638 2.23498 15.7092
15 1 6.68685 1.19504 17.9502
16 2 4.28658 4.30829 13.6095
17 2 1.94819 2.31276 22.3837
18 2 3.74561 3.00263 17.7943
19 2 3.77307 -0.0251591 18.0271
20 2 2.7359 1.17051 15.7337
21 2 2.3574 4.09786 15.7499
22 2 3.91296 1.6118 13.2046
23 2 5.88704 1.08728 11.095
24 2 2.40558 3.44119 8.39019
25 2 2.3855 0.502201 8.29272
26 2 3.17454 2.8251 10.7231
27 2 6.80359 3.16775 13.4046
28 2 5.72286 4.23211 11.077
29 2 4.868 2.11435 8.62177
30 2 5.01993 3.12554 6.2675
31 2 4.81604 0.328492 5.73344
32 2 4.44502 3.9589 3.88627
33 2 1.522 2.74223 3.89968
34 2 4.07229 1.27599 3.51678
35 2 2.49867 1.60463 5.98888
ITEM: TIMESTEP
16300
ITEM: NUMBER OF ATOMS
35
ITEM: BOX BOUNDS xy xz yz pp pp pp
0.0000000000000000e+00 7.6685730000000003e+00 2.5561910000000001e+00
0.0000000000000000e+00 4.4274529999999999e+00 0.0000000000000000e+00
0.0000000000000000e+00 3.2699264999999997e+01 0.0000000000000000e+00
ITEM: ATOMS id type x y z
1 1 5.60409 1.02111 26.1823
2 1 4.22058 0.0728534 22.1561
3 1 6.80262 3.10232 24.7001
4 1 2.14077 0.0595833 20.182
5 1 5.91366 4.26735 26.6724
6 1 4.70682 3.37826 22.7128
7 1 2.95912 0.754696 24.2631
8 1 5.45592 1.01694 23.9571
9 1 2.9972 2.08286 26.7073
10 1 6.637 3.00114 20.159
11 1 4.30382 3.22579 24.7268
12 1 3.73407 2.3608 21.231
13 1 5.16841 1.22324 19.6848
14 1 5.55712 3.06221 15.6211
15 1 1.53344 1.66848 17.9972
16 2 4.18882 4.39812 13.6731
17 2 1.5834 1.61613 22.0422
18 2 3.76063 3.04844 17.7112
19 2 6.22262 4.14501 17.885
20 2 2.59045 1.40453 15.7787
21 2 5.20838 0.328853 15.6973
22 2 4.19789 1.41017 13.0167
23 2 0.959636 1.32825 11.0305
24 2 2.17038 3.80124 8.37656
25 2 2.08554 0.767948 8.69557
26 2 3.23051 2.85422 11.0269
27 2 1.72442 2.97737 13.5912
28 2 5.87957 3.90846 10.6871
29 2 4.6127 1.95529 8.80778
30 2 5.08464 2.94337 6.35367
31 2 4.82466 0.298991 6.12977
32 2 4.12704 4.28878 3.87591
33 2 1.55477 2.63876 3.78296
34 2 4.05179 1.44058 3.45148
35 2 2.17052 1.28346 6.15063
ITEM: TIMESTEP
16400
ITEM: NUMBER OF ATOMS
35
ITEM: BOX BOUNDS xy xz yz pp pp pp
0.0000000000000000e+00 7.6685730000000003e+00 2.5561910000000001e+00
0.0000000000000000e+00 4.4274529999999999e+00 0.0000000000000000e+00
0.0000000000000000e+00 3.2699264999999997e+01 0.0000000000000000e+00
ITEM: ATOMS id type x y z
1 1 0.788391 0.315456 26.6274
2 1 7.08001 3.91956 21.621
3 1 2.10988 3.11241 23.7176
4 1 2.2792 0.0407163 19.9645
5 1 6.11029 3.93539 26.6847
6 1 5.27662 3.36151 22.9267
7 1 2.94785 1.02089 24.473
8 1 5.43441 0.894062 24.2504
9 1 2.5445 2.28881 26.5402
10 1 1.87352 2.70974 19.5554
11 1 4.69836 2.89315 25.5572
12 1 3.71263 2.22388 21.2695
13 1 4.62477 0.898279 19.5813
14 1 4.98102 3.59217 15.4796
15 1 1.12585 1.39003 18.0233
16 2 4.43118 4.23914 13.2454
17 2 1.3232 1.18289 21.9447
18 2 3.87074 2.97508 18.0345
19 2 6.19536 4.46086 17.4541
20 2 2.92386 2.1328 15.6462
21 2 5.39742 0.850395 15.7764
22 2 4.38643 1.04923 13.2545
23 2 1.12278 1.21982 11.1715
24 2 2.02788 3.38578 8.654
25 2 1.58818 0.744517 8.79013
26 2 3.47415 2.91724 11.218
27 2 1.60778 2.69 13.2945
28 2 5.96766 4.12741 11.044
29 2 4.30213 1.99267 8.77212
30 2 4.77429 3.09574 6.31542
31 2 4.85498 -0.0254258 5.77383
32 2 3.71426 4.38762 3.58237
33 2 6.55362 2.78635 3.7877
34 2 4.07716 1.54211 3.87924
35 2 2.52519 1.83143 6.3648
ITEM: TIMESTEP
16500
ITEM: NUMBER OF ATOMS
35
ITEM: BOX BOUNDS xy xz yz pp pp pp
0.0000000000000000e+00 7.6685730000000003e+00 2.5561910000000001e+00
0.0000000000000000e+00 4.4274529999999999e+00 0.0000000000000000e+00
0.0000000000000000e+00 3.2699264999999997e+01 0.0000000000000000e+00
ITEM: ATOMS id type x y z
1 1 3.97191 4.08463 26.9188
2 1 6.45231 3.81577 21.8032
3 1 2.67597 3.08512 23.9099
4 1 4.87989 4.13942 19.9236
5 1 4.01731 0.49701 26.8604
6 1 5.02992 2.99106 23.3421
7 1 3.32991 0.205048 24.5374
8 1 0.982183 0.957921 24.5056
9 1 1.91892 2.35112 26.2231
10 1 1.62203 2.63901 19.3691
11 1 4.33684 2.42316 25.7336
12 1 3.55544 2.07599 21.4214
13 1 4.96719 0.959874 19.6615
14 1 5.45394 3.60531 15.3699
15 1 1.42739 0.866972 17.8508
16 2 4.31688 4.09748 13.2144
17 2 1.22092 1.1932 21.8819
18 2 4.03936 2.74508 17.9964
19 2 3.77536 0.242002 17.5494
20 2 2.90734 2.76335 15.6347
21 2 5.74688 1.02765 15.5571
22 2 4.18725 0.97331 13.6078
23 2 0.806856 1.45332 10.9399
24 2 6.6899 3.28965 8.69589
25 2 1.62813 0.0504361 8.40127
26 2 3.49006 2.65431 11.1333
27 2 1.68415 2.54034 13.4245
28 2 6.13434 4.51913 10.9401
29 2 4.20778 1.7741 8.616
30 2 5.04017 3.49849 6.18765
31 2 5.09796 0.350499 6.13704
32 2 3.99451 4.43047 3.57564
33 2 6.20468 2.92113 3.94136
34 2 3.64594 1.76233 3.99989
35 2 2.29757 1.68877 6.16235
ITEM: TIMESTEP
16600
ITEM: NUMBER OF ATOMS
35
ITEM: BOX BOUNDS xy xz yz pp pp pp
0.0000000000000000e+00 7.6685730000000003e+00 2.5561910000000001e+00
0.0000000000000000e+00 4.4274529999999999e+00 0.0000000000000000e+00
0.0000000000000000e+00 3.2699264999999997e+01 0.0000000000000000e+00
ITEM: ATOMS id type x y z
1 1 4.1255 4.51393 26.9957
2 1 3.94221 0.0568978 22.1602
3 1 2.47289 2.37216 23.5817
4 1 4.94923 4.08678 20.325
5 1 4.2078 0.374481 27.3775
6 1 4.78748 2.61651 23.0759
7 1 3.96489 0.442904 24.4733
8 1 1.43352 0.3364 24.7902
9 1 6.67486 2.89549 26.1099
10 1 2.06832 2.71871 19.5844
11 1 4.40852 2.59971 25.5966
12 1 3.42851 2.46827 21.261
13 1 5.08805 0.710029 20.0422
14 1 5.46207 3.95633 15.5092
15 1 1.61275 1.09921 18.1404
16 2 3.87522 4.09988 13.088
17 2 1.20163 0.843431 22.2461
18 2 4.47468 2.83678 17.9826
19 2 4.15752 -0.0435071 17.7089
20 2 2.89821 2.8899 15.878
21 2 1.07949 1.03684 15.5657
22 2 3.94316 1.10671 13.657
23 2 5.75987 1.57764 10.692
24 2 6.54468 2.9246 8.50774
25 2 4.02063 4.27743 8.68672
26 2 3.23134 2.92323 10.7455
27 2 1.60608 2.41469 12.978
28 2 5.94694 4.37274 11.1029
29 2 4.1159 1.3223 8.31763
30 2 5.18816 3.57273 6.11829
31 2 4.93706 0.623563 5.98996
32 2 1.24396 0.280671 3.86351
33 2 6.33588 2.97157 3.64595
34 2 3.69123 1.59902 3.82895
35 2 2.35543 2.00141 6.43382
ITEM: TIMESTEP
16700
ITEM: NUMBER OF ATOMS
35
ITEM: BOX BOUNDS xy xz yz pp pp pp
0.0000000000000000e+00 7.6685730000000003e+00 2.5561910000000001e+00
0.0000000000000000e+00 4.4274529999999999e+00 0.0000000000000000e+00
0.0000000000000000e+00 3.2699264999999997e+01 0.0000000000000000e+00
ITEM: ATOMS id type x y z
1 1 1.80427 0.892318 27.3281
2 1 4.17962 0.23086 22.2849
3 1 2.70625 2.92847 23.7738
4 1 5.24258 4.33315 20.2105
5 1 4.24892 0.463677 27.2724
6 1 5.30723 2.57373 23.56
7 1 4.21496 0.519372 24.8156
8 1 1.61045 0.141416 24.9224
9 1 1.75718 2.53658 25.9672
10 1 2.06434 2.76929 19.6528
11 1 4.20511 2.51433 26.2561
12 1 3.50724 2.34259 21.5645
13 1 5.21388 1.10265 20.0582
14 1 5.69454 3.69221 15.1173
15 1 2.03175 0.992473 17.8554
16 2 3.58128 4.01987 13.2137
17 2 1.34939 0.420955 22.3308
18 2 4.78218 2.79468 18.1206
19 2 4.47088 0.0193491 17.4471
20 2 3.29678 2.61978 15.8293
21 2 5.77068 1.28106 15.7413
22 2 3.94934 1.30854 13.6853
23 2 5.31256 1.39871 10.8417
24 2 6.23755 2.76749 8.43751
25 2 4.02047 4.41332 8.39295
26 2 2.93593 2.68036 10.6367
27 2 6.4686 2.47297 13.1455
28 2 3.02824 0.0615328 11.2938
29 2 3.82614 1.04429 8.56704
30 2 4.90599 3.7007 6.04938
31 2 4.93668 0.623682 6.17199
32 2 1.286 0.0905679 3.62446
33 2 6.56127 3.12503 3.48482
34 2 3.81425 1.56336 3.58321
35 2 2.7475 2.37206 5.87271
ITEM: TIMESTEP
16800
ITEM: NUMBER OF ATOMS
35
ITEM: BOX BOUNDS xy xz yz pp pp pp
0.0000000000000000e+00 7.6685730000000003e+00 2.5561910000000001e+00
0.0000000000000000e+00 4.4274529999999999e+00 0.0000000000000000e+00
0.0000000000000000e+00 3.2699264999999997e+01 0.0000000000000000e+00
ITEM: ATOMS id type x y z
1 1 1.80095 0.765031 27.8592
2 1 4.02516 -0.564833 22.5661
3 1 3.43813 2.92561 24.1118
4 1 5.64307 4.83651 19.7015
5 1 4.80861 -0.105353 27.4768
6 1 5.76434 2.16082 23.7415
7 1 4.0856 0.521397 24.8958
8 1 1.92478 0.684291 25.2221
9 1 1.52795 2.79744 25.9556
10 1 2.39468 3.03287 19.7813
11 1 4.21478 3.0028 26.8786
12 1 4.00279 2.44408 21.4331
13 1 5.59584 1.02277 20.153
14 1 5.41381 4.45039 15.5878
15 1 2.26689 1.13402 17.6901
16 2 3.41418 4.03732 13.4229
17 2 1.73946 0.578894 22.3567
18 2 4.73415 2.58893 18.1816
19 2 4.68148 -0.345341 17.6123
20 2 3.36353 2.60861 15.8293
21 2 5.96341 1.51782 15.6098
22 2 3.66783 1.36209 13.2136
23 2 5.17107 1.16359 11.1762
24 2 6.0224 2.73034 8.13728
25 2 3.71258 4.29841 8.37597
26 2 2.37862 2.78474 10.829
27 2 6.31972 2.4199 13.3586
28 2 2.45145 -0.290686 11.2866
29 2 3.64161 1.2252 8.74416
30 2 5.36176 3.93846 5.58847
31 2 5.0264 0.891084 6.08383
32 2 1.59875 -0.0393551 3.22719
33 2 6.51288 3.2307 3.49528
34 2 4.06866 1.56041 3.32974
35 2 2.35644 2.13977 5.76315
ITEM: TIMESTEP
16900
ITEM: NUMBER OF ATOMS
35
ITEM: BOX BOUNDS xy xz yz pp pp pp
0.0000000000000000e+00 7.6685730000000003e+00 2.5561910000000001e+00
0.0000000000000000e+00 4.4274529999999999e+00 0.0000000000000000e+00
0.0000000000000000e+00 3.2699264999999997e+01 0.0000000000000000e+00
ITEM: ATOMS id type x y z
1 1 2.63014 1.0533 27.4145
2 1 2.62121 3.79307 22.4661
3 1 2.93933 2.63761 24.6891
4 1 3.64978 0.342094 20.1042
5 1 4.90272 0.593653 27.6357
6 1 5.33022 2.3294 23.8036
7 1 4.55025 0.352461 25.0007
8 1 1.96407 0.415073 25.2724
9 1 6.48195 2.85571 26.4425
10 1 2.56181 2.51732 20.2345
11 1 4.08896 2.55767 26.9039
12 1 4.92502 2.55778 21.3184
13 1 1.12966 0.658162 20.2244
14 1 5.89334 4.19427 15.7295
15 1 1.89721 1.06551 18.0894
16 2 3.32015 4.42364 13.6034
17 2 2.32297 0.660677 22.5905
18 2 4.73385 2.60804 18.4641
19 2 2.30825 3.83847 17.799
20 2 3.48108 2.71572 15.6437
21 2 5.82 1.56297 15.8462
22 2 3.18408 1.15027 13.0697
23 2 5.13153 1.08198 10.7374
24 2 6.01662 2.91043 8.24544
25 2 3.30819 4.0065 8.44896
26 2 2.00897 2.92849 10.7184
27 2 5.85563 2.93051 13.279
28 2 4.52082 3.60149 10.7997
29 2 3.39379 1.27399 8.7268
30 2 5.08422 3.79932 5.68323
31 2 5.23213 0.979394 5.46093
32 2 1.41889 0.262151 3.23222
33 2 1.74701 2.94395 3.07875
34 2 4.2167 1.7683 3.27314
35 2 2.64494 2.22555 6.12232
ITEM: TIMESTEP
17000
ITEM: NUMBER OF ATOMS
35
ITEM: BOX BOUNDS xy xz yz pp pp pp
0.0000000000000000e+00 7.6685730000000003e+00 2.5561910000000001e+00
0.0000000000000000e+00 4.4274529999999999e+00 0.0000000000000000e+00
0.0000000000000000e+00 3.2699264999999997e+01 0.0000000000000000e+00
ITEM: ATOMS id type x y z
1 1 2.83987 0.602824 27.3255
2 1 3.06215 4.25855 23.1633
3 1 2.59638 2.34116 24.6788
4 1 4.07763 0.129048 20.6629
5 1 0.565419 0.696913 27.059
6 1 5.44692 2.66519 23.7952
7 1 4.41856 0.625962 25.0762
8 1 4.32537 4.42365 24.8178
9 1 6.43334 2.89869 26.9039
10 1 2.63708 2.01517 20.2449
11 1 3.59565 2.86899 26.6114
12 1 5.55298 2.36153 21.2766
13 1 4.01406 4.18421 20.7401
14 1 3.46345 0.0132844 15.5402
15 1 2.78453 0.727031 17.7879
16 2 0.379922 0.329803 13.1534
17 2 3.29641 0.827335 22.8436
18 2 4.89863 2.53372 18.4665
19 2 2.3195 3.81752 18.1765
20 2 3.33778 2.73076 15.717
21 2 5.86905 1.32538 16.0205
22 2 3.00204 1.58187 12.9513
23 2 4.75537 0.967728 10.624
24 2 5.55306 2.58454 8.18405
25 2 3.20329 4.34519 7.94796
26 2 1.93327 2.52362 10.9612
27 2 5.32836 3.00185 13.3699
28 2 4.53585 3.86055 10.6519
29 2 3.00444 0.991653 8.38098
30 2 5.26607 3.69616 5.69311
31 2 5.33378 0.799305 5.75869
32 2 1.64275 0.320231 3.41453
33 2 6.71871 3.21912 3.44194
34 2 4.09465 1.92131 3.05929
35 2 2.84838 2.40698 5.88169
ITEM: TIMESTEP
17100
ITEM: NUMBER OF ATOMS
35
ITEM: BOX BOUNDS xy xz yz pp pp pp
0.0000000000000000e+00 7.6685730000000003e+00 2.5561910000000001e+00
0.0000000000000000e+00 4.4274529999999999e+00 0.0000000000000000e+00
0.0000000000000000e+00 3.2699264999999997e+01 0.0000000000000000e+00
ITEM: ATOMS id type x y z
1 1 2.91135 0.461014 27.4404
2 1 3.37387 3.65324 22.4886
3 1 2.4934 3.13463 24.6398
4 1 7.08344 4.30952 20.4323
5 1 0.501104 0.508487 27.2099
6 1 5.43668 2.65657 23.8448
7 1 4.22797 1.00718 25.148
8 1 1.91593 0.192458 25.1059
9 1 6.60045 2.73985 26.6385
10 1 2.89573 1.88305 20.1478
11 1 4.24746 2.81923 27.2467
12 1 6.03734 1.51806 21.315
13 1 4.84969 3.49146 20.4629
14 1 5.97149 4.22338 15.6343
15 1 2.67541 0.972052 17.9454
16 2 0.135513 0.0947794 13.0264
17 2 3.55313 1.18665 22.6368
18 2 5.26009 2.26898 18.3309
19 2 2.56373 3.61323 18.1046
20 2 3.17509 3.07486 15.7654
21 2 0.956608 1.33461 16.0527
22 2 2.74548 1.86534 13.448
23 2 4.16723 1.03659 10.5727
24 2 5.23649 2.36015 8.15088
25 2 2.78794 3.78959 8.3296
26 2 1.72931 2.37453 10.5421
27 2 5.32588 3.03278 13.4384
28 2 4.54496 4.07605 10.814
29 2 2.81159 1.10781 7.98547
30 2 5.58396 3.9908 6.124
31 2 5.25446 1.18465 5.51821
32 2 1.68778 0.349706 3.55685
33 2 6.68877 3.57954 3.44827
34 2 4.22867 1.84551 3.35211
35 2 2.77079 2.20475 5.49489
ITEM: TIMESTEP
17200
ITEM: NUMBER OF ATOMS
35
ITEM: BOX BOUNDS xy xz yz pp pp pp
0.0000000000000000e+00 7.6685730000000003e+00 2.5561910000000001e+00
0.0000000000000000e+00 4.4274529999999999e+00 0.0000000000000000e+00
0.0000000000000000e+00 3.2699264999999997e+01 0.0000000000000000e+00
ITEM: ATOMS id type x y z
1 1 3.01379 0.906343 27.682
2 1 3.87675 3.72929 22.3708
3 1 2.76159 3.60817 24.4791
4 1 7.46114 4.11661 20.5756
5 1 -0.0685238 -0.0343999 27.3006
6 1 5.84394 2.85877 23.5861
7 1 4.30545 1.49153 25.3047
8 1 2.19025 0.632738 24.9785
9 1 6.90322 2.41349 26.3003
10 1 3.52525 1.76491 19.9816
11 1 4.75485 2.87686 26.9416
12 1 6.37372 1.63676 21.4332
13 1 5.16732 3.62428 20.4338
14 1 6.0706 4.38885 15.9474
15 1 2.51496 0.403217 18.0798
16 2 0.000882563 0.123554 13.0641
17 2 3.37357 0.91771 22.6086
18 2 5.46003 1.96513 18.123
19 2 2.76961 3.68309 18.109
20 2 3.6504 3.06283 15.483
21 2 0.872872 1.58424 15.5636
22 2 2.4651 1.30311 13.4695
23 2 4.02777 1.35147 10.762
24 2 5.01071 2.27135 8.29749
25 2 2.57194 3.85458 8.4793
26 2 1.36189 2.39537 10.7615
27 2 5.38271 3.10812 13.276
28 2 4.07875 3.93734 11.048
29 2 2.36657 0.953546 8.29742
30 2 5.37606 3.84808 5.78658
31 2 5.55522 1.00647 6.04583
32 2 1.62909 0.399078 3.52069
33 2 6.88757 3.46878 3.16314
34 2 4.33111 2.09838 3.27432
35 2 2.816 2.74115 5.66676
ITEM: TIMESTEP
17300
ITEM: NUMBER OF ATOMS
35
ITEM: BOX BOUNDS xy xz yz pp pp pp
0.0000000000000000e+00 7.6685730000000003e+00 2.5561910000000001e+00
0.0000000000000000e+00 4.4274529999999999e+00 0.0000000000000000e+00
0.0000000000000000e+00 3.2699264999999997e+01 0.0000000000000000e+00
ITEM: ATOMS id type x y z
1 1 3.09126 1.36068 27.2504
2 1 4.07977 3.37183 22.6092
3 1 2.68606 3.85985 24.6834
4 1 2.74945 4.22154 20.6228
5 1 2.71486 4.87911 26.7877
6 1 6.55784 2.12246 23.304
7 1 4.57699 1.87208 24.8293
8 1 2.57084 0.210102 24.9394
9 1 1.46016 2.19581 25.8764
10 1 3.69493 1.74979 19.9504
11 1 4.69466 3.54448 26.9559
12 1 6.33188 2.20762 20.6622
13 1 4.92492 4.14376 20.1593
14 1 4.05204 0.137937 15.7059
15 1 2.73291 0.240781 17.5463
16 2 5.03294 0.103684 13.5271
17 2 3.88257 0.645524 22.6374
18 2 5.53482 1.91145 18.1209
19 2 2.5371 3.48416 17.817
20 2 3.90738 3.13361 15.4771
21 2 6.3501 1.6227 15.5796
22 2 2.57048 1.21437 13.243
23 2 3.60856 0.905085 10.9771
24 2 4.54108 2.55571 8.55103
25 2 2.09163 4.14342 8.48914
26 2 6.43129 2.57682 11.1486
27 2 4.95578 2.76157 13.1882
28 2 3.57921 4.10746 10.7696
29 2 2.35159 0.647834 8.61623
30 2 5.58429 3.88007 5.39449
31 2 5.43481 1.00853 5.99254
32 2 1.69139 0.852288 3.42618
33 2 6.99703 3.41415 3.38151
34 2 4.38281 2.05008 3.6172
35 2 3.00006 2.45771 6.07918
ITEM: TIMESTEP
17400
ITEM: NUMBER OF ATOMS
35
ITEM: BOX BOUNDS xy xz yz pp pp pp
0.0000000000000000e+00 7.6685730000000003e+00 2.5561910000000001e+00
0.0000000000000000e+00 4.4274529999999999e+00 0.0000000000000000e+00
0.0000000000000000e+00 3.2699264999999997e+01 0.0000000000000000e+00
ITEM: ATOMS id type x y z
1 1 2.87951 2.25127 26.874
2 1 4.67971 3.22569 22.2399
3 1 2.94247 4.3964 24.4394
4 1 2.4234 4.42791 19.8696
5 1 5.17056 0.578301 26.7819
6 1 2.05796 1.30284 22.7032
7 1 3.97332 2.14953 24.5707
8 1 2.92099 0.00274171 24.7402
9 1 1.22266 2.1748 24.9365
10 1 3.77127 2.40415 20.176
11 1 5.07815 3.53675 27.0457
12 1 1.37289 2.03876 20.6565
13 1 5.16955 4.31178 19.8881
14 1 3.94836 0.390274 15.5645
15 1 2.62469 0.42841 17.7709
16 2 2.62435 4.00453 13.412
17 2 4.40709 0.438175 22.4259
18 2 5.27405 1.79122 18.0672
19 2 2.52955 3.31146 18.0018
20 2 4.14148 3.16059 15.907
21 2 1.66714 1.90209 15.8589
22 2 2.18353 1.4336 13.4081
23 2 3.43247 0.728782 10.9033
24 2 4.45614 2.4522 8.80311
25 2 6.81514 3.78694 8.15529
26 2 6.35045 2.38121 10.6696
27 2 4.77047 2.5625 13.0847
28 2 3.49982 4.17945 10.9151
29 2 1.68946 1.32898 8.43512
30 2 5.70912 3.84457 6.01485
31 2 5.69458 1.13558 5.97105
32 2 1.83229 0.912485 3.53245
33 2 7.30821 3.8238 3.61979
34 2 4.19473 2.03052 3.81318
35 2 2.9826 2.01749 6.30769
ITEM: TIMESTEP
17500
ITEM: NUMBER OF ATOMS
35
ITEM: BOX BOUNDS xy xz yz pp pp pp
0.0000000000000000e+00 7.6685730000000003e+00 2.5561910000000001e+00
0.0000000000000000e+00 4.4274529999999999e+00 0.0000000000000000e+00
0.0000000000000000e+00 3.2699264999999997e+01 0.0000000000000000e+00
ITEM: ATOMS id type x y z
1 1 2.23213 2.39256 26.2861
2 1 4.99184 3.0682 22.7259
3 1 0.448418 -0.0611584 24.6192
4 1 5.40646 0.251663 19.8345
5 1 5.19463 0.544957 26.825
6 1 2.26499 1.23344 22.3708
7 1 3.90901 2.17372 24.3188
8 1 3.00271 0.277627 24.6799
9 1 6.7684 2.68037 24.1295
10 1 3.54249 2.40876 20.719
11 1 5.45248 3.75024 26.7269
12 1 1.18437 2.73293 20.3287
13 1 5.14768 4.67143 20.166
14 1 4.27635 0.714779 15.5297
15 1 2.68039 0.352648 17.8696
16 2 2.14206 3.95741 13.3667
17 2 4.85622 0.0465719 22.4137
18 2 4.88217 1.74604 17.9756
19 2 2.54424 3.08353 18.0555
20 2 4.33436 3.49322 15.6772
21 2 1.48328 2.18826 15.7003
22 2 2.31126 0.809439 13.3385
23 2 3.56875 0.826735 10.9392
24 2 3.97899 2.55663 8.83989
25 2 6.82703 4.18484 8.39842
26 2 6.29151 2.46606 10.8623
27 2 5.0653 2.4679 13.1133
28 2 3.49925 3.90311 11.0171
29 2 1.45054 0.773256 8.4512
30 2 5.35155 3.58879 5.92922
31 2 5.6737 0.704344 5.92137
32 2 2.07809 0.759008 3.75902
33 2 7.01679 3.88478 4.07183
34 2 4.56862 2.47735 3.69496
35 2 3.23352 2.45643 6.17685
ITEM: TIMESTEP
17600
ITEM: NUMBER OF ATOMS
35
ITEM: BOX BOUNDS xy xz yz pp pp pp
0.0000000000000000e+00 7.6685730000000003e+00 2.5561910000000001e+00
0.0000000000000000e+00 4.4274529999999999e+00 0.0000000000000000e+00
0.0000000000000000e+00 3.2699264999999997e+01 0.0000000000000000e+00
ITEM: ATOMS id type x y z
1 1 2.28968 1.78602 26.396
2 1 5.33845 3.23435 22.2904
3 1 0.433925 0.242587 25.0947
4 1 5.18128 0.48517 19.9835
5 1 4.8587 1.46547 27.249
6 1 2.57038 1.10578 22.0565
7 1 4.51398 2.50484 24.9659
8 1 3.1761 0.130573 24.2398
9 1 1.56932 2.26727 23.8422
10 1 3.84894 2.66456 20.3709
11 1 5.21169 3.69052 26.6875
12 1 6.31324 2.61891 20.2334
13 1 2.81566 0.81352 19.5741
14 1 4.14313 0.949675 15.7757
15 1 2.41073 0.0580881 17.499
16 2 2.19905 3.68263 13.5416
17 2 2.68866 4.32824 22.4207
18 2 4.98037 1.9758 17.9631
19 2 2.37929 2.91629 17.8864
20 2 3.81347 3.96973 15.4202
21 2 1.72539 2.24036 15.5217
22 2 2.3097 0.678987 13.3366
23 2 3.83938 0.947922 11.0222
24 2 3.92447 2.49273 8.45546
25 2 6.61636 4.00285 8.63358
26 2 6.27434 2.46253 10.7477
27 2 4.65665 2.01178 13.4266
28 2 3.72965 3.9252 11.2483
29 2 1.64506 0.96589 8.66407
30 2 5.51525 3.70377 6.40817
31 2 5.30065 0.874069 6.07643
32 2 2.2549 1.04873 3.86207
33 2 7.17118 3.63873 3.73843
34 2 4.70915 2.52684 3.47094
35 2 2.61205 1.96818 6.16378
ITEM: TIMESTEP
17700
ITEM: NUMBER OF ATOMS
35
ITEM: BOX BOUNDS xy xz yz pp pp pp
0.0000000000000000e+00 7.6685730000000003e+00 2.5561910000000001e+00
0.0000000000000000e+00 4.4274529999999999e+00 0.0000000000000000e+00
0.0000000000000000e+00 3.2699264999999997e+01 0.0000000000000000e+00
ITEM: ATOMS id type x y z
1 1 2.05549 2.06983 26.5336
2 1 5.09801 2.65126 22.4549
3 1 0.553225 -0.114057 25.6101
4 1 5.03465 0.640083 20.2705
5 1 4.40811 1.87735 27.0655
6 1 3.29063 1.57198 21.9003
7 1 4.39037 2.36984 24.5476
8 1 3.35571 -0.0345537 23.9814
9 1 1.73473 2.02942 24.1658
10 1 4.10594 3.09069 19.9096
11 1 5.65289 4.02819 26.5974
12 1 6.64585 2.59115 20.3911
13 1 2.76634 0.522287 19.7465
14 1 3.85231 0.776233 15.5621
15 1 2.45489 0.185622 17.5771
16 2 2.17811 3.45274 12.9648
17 2 3.24348 4.4904 22.6739
18 2 5.1711 1.79264 17.7741
19 2 2.50914 3.39153 18.0107
20 2 3.49371 3.86025 15.599
21 2 1.26903 2.25135 15.6288
22 2 2.04043 0.766843 13.1581
23 2 3.86307 1.22161 10.9138
24 2 4.20227 2.51144 8.52221
25 2 6.98317 3.82234 8.89196
26 2 6.22895 2.43259 11.2442
27 2 4.74944 1.83994 13.6552
28 2 4.04241 3.91386 10.8519
29 2 1.23423 1.17285 8.59449
30 2 5.1115 3.59211 6.14709
31 2 4.79521 0.727153 6.13425
32 2 2.31808 0.720211 3.63921
33 2 7.5312 3.91041 3.4958
34 2 4.72032 2.22534 3.88283
35 2 2.40593 2.18207 6.20654
ITEM: TIMESTEP
17800
ITEM: NUMBER OF ATOMS
35
ITEM: BOX BOUNDS xy xz yz pp pp pp
0.0000000000000000e+00 7.6685730000000003e+00 2.5561910000000001e+00
0.0000000000000000e+00 4.4274529999999999e+00 0.0000000000000000e+00
0.0000000000000000e+00 3.2699264999999997e+01 0.0000000000000000e+00
ITEM: ATOMS id type x y z
1 1 1.72343 2.09784 26.7676
2 1 5.70519 2.72157 22.2797
3 1 3.46516 4.41999 25.7683
4 1 5.6225 0.578354 20.6504
5 1 4.30181 2.01658 26.8701
6 1 3.24427 1.64624 22.4317
7 1 4.38372 2.27967 24.2123
8 1 6.23699 4.20426 23.8434
9 1 2.15931 2.10375 24.6485
10 1 4.17964 2.75637 20.2868
11 1 5.7235 4.70639 25.9881
12 1 6.88609 3.39488 20.227
13 1 2.59386 0.726922 20.3295
14 1 3.31485 0.679296 15.7354
15 1 2.45834 0.143296 17.9195
16 2 2.36559 3.97879 13.1227
17 2 1.09011 -0.118456 22.9949
18 2 5.00396 1.72097 17.9826
19 2 2.53833 3.58784 18.1811
20 2 3.54831 3.4802 15.6212
21 2 6.08412 2.48961 15.5731
22 2 2.42176 0.304257 13.4951
23 2 3.43133 1.20502 10.8781
24 2 4.18594 2.47062 8.23178
25 2 6.59434 3.86823 8.81263
26 2 6.08914 2.11703 10.866
27 2 4.68487 2.31722 13.1607
28 2 3.91629 4.0281 10.6299
29 2 1.88972 0.942587 8.17969
30 2 4.49265 3.91895 6.05533
31 2 4.63542 0.541239 6.23759
32 2 2.44403 0.468321 3.69389
33 2 2.38657 3.67653 3.74196
34 2 5.10887 2.03915 3.99134
35 2 2.10097 2.33461 5.9616
ITEM: TIMESTEP
17900
ITEM: NUMBER OF ATOMS
35
ITEM: BOX BOUNDS xy xz yz pp pp pp
0.0000000000000000e+00 7.6685730000000003e+00 2.5561910000000001e+00
0.0000000000000000e+00 4.4274529999999999e+00 0.0000000000000000e+00
0.0000000000000000e+00 3.2699264999999997e+01 0.0000000000000000e+00
ITEM: ATOMS id type x y z
1 1 1.55138 2.28886 27.5993
2 1 5.82172 2.22003 22.9529
3 1 3.08498 4.26972 25.721
4 1 5.42727 0.839501 20.6289
5 1 4.31258 2.93945 26.9656
6 1 3.07568 1.8836 22.3501
7 1 5.17597 1.99057 25.1772
8 1 3.82134 0.258916 23.6325
9 1 2.4742 1.99369 24.7864
10 1 4.11825 3.57238 20.477
11 1 3.22856 0.104052 26.1484
12 1 6.89271 3.06061 20.4279
13 1 3.18648 1.13383 19.781
14 1 3.99385 0.933505 16.2458
15 1 2.05233 0.307926 17.7602
16 2 2.41289 3.82793 13.0905
17 2 4.16152 4.18499 23.0958
18 2 4.95147 1.9646 18.3515
19 2 2.33877 2.98776 17.9914
20 2 3.71531 3.67543 15.7179
21 2 6.14047 2.26585 15.5149
22 2 2.41483 1.15749 13.6369
23 2 3.31905 0.95012 10.8768
24 2 4.30948 2.59586 8.35411
25 2 6.87444 3.70394 8.4698
26 2 5.94532 2.33266 10.6437
27 2 4.7705 2.37791 12.9927
28 2 3.24416 3.73168 10.6896
29 2 1.86421 0.964624 8.47819
30 2 4.22091 3.69093 5.68416
31 2 4.31957 0.783552 6.11033
32 2 2.80738 0.609765 3.57516
33 2 2.48433 3.28485 3.56067
34 2 5.14174 1.82068 3.69416
35 2 1.66472 2.12345 5.93622
ITEM: TIMESTEP
18000
ITEM: NUMBER OF ATOMS
35
ITEM: BOX BOUNDS xy xz yz pp pp pp
0.0000000000000000e+00 7.6685730000000003e+00 2.5561910000000001e+00
0.0000000000000000e+00 4.4274529999999999e+00 0.0000000000000000e+00
0.0000000000000000e+00 3.2699264999999997e+01 0.0000000000000000e+00
ITEM: ATOMS id type x y z
1 1 1.84052 2.42684 27.1881
2 1 5.93914 2.13593 23.2983
3 1 3.35893 4.10148 25.7169
4 1 5.2083 1.21041 21.1034
5 1 3.88015 3.11492 28.1566
6 1 3.21284 2.04422 22.136
7 1 5.21041 2.21066 25.6248
8 1 4.59929 -0.165191 23.6324
9 1 2.82656 1.98433 24.8049
10 1 4.40105 3.44853 20.4281
11 1 5.66491 4.45446 26.1129
12 1 6.70879 3.36333 21.0493
13 1 2.9012 1.12192 19.7164
14 1 3.81333 0.507274 15.9382
15 1 1.84087 0.0895124 17.8541
16 2 2.19423 4.17075 13.4167
17 2 4.42289 4.1925 23.0807
18 2 4.91062 2.04465 18.2681
19 2 2.31567 3.14291 18.096
20 2 3.93033 3.7752 15.3337
21 2 6.19305 2.30803 15.9496
22 2 2.17406 1.17288 13.2922
23 2 3.22884 0.479319 10.9031
24 2 4.50525 2.52594 8.47216
25 2 7.1888 3.96017 7.98684
26 2 5.83895 2.33697 10.8821
27 2 4.9853 2.78245 13.3374
28 2 3.17414 3.6868 10.8431
29 2 1.62244 0.915995 8.59065
30 2 4.01807 3.35193 5.56312
31 2 3.89726 0.610478 5.69845
32 2 2.70077 0.351114 3.39872
33 2 2.78004 3.3558 3.1991
34 2 5.38274 1.70354 3.32864
35 2 1.4154 2.22822 6.08434
ITEM: TIMESTEP
18100
ITEM: NUMBER OF ATOMS
35
ITEM: BOX BOUNDS xy xz yz pp pp pp
0.0000000000000000e+00 7.6685730000000003e+00 2.5561910000000001e+00
0.0000000000000000e+00 4.4274529999999999e+00 0.0000000000000000e+00
0.0000000000000000e+00 3.2699264999999997e+01 0.0000000000000000e+00
ITEM: ATOMS id type x y z
1 1 2.19373 2.34782 26.603
2 1 5.75111 1.90023 23.353
3 1 3.60535 4.28461 25.8722
4 1 5.88724 1.24064 21.038
5 1 3.9465 3.28984 28.1465
6 1 3.65307 1.80272 22.2511
7 1 5.07112 2.03654 25.5148
8 1 4.77969 -0.0463686 23.8878
9 1 2.77517 1.89091 24.5561
10 1 3.7885 3.33532 20.5484
11 1 6.38132 4.63532 26.3693
12 1 6.35342 3.76537 21.1471
13 1 2.60978 1.12955 20.1318
14 1 3.53621 1.22421 15.6801
15 1 2.54948 0.514996 17.8633
16 2 2.01469 4.67803 13.6025
17 2 4.62343 4.0819 23.0912
18 2 4.61391 1.75898 18.1316
19 2 2.38464 3.82346 18.433
20 2 3.70501 3.62003 15.9266
21 2 6.3269 2.19089 15.9888
22 2 2.12243 1.3522 13.1848
23 2 3.45643 0.586552 10.6306
24 2 4.47107 2.35442 8.17784
25 2 7.01236 4.10898 8.18369
26 2 5.86701 1.784 10.9944
27 2 4.67788 2.84735 13.3061
28 2 3.36129 3.40496 11.1216
29 2 2.21955 0.97746 8.21923
30 2 3.78033 3.67911 5.81481
31 2 3.69054 0.699389 5.50478
32 2 2.57599 0.000404631 3.22672
33 2 2.74903 3.06339 3.17458
34 2 5.53493 1.79875 3.29382
35 2 1.17331 1.82779 5.64728
ITEM: TIMESTEP
18200
ITEM: NUMBER OF ATOMS
35
ITEM: BOX BOUNDS xy xz yz pp pp pp
0.0000000000000000e+00 7.6685730000000003e+00 2.5561910000000001e+00
0.0000000000000000e+00 4.4274529999999999e+00 0.0000000000000000e+00
0.0000000000000000e+00 3.2699264999999997e+01 0.0000000000000000e+00
ITEM: ATOMS id type x y z
1 1 2.3036 1.86822 27.1043
2 1 6.19529 1.94784 23.0856
3 1 4.27566 4.89923 25.2765
4 1 5.30051 1.41443 20.3894
5 1 4.19056 3.4712 27.434
6 1 3.45826 1.35599 22.2588
7 1 5.30905 2.37413 25.5814
8 1 6.89242 3.99953 24.2098
9 1 3.39426 1.86268 24.6896
10 1 4.1005 3.74637 20.4701
11 1 3.99305 0.111337 26.5969
12 1 6.74417 3.53725 21.277
13 1 2.83631 1.25267 19.7867
14 1 3.7995 0.852516 15.9065
15 1 2.34309 0.572965 17.6089
16 2 4.96022 -0.171607 13.5496
17 2 4.44641 3.97202 23.1102
18 2 4.97259 2.45268 18.2166
19 2 2.10653 3.61839 18.702
20 2 3.16409 3.8906 16.2582
21 2 6.09117 2.37763 15.8807
22 2 1.96917 1.73867 13.6684
23 2 3.4223 0.297702 10.7285
24 2 4.79111 2.71599 8.24784
25 2 7.33446 3.60867 8.42945
26 2 6.02954 1.60383 10.3555
27 2 4.6662 3.20384 13.4544
28 2 3.40219 3.17659 10.7086
29 2 2.18492 1.0999 7.95264
30 2 3.54593 3.6218 5.80794
31 2 3.78049 0.734279 5.46664
32 2 5.27761 4.2648 3.10053
33 2 2.60331 2.77505 3.61398
34 2 4.86978 1.338 3.12894
35 2 6.1757 2.34921 5.72521
ITEM: TIMESTEP
18300
ITEM: NUMBER OF ATOMS
35
ITEM: BOX BOUNDS xy xz yz pp pp pp
0.0000000000000000e+00 7.6685730000000003e+00 2.5561910000000001e+00
0.0000000000000000e+00 4.4274529999999999e+00 0.0000000000000000e+00
0.0000000000000000e+00 3.2699264999999997e+01 0.0000000000000000e+00
ITEM: ATOMS id type x y z
1 1 2.49644 1.73988 27.394
2 1 5.9163 1.61198 22.941
3 1 1.75615 0.132967 24.9326
4 1 5.53133 1.33847 20.6125
5 1 4.22058 3.71042 27.0894
6 1 3.49896 1.10732 22.4333
7 1 6.18234 2.85289 25.6971
8 1 7.10013 4.39408 23.8148
9 1 3.36554 2.37045 25.1389
10 1 4.83694 3.69086 20.3607
11 1 4.55646 0.19915 26.7533
12 1 7.21035 3.40177 21.5236
13 1 3.10257 1.64696 20.1563
14 1 3.37962 1.13603 15.594
15 1 1.9245 1.29126 17.7144
16 2 7.39913 4.7899 13.1989
17 2 4.11412 3.44459 22.779
18 2 4.60236 2.72056 18.2627
19 2 7.30091 3.89153 18.8813
20 2 3.1315 3.84533 15.9046
21 2 5.65369 2.68574 15.8043
22 2 2.36072 1.4819 13.3207
23 2 3.20174 -0.143108 11.0579
24 2 4.97408 2.59205 8.23379
25 2 2.34811 4.20367 8.24688
26 2 1.00248 1.49453 10.6327
27 2 5.15782 3.13884 13.4075
28 2 3.48101 2.79751 10.7147
29 2 2.27782 0.887172 7.97301
30 2 3.62172 3.75416 5.77941
31 2 3.76423 0.893484 5.94704
32 2 4.80295 3.95717 3.33656
33 2 2.27745 2.51196 3.38899
34 2 4.9105 0.895362 3.29099
35 2 5.97792 2.62606 5.77615
ITEM: TIMESTEP
18400
ITEM: NUMBER OF ATOMS
35
ITEM: BOX BOUNDS xy xz yz pp pp pp
0.0000000000000000e+00 7.6685730000000003e+00 2.5561910000000001e+00
0.0000000000000000e+00 4.4274529999999999e+00 0.0000000000000000e+00
0.0000000000000000e+00 3.2699264999999997e+01 0.0000000000000000e+00
ITEM: ATOMS id type x y z
1 1 2.55364 1.55928 27.0761
2 1 1.27027 2.2205 23.5379
3 1 2.24675 0.221234 24.9941
4 1 0.890677 1.28816 20.6822
5 1 4.40554 3.50104 27.2289
6 1 2.78187 0.687588 22.3837
7 1 5.87717 2.68588 25.5308
8 1 7.35728 4.27483 24.6142
9 1 3.69648 2.31483 24.9251
10 1 4.84678 3.94792 19.9633
11 1 5.23955 0.996875 26.6679
12 1 7.21496 3.57459 21.6314
13 1 3.49195 1.99081 20.2515
14 1 3.54444 0.928234 16.0512
15 1 1.61431 1.51628 18.0431
16 2 4.9937 0.386224 13.2655
17 2 4.19986 2.92149 22.6965
18 2 3.98783 2.59346 17.8306
19 2 7.16511 4.50178 18.3667
20 2 3.26257 3.93496 15.3929
21 2 5.90058 2.78393 15.8109
22 2 2.41453 1.81568 13.1737
23 2 6.06217 4.01998 10.6886
24 2 4.91552 2.68568 8.32962
25 2 7.34843 4.33078 8.32476
26 2 0.789008 1.14607 10.9513
27 2 4.98389 3.25003 13.1763
28 2 3.45607 2.47394 10.8334
29 2 2.30493 1.20016 8.62601
30 2 3.40213 4.10691 5.93237
31 2 3.52475 1.26713 5.74811
32 2 4.65943 3.48774 3.58846
33 2 2.11595 2.12894 3.23864
34 2 4.88389 0.701394 3.70195
35 2 6.33733 2.35161 5.7602
ITEM: TIMESTEP
18500
ITEM: NUMBER OF ATOMS
35
ITEM: BOX BOUNDS xy xz yz pp pp pp
0.0000000000000000e+00 7.6685730000000003e+00 2.5561910000000001e+00
0.0000000000000000e+00 4.4274529999999999e+00 0.0000000000000000e+00
0.0000000000000000e+00 3.2699264999999997e+01 0.0000000000000000e+00
ITEM: ATOMS id type x y z
1 1 2.81664 1.3011 27.22
2 1 1.74621 2.37881 23.2322
3 1 2.28664 0.285637 24.7469
4 1 6.05157 1.80665 20.8886
5 1 4.29152 3.33333 27.1953
6 1 2.66244 0.279869 22.4111
7 1 6.56351 3.12727 26.0129
8 1 5.01578 0.518683 23.9827
9 1 3.88615 2.24439 25.092
10 1 4.97907 4.04659 19.6252
11 1 5.06478 0.561942 27.1732
12 1 7.40386 4.16177 21.3379
13 1 3.27539 1.9359 20.0095
14 1 3.32698 0.822921 15.4023
15 1 1.47869 1.61479 18.3054
16 2 4.55757 0.315943 13.2422
17 2 4.29777 2.47573 22.5419
18 2 3.9463 2.86636 17.5193
19 2 4.17056 0.142346 17.7431
20 2 3.70652 4.1878 15.528
21 2 6.32458 2.38518 15.8558
22 2 2.21662 2.05477 13.5691
23 2 6.12898 3.66577 10.7776
24 2 4.71652 3.0198 8.327
25 2 7.37853 4.26255 8.32736
26 2 0.876928 0.733874 10.8558
27 2 4.72453 3.64201 13.0889
28 2 3.63634 2.46161 10.9078
29 2 2.17508 1.59804 8.5897
30 2 3.65322 4.28153 6.11843
31 2 3.4441 1.19468 5.99829
32 2 4.88024 3.22211 3.76401
33 2 2.23026 1.68104 3.47726
34 2 4.68526 0.221823 3.54055
35 2 5.9586 2.84747 5.99691
ITEM: TIMESTEP
18600
ITEM: NUMBER OF ATOMS
35
ITEM: BOX BOUNDS xy xz yz pp pp pp
0.0000000000000000e+00 7.6685730000000003e+00 2.5561910000000001e+00
0.0000000000000000e+00 4.4274529999999999e+00 0.0000000000000000e+00
0.0000000000000000e+00 3.2699264999999997e+01 0.0000000000000000e+00
ITEM: ATOMS id type x y z
1 1 2.53479 1.05631 27.2523
2 1 1.47842 2.69494 23.519
3 1 2.65976 0.260769 24.7931
4 1 6.2881 2.13809 20.9801
5 1 4.52757 3.13546 27.1833
6 1 2.53943 0.495477 22.3312
7 1 6.83771 2.9671 25.8662
8 1 0.480813 0.279792 23.5949
9 1 4.0158 2.33596 24.9495
10 1 4.87034 3.9001 20.0439
11 1 5.33356 0.893828 26.7034
12 1 2.63202 4.36186 20.6568
13 1 3.55346 1.73955 20.0485
14 1 3.90586 1.60961 15.3316
15 1 1.14305 1.27658 18.4453
16 2 4.63233 0.75111 12.9872
17 2 4.02697 2.32275 22.3225
18 2 4.05679 2.84586 17.7688
19 2 6.66739 4.33782 17.7023
20 2 3.72898 4.29733 15.47
21 2 6.11909 2.64489 15.9163
22 2 1.90041 2.15322 13.1876
23 2 6.13367 3.48311 10.9097
24 2 4.61688 3.18486 8.67194
25 2 4.66922 0.371354 8.53542
26 2 1.14849 0.758761 10.8083
27 2 4.55413 3.46564 13.2636
28 2 3.49083 1.97242 10.9437
29 2 2.09241 1.58746 8.23662
30 2 3.52456 4.39667 5.73496
31 2 3.78855 1.28274 6.14659
32 2 4.67865 2.99316 3.5955
33 2 2.29254 1.45234 4.03573
34 2 7.26745 4.28386 3.65502
35 2 6.11112 2.84761 6.2057
ITEM: TIMESTEP
18700
ITEM: NUMBER OF ATOMS
35
ITEM: BOX BOUNDS xy xz yz pp pp pp
0.0000000000000000e+00 7.6685730000000003e+00 2.5561910000000001e+00
0.0000000000000000e+00 4.4274529999999999e+00 0.0000000000000000e+00
0.0000000000000000e+00 3.2699264999999997e+01 0.0000000000000000e+00
ITEM: ATOMS id type x y z
1 1 3.15429 1.07339 27.0156
2 1 6.28394 2.57658 23.5385
3 1 2.89495 0.115842 24.7531
4 1 1.4313 2.18039 21.114
5 1 4.52925 3.13616 26.8243
6 1 2.99436 0.225834 22.2195
7 1 1.93311 3.1275 25.8232
8 1 0.073958 -0.0490021 23.6565
9 1 4.02277 2.43124 24.7774
10 1 5.04639 3.50597 20.0928
11 1 5.61403 0.690552 25.7418
12 1 2.78411 4.07438 20.5369
13 1 3.42645 1.74798 19.9115
14 1 3.16887 1.33165 15.4638
15 1 1.55148 1.34296 18.1993
16 2 4.77966 0.646933 13.181
17 2 3.81688 2.67356 22.2686
18 2 3.84114 2.80008 17.7939
19 2 6.5639 4.22434 18.1157
20 2 0.963927 0.231141 15.8912
21 2 6.10656 3.13504 15.5273
22 2 2.03258 2.23496 13.3233
23 2 6.31986 3.38983 10.83
24 2 4.55913 3.39398 8.65852
25 2 4.56376 0.485476 8.61638
26 2 1.07534 0.394949 10.7676
27 2 4.56632 3.61498 13.1625
28 2 3.47832 1.8676 10.6666
29 2 2.02514 1.73721 8.31635
30 2 3.63882 4.03951 6.20244
31 2 4.08912 1.59573 6.17629
32 2 4.67051 2.48765 3.63344
33 2 2.11554 1.40381 4.09979
34 2 7.01819 4.15255 3.49518
35 2 6.29081 3.07003 6.08458
ITEM: TIMESTEP
18800
ITEM: NUMBER OF ATOMS
35
ITEM: BOX BOUNDS xy xz yz pp pp pp
0.0000000000000000e+00 7.6685730000000003e+00 2.5561910000000001e+00
0.0000000000000000e+00 4.4274529999999999e+00 0.0000000000000000e+00
0.0000000000000000e+00 3.2699264999999997e+01 0.0000000000000000e+00
ITEM: ATOMS id type x y z
1 1 4.04238 0.914261 26.4646
2 1 1.23065 2.07418 23.8909
3 1 2.5793 -0.071183 23.9779
4 1 1.22721 1.48703 21.6146
5 1 4.84805 3.5429 26.6315
6 1 3.11714 0.00235386 21.688
7 1 2.02807 3.10392 26.2234
8 1 5.03112 0.201715 23.4296
9 1 3.7919 2.26604 24.695
10 1 4.95977 3.20778 19.8001
11 1 1.08347 1.02037 26.1003
12 1 5.11615 0.127174 20.0976
13 1 3.15284 1.6413 19.6957
14 1 3.08893 1.60604 15.5393
15 1 1.24922 1.54178 18.2197
16 2 4.60754 0.717107 13.6926
17 2 3.83696 2.76813 22.2211
18 2 3.92263 2.86656 17.5619
19 2 6.49272 4.19154 18.0454
20 2 0.565239 0.62725 15.9636
21 2 5.9478 3.16908 15.5669
22 2 2.50986 2.21342 13.3043
23 2 6.19563 3.04497 11.0037
24 2 4.74905 3.41423 8.63987
25 2 4.55395 0.15593 8.44346
26 2 0.905114 0.194439 11.0291
27 2 4.79556 3.95684 13.2597
28 2 3.74784 1.70439 10.9729
29 2 1.90928 2.07889 8.20236
30 2 3.85897 4.49896 6.23224
31 2 4.14356 1.45237 6.05485
32 2 4.58935 2.43513 3.74623
33 2 1.84288 0.901788 4.09201
34 2 6.97666 4.06364 3.5253
35 2 6.2971 3.27163 5.81517
ITEM: TIMESTEP
18900
ITEM: NUMBER OF ATOMS
35
ITEM: BOX BOUNDS xy xz yz pp pp pp
0.0000000000000000e+00 7.6685730000000003e+00 2.5561910000000001e+00
0.0000000000000000e+00 4.4274529999999999e+00 0.0000000000000000e+00
0.0000000000000000e+00 3.2699264999999997e+01 0.0000000000000000e+00
ITEM: ATOMS id type x y z
1 1 3.79398 0.886347 26.3804
2 1 1.47354 2.52619 24.4113
3 1 4.71501 4.76333 23.9332
4 1 1.14217 1.72482 22.1681
5 1 5.36234 2.95338 26.2892
6 1 6.27561 4.38966 21.4471
7 1 2.98891 3.46206 26.5651
8 1 5.05231 0.353727 23.9133
9 1 3.92578 2.14751 24.211
10 1 5.18959 2.62157 20.0192
11 1 1.5416 1.0291 26.1984
12 1 3.07933 4.17834 20.2876
13 1 2.42332 1.8122 19.8275
14 1 3.07916 1.58286 16.1068
15 1 0.784477 1.38922 18.0629
16 2 5.02682 1.04911 13.3604
17 2 3.61926 2.53098 21.925
18 2 3.95581 3.16686 17.6401
19 2 6.30041 4.561 17.7953
20 2 0.619786 0.301168 15.7546
21 2 5.77159 3.10324 15.6583
22 2 2.25042 2.7311 13.2071
23 2 5.98571 2.88812 11.1076
24 2 4.60765 3.24761 8.86699
25 2 4.68161 0.511265 8.7163
26 2 1.09522 0.0653659 11.0431
27 2 4.8257 3.93641 13.4971
28 2 3.49895 1.24026 11.0299
29 2 2.1647 1.71448 8.44485
30 2 1.18379 0.0648188 6.39288
31 2 3.72722 1.8445 6.15944
32 2 4.26841 2.6836 3.54545
33 2 2.00482 0.911823 3.40663
34 2 7.2259 4.01178 3.42409
35 2 6.47202 2.78018 5.78216
ITEM: TIMESTEP
19000
ITEM: NUMBER OF ATOMS
35
ITEM: BOX BOUNDS xy xz yz pp pp pp
0.0000000000000000e+00 7.6685730000000003e+00 2.5561910000000001e+00
0.0000000000000000e+00 4.4274529999999999e+00 0.0000000000000000e+00
0.0000000000000000e+00 3.2699264999999997e+01 0.0000000000000000e+00
ITEM: ATOMS id type x y z
1 1 4.41025 0.706664 26.1916
2 1 6.22031 2.70025 23.7586
3 1 2.83491 0.656491 23.8094
4 1 5.78571 1.26899 21.9787
5 1 5.6756 3.07247 26.5369
6 1 6.35131 4.11558 21.607
7 1 2.88811 2.75845 26.6921
8 1 0.377844 0.47731 24.1244
9 1 3.96535 2.99983 24.6352
10 1 5.41396 2.5939 20.0023
11 1 1.85802 0.669165 26.4978
12 1 0.994423 0.040369 20.233
13 1 2.67049 1.93653 20.0265
14 1 3.40686 1.40113 15.0481
15 1 1.50145 1.49604 17.6463
16 2 5.01303 1.60295 12.9414
17 2 3.38033 2.6072 22.0384
18 2 3.59543 3.09491 18.267
19 2 3.69688 0.11238 18.4933
20 2 0.559031 0.0623765 15.3917
21 2 5.92538 3.0504 15.7925
22 2 2.2325 2.88659 13.5412
23 2 5.98948 2.71641 10.7444
24 2 4.63833 3.29981 8.35371
25 2 4.80327 0.359732 8.59743
26 2 3.31264 4.02043 10.9684
27 2 4.85023 4.19966 13.3425
28 2 3.25272 1.24205 11.2503
29 2 2.25879 1.8281 8.80477
30 2 3.54595 4.28769 6.03889
31 2 3.64575 1.26621 5.96839
32 2 4.50123 2.5932 3.63869
33 2 2.1696 1.31158 3.26128
34 2 7.08299 4.29321 3.7766
35 2 6.14965 2.96161 5.90905
ITEM: TIMESTEP
19100
ITEM: NUMBER OF ATOMS
35
ITEM: BOX BOUNDS xy xz yz pp pp pp
0.0000000000000000e+00 7.6685730000000003e+00 2.5561910000000001e+00
0.0000000000000000e+00 4.4274529999999999e+00 0.0000000000000000e+00
0.0000000000000000e+00 3.2699264999999997e+01 0.0000000000000000e+00
ITEM: ATOMS id type x y z
1 1 4.40989 0.578562 26.5799
2 1 6.70686 3.30571 24.0492
3 1 3.0528 0.871297 23.9837
4 1 5.28945 1.36357 21.9086
5 1 5.79315 2.70457 26.5878
6 1 5.9248 4.02678 21.5192
7 1 3.05596 2.52825 26.9129
8 1 0.440251 0.715749 24.1797
9 1 4.19988 2.8223 25.0414
10 1 4.92314 2.15107 19.5099
11 1 1.88351 0.494284 26.0128
12 1 1.04143 -0.325828 20.0841
13 1 2.49106 1.71239 20.4326
14 1 3.56978 1.62021 15.6393
15 1 1.69924 1.02078 18.0381
16 2 5.10101 1.64727 13.1471
17 2 3.70511 3.19581 22.6372
18 2 3.53758 2.85446 17.5536
19 2 4.10033 -0.100264 18.5354
20 2 0.776966 0.0659871 15.8108
21 2 5.7398 3.22897 16.232
22 2 2.28137 3.12151 13.3025
23 2 5.58658 2.60037 10.5275
24 2 4.70651 3.525 8.20208
25 2 4.72321 0.289142 8.25169
26 2 3.1306 3.86038 10.8051
27 2 4.97716 4.52227 13.4245
28 2 3.02416 1.01401 10.9667
29 2 2.25406 1.80659 8.17058
30 2 3.56872 4.34715 5.66387
31 2 3.36349 1.06971 6.02277
32 2 4.90318 2.89596 3.82476
33 2 1.98456 1.50778 3.73147
34 2 7.05892 4.38436 3.59209
35 2 6.03545 2.41779 6.12421
ITEM: TIMESTEP
19200
ITEM: NUMBER OF ATOMS
35
ITEM: BOX BOUNDS xy xz yz pp pp pp
0.0000000000000000e+00 7.6685730000000003e+00 2.5561910000000001e+00
0.0000000000000000e+00 4.4274529999999999e+00 0.0000000000000000e+00
0.0000000000000000e+00 3.2699264999999997e+01 0.0000000000000000e+00
ITEM: ATOMS id type x y z
1 1 4.36263 0.292708 26.7425
2 1 6.8408 3.18478 24.7793
3 1 2.86748 1.17382 23.2462
4 1 5.36343 1.40585 21.9377
5 1 5.81672 2.31615 27.0369
6 1 6.40355 3.98512 21.35
7 1 3.51827 2.97269 27.3822
8 1 0.418408 0.974325 24.1808
9 1 4.07673 2.6606 25.1243
10 1 5.38732 2.18987 19.7362
11 1 2.02107 0.245432 26.1633
12 1 3.69004 3.95088 20.0773
13 1 2.53451 1.89017 20.8544
14 1 3.27797 1.5517 15.2368
15 1 1.47152 0.979889 18.0533
16 2 5.03162 1.60811 13.3348
17 2 3.93835 3.65262 22.7423
18 2 3.6751 2.29765 17.708
19 2 6.45877 4.1196 18.5427
20 2 0.639184 0.584986 15.7005
21 2 6.03059 3.16732 16.1399
22 2 2.37299 3.28513 13.2241
23 2 5.42254 2.29565 10.6946
24 2 4.48642 3.51121 8.25594
25 2 4.59664 0.441165 8.29552
26 2 3.11863 4.12576 10.7088
27 2 2.29305 -0.0679573 13.3561
28 2 3.09777 0.779084 10.6497
29 2 2.2225 2.03322 8.56694
30 2 3.17392 3.65318 5.90641
31 2 3.68281 1.03471 5.79064
32 2 4.60324 3.13675 3.56397
33 2 2.21527 1.66014 3.60942
34 2 7.20248 4.5924 3.27556
35 2 5.94111 2.42891 5.96072
ITEM: TIMESTEP
19300
ITEM: NUMBER OF ATOMS
35
ITEM: BOX BOUNDS xy xz yz pp pp pp
0.0000000000000000e+00 7.6685730000000003e+00 2.5561910000000001e+00
0.0000000000000000e+00 4.4274529999999999e+00 0.0000000000000000e+00
0.0000000000000000e+00 3.2699264999999997e+01 0.0000000000000000e+00
ITEM: ATOMS id type x y z
1 1 4.51064 0.212798 26.9219
2 1 6.10826 3.24504 24.4472
3 1 3.07146 1.25745 23.2499
4 1 5.80542 1.76787 22.5065
5 1 6.23456 2.31936 27.1529
6 1 6.93666 3.91528 21.6597
7 1 3.49661 3.07733 27.744
8 1 5.43502 0.917797 24.7185
9 1 3.52704 2.55731 25.3377
10 1 5.2572 1.97297 20.1335
11 1 2.45827 0.571785 25.6933
12 1 3.83011 4.16128 20.2397
13 1 3.08894 1.4283 20.298
14 1 3.16773 2.17529 15.2176
15 1 1.63014 0.710317 17.8929
16 2 4.84292 1.4144 13.4019
17 2 4.20487 3.70644 22.7347
18 2 3.87369 2.26327 17.9149
19 2 6.57314 4.04016 18.445
20 2 0.398311 0.408133 15.8009
21 2 5.98571 3.48605 15.767
22 2 2.07302 2.84381 13.1391
23 2 5.72156 2.54414 10.9687
24 2 4.77103 3.39617 8.24133
25 2 4.4274 0.662346 8.27669
26 2 3.18491 3.8211 10.7253
27 2 4.62417 4.28332 12.9627
28 2 3.3695 0.924443 11.0619
29 2 1.90472 2.22165 8.77004
30 2 3.22416 3.4822 5.96214
31 2 3.24519 0.676405 5.69135
32 2 4.60029 3.34934 3.28913
33 2 2.13261 1.801 3.22394
34 2 4.86409 0.405182 3.50497
35 2 5.69173 2.42879 5.68413
ITEM: TIMESTEP
19400
ITEM: NUMBER OF ATOMS
35
ITEM: BOX BOUNDS xy xz yz pp pp pp
0.0000000000000000e+00 7.6685730000000003e+00 2.5561910000000001e+00
0.0000000000000000e+00 4.4274529999999999e+00 0.0000000000000000e+00
0.0000000000000000e+00 3.2699264999999997e+01 0.0000000000000000e+00
ITEM: ATOMS id type x y z
1 1 4.32498 0.508497 27.4333
2 1 6.35062 3.1472 24.5051
3 1 3.61895 1.52258 23.4587
4 1 1.46795 1.67679 22.4101
5 1 1.27581 2.22551 26.47
6 1 6.7744 4.20551 21.9161
7 1 4.09417 2.86944 27.5281
8 1 5.17565 0.905723 24.7171
9 1 3.52158 3.23365 25.2567
10 1 5.82121 1.93777 20.1973
11 1 2.60996 0.459317 25.7611
12 1 3.84501 3.46994 20.1379
13 1 2.986 1.16067 20.2983
14 1 3.00112 1.87662 15.8242
15 1 1.75911 1.24205 17.9761
16 2 4.24558 0.857458 13.4457
17 2 4.11297 3.62898 22.8031
18 2 4.33427 2.637 17.8139
19 2 7.04939 3.72573 18.2698
20 2 0.547525 0.339552 15.8349
21 2 5.26566 3.61195 15.641
22 2 1.90935 2.65632 13.3983
23 2 5.91427 2.57378 10.8569
24 2 4.72929 3.71748 8.50872
25 2 4.58472 0.928835 8.18281
26 2 3.4005 3.92989 10.6291
27 2 4.27614 4.35782 13.4208
28 2 3.5082 1.15645 10.8212
29 2 2.0946 1.81456 8.18715
30 2 3.09895 3.4542 5.87765
31 2 2.56838 0.6985 5.71488
32 2 4.79833 3.45819 3.32231
33 2 2.15506 2.12063 3.20142
34 2 4.71898 0.419546 3.79967
35 2 5.5955 2.01843 5.59877
ITEM: TIMESTEP
19500
ITEM: NUMBER OF ATOMS
35
ITEM: BOX BOUNDS xy xz yz pp pp pp
0.0000000000000000e+00 7.6685730000000003e+00 2.5561910000000001e+00
0.0000000000000000e+00 4.4274529999999999e+00 0.0000000000000000e+00
0.0000000000000000e+00 3.2699264999999997e+01 0.0000000000000000e+00
ITEM: ATOMS id type x y z
1 1 4.76125 0.353755 27.0521
2 1 6.93384 3.4854 24.0068
3 1 3.33185 1.00641 23.3462
4 1 0.940406 1.76309 22.257
5 1 1.89945 2.29929 27.1575
6 1 7.11547 4.00985 21.5813
7 1 4.30382 3.51384 27.5649
8 1 5.7263 1.03633 24.8884
9 1 3.76772 2.72556 25.0816
10 1 5.77961 1.95944 20.1532
11 1 2.79967 0.296739 25.6121
12 1 3.69915 3.61782 20.2602
13 1 3.02681 1.02143 20.1366
14 1 2.74143 1.65378 16.007
15 1 1.98202 0.716324 18.1703
16 2 4.01544 1.11381 13.2139
17 2 4.27663 3.66491 22.6863
18 2 4.90385 2.6785 18.0681
19 2 7.202 4.01612 18.2789
20 2 -0.0722143 0.606578 15.9198
21 2 5.54723 3.15656 15.5744
22 2 1.7672 2.45966 13.6754
23 2 6.01803 2.54128 10.9545
24 2 4.81524 3.51228 8.33549
25 2 4.98307 0.69393 8.07228
26 2 3.07185 4.40193 10.8444
27 2 4.04259 3.92181 13.1088
28 2 3.20208 1.21089 10.4543
29 2 2.21458 2.18554 8.17472
30 2 2.63802 3.34788 5.95148
31 2 2.87122 0.411874 5.76436
32 2 4.64874 3.58106 3.40581
33 2 2.33521 2.13058 3.50636
34 2 4.55518 0.471291 3.64011
35 2 5.10536 2.34374 5.91469
ITEM: TIMESTEP
19600
ITEM: NUMBER OF ATOMS
35
ITEM: BOX BOUNDS xy xz yz pp pp pp
0.0000000000000000e+00 7.6685730000000003e+00 2.5561910000000001e+00
0.0000000000000000e+00 4.4274529999999999e+00 0.0000000000000000e+00
0.0000000000000000e+00 3.2699264999999997e+01 0.0000000000000000e+00
ITEM: ATOMS id type x y z
1 1 4.96761 0.418785 26.4423
2 1 1.98617 3.38186 24.0882
3 1 2.97614 1.62624 22.5557
4 1 5.56384 1.11021 22.549
5 1 3.04203 2.02193 27.1773
6 1 6.78715 3.58084 21.4596
7 1 4.66321 4.1786 27.7186
8 1 1.31563 1.1675 24.9587
9 1 4.40319 2.35267 25.3626
10 1 5.93961 1.60059 20.443
11 1 5.61934 4.36602 25.3821
12 1 4.45233 3.84864 20.2362
13 1 3.41031 1.65603 20.3233
14 1 2.71377 2.41429 15.8868
15 1 2.06577 0.80156 17.7718
16 2 4.36289 0.907617 13.0912
17 2 4.58991 3.6536 22.8499
18 2 4.77744 2.20135 17.8884
19 2 7.11569 4.16579 18.468
20 2 5.11194 0.294075 15.517
21 2 5.23781 3.44529 15.5939
22 2 1.68485 2.1156 13.2203
23 2 5.50352 3.07095 11.036
24 2 4.96051 3.4068 8.43556
25 2 5.14196 0.565529 8.25051
26 2 2.89517 4.29488 10.6297
27 2 4.11384 3.75953 13.0977
28 2 2.94767 1.24731 10.872
29 2 2.28135 2.35383 8.47241
30 2 2.34077 3.81243 5.64624
31 2 2.38353 0.775745 6.29347
32 2 4.53261 3.57109 3.54933
33 2 2.12161 1.80309 3.83661
34 2 4.92448 0.876202 3.30078
35 2 4.9431 1.90505 5.818
ITEM: TIMESTEP
19700
ITEM: NUMBER OF ATOMS
35
ITEM: BOX BOUNDS xy xz yz pp pp pp
0.0000000000000000e+00 7.6685730000000003e+00 2.5561910000000001e+00
0.0000000000000000e+00 4.4274529999999999e+00 0.0000000000000000e+00
0.0000000000000000e+00 3.2699264999999997e+01 0.0000000000000000e+00
ITEM: ATOMS id type x y z
1 1 5.43873 -0.114728 27.0234
2 1 2.89505 3.65865 24.0319
3 1 2.43814 1.48751 22.4661
4 1 4.78859 1.2632 22.7677
5 1 3.35416 2.08941 26.9075
6 1 7.30727 3.57099 21.2017
7 1 5.2595 3.95274 27.3057
8 1 1.70119 1.77657 25.1172
9 1 4.2576 1.99377 24.861
10 1 5.92665 1.384 19.8021
11 1 6.11608 4.29233 25.31
12 1 5.21379 4.18904 20.1476
13 1 3.53462 2.17942 19.9365
14 1 2.8792 1.68472 15.5773
15 1 2.00728 0.829576 17.7575
16 2 4.16627 0.426462 13.2059
17 2 5.08611 3.52881 22.9053
18 2 4.51475 2.03321 17.5903
19 2 6.95231 3.51727 18.376
20 2 5.50517 0.667465 15.6909
21 2 5.37168 3.78667 15.6367
22 2 1.63615 2.09507 13.4045
23 2 5.23174 2.75777 10.7845
24 2 4.99797 3.79366 8.26325
25 2 4.73778 1.02935 8.39383
26 2 2.83335 4.29077 10.8676
27 2 4.14884 3.53465 13.2438
28 2 2.86195 1.51601 11.0285
29 2 2.49535 2.25483 8.58741
30 2 2.08027 3.80309 5.73318
31 2 1.79267 0.671061 6.25063
32 2 4.86701 3.60714 3.80968
33 2 2.21584 1.91834 3.87027
34 2 4.66696 0.690189 2.97682
35 2 4.68059 2.40528 6.0003
ITEM: TIMESTEP
19800
ITEM: NUMBER OF ATOMS
35
ITEM: BOX BOUNDS xy xz yz pp pp pp
0.0000000000000000e+00 7.6685730000000003e+00 2.5561910000000001e+00
0.0000000000000000e+00 4.4274529999999999e+00 0.0000000000000000e+00
0.0000000000000000e+00 3.2699264999999997e+01 0.0000000000000000e+00
ITEM: ATOMS id type x y z
1 1 2.96757 4.74227 26.6448
2 1 3.55863 4.19573 24.1163
3 1 1.87405 1.55295 22.2888
4 1 4.30472 1.34354 22.2413
5 1 3.45983 1.79004 27.0778
6 1 3.11539 3.78478 21.2791
7 1 5.65051 3.01289 27.1892
8 1 1.87045 1.62864 25.2234
9 1 4.37641 1.95881 24.5301
10 1 5.9338 1.44572 19.9274
11 1 5.95833 3.93605 25.0047
12 1 5.41582 4.07509 20.1975
13 1 3.44873 2.02308 20.1464
14 1 3.06687 2.57989 15.2744
15 1 2.06703 0.35472 17.9078
16 2 3.81611 0.382197 13.3682
17 2 5.74943 3.62007 22.5773
18 2 4.21417 2.23208 17.7258
19 2 6.9986 3.10512 18.0247
20 2 0.684401 0.70477 15.8441
21 2 6.05088 3.63487 15.8671
22 2 1.31705 1.92507 13.4233
23 2 5.44893 2.52817 10.9108
24 2 4.88489 4.22019 8.56381
25 2 4.80524 1.00482 8.51229
26 2 2.72303 4.18952 10.9878
27 2 4.0603 3.24189 13.2802
28 2 2.70085 1.16041 11.0331
29 2 2.29036 2.86101 8.49589
30 2 6.74372 3.93888 5.97341
31 2 1.61473 0.962996 5.68048
32 2 4.88094 3.61248 3.54306
33 2 2.44865 2.29812 3.56573
34 2 4.70293 0.513726 3.54183
35 2 4.13903 2.27513 6.10932
ITEM: TIMESTEP
19900
ITEM: NUMBER OF ATOMS
35
ITEM: BOX BOUNDS xy xz yz pp pp pp
0.0000000000000000e+00 7.6685730000000003e+00 2.5561910000000001e+00
0.0000000000000000e+00 4.4274529999999999e+00 0.0000000000000000e+00
0.0000000000000000e+00 3.2699264999999997e+01 0.0000000000000000e+00
ITEM: ATOMS id type x y z
1 1 0.567282 0.0441887 26.0031
2 1 3.23211 4.00593 23.9016
3 1 1.93555 1.53205 22.5799
4 1 4.39771 1.96814 22.1377
5 1 3.49789 1.33697 26.9364
6 1 3.10353 3.87618 21.3238
7 1 6.05388 2.31396 26.8214
8 1 2.15291 2.1711 24.605
9 1 4.86881 1.85125 24.6136
10 1 5.75346 1.07419 20.0067
11 1 5.78307 4.18489 25.0896
12 1 5.40801 3.49637 20.1014
13 1 3.31841 1.48393 20.0425
14 1 3.34174 2.02035 15.6672
15 1 2.15774 0.345513 18.1176
16 2 3.90042 0.52207 13.4724
17 2 6.1335 3.82145 22.6047
18 2 4.62705 1.7909 17.7985
19 2 2.1013 3.31697 18.2074
20 2 1.02961 0.70696 15.8646
21 2 5.81196 3.76676 15.7102
22 2 1.22565 1.60106 13.2674
23 2 5.22071 2.65595 10.9371
24 2 4.7157 4.34126 8.56539
25 2 5.10625 1.58828 8.50645
26 2 2.56342 3.79012 10.9861
27 2 3.86038 3.35331 13.2464
28 2 2.70199 0.947101 10.9786
29 2 2.18875 2.7825 8.37672
30 2 6.15706 3.83173 6.15922
31 2 1.49825 1.15166 5.80263
32 2 4.93663 3.49506 3.63833
33 2 2.38391 2.38609 3.20922
34 2 4.90064 0.893706 4.01625
35 2 3.72638 2.47338 6.06751
ITEM: TIMESTEP
20000
ITEM: NUMBER OF ATOMS
35
ITEM: BOX BOUNDS xy xz yz pp pp pp
0.0000000000000000e+00 7.6685730000000003e+00 2.5561910000000001e+00
0.0000000000000000e+00 4.4274529999999999e+00 0.0000000000000000e+00
0.0000000000000000e+00 3.2699264999999997e+01 0.0000000000000000e+00
ITEM: ATOMS id type x y z
1 1 3.51774 3.40449 26.5772
2 1 3.88247 3.96845 23.2075
3 1 1.85631 1.16511 21.9114
4 1 4.89622 1.98272 22.3588
5 1 3.88211 1.26956 26.66
6 1 2.4688 3.17779 21.1024
7 1 6.29884 2.16425 26.6451
8 1 2.48803 2.3862 24.3528
9 1 4.83588 1.82027 24.6871
10 1 5.72826 0.813929 20.2167
11 1 5.20407 4.23679 25.1579
12 1 5.11254 3.34844 20.3078
13 1 3.24934 1.07074 19.8091
14 1 3.39213 1.9997 15.7332
15 1 2.45155 0.150861 17.9809
16 2 3.86388 0.334385 13.2153
17 2 6.29695 4.28068 22.8614
18 2 5.02729 1.6415 17.8511
19 2 2.65558 3.31786 17.9118
20 2 0.933284 0.63531 15.6217
21 2 5.88613 3.38683 15.9725
22 2 1.4239 1.96196 13.2946
23 2 4.90345 2.44733 11.0688
24 2 4.91652 4.39537 8.43432
25 2 4.61572 1.39589 8.31059
26 2 2.38728 4.13741 10.7976
27 2 3.78025 3.38461 13.5702
28 2 2.53007 1.215 10.8507
29 2 2.52757 2.82864 8.57201
30 2 6.23253 3.86362 6.1474
31 2 1.22317 1.16065 6.20772
32 2 5.03157 3.88453 3.74805
33 2 2.113 2.19556 3.545
34 2 4.58291 0.881969 4.02375
35 2 3.45954 2.98157 5.84592
