
     Program PWSCF v.7.5 starts on  4Dec2025 at 10:33:51 

     This program is part of the open-source Quantum ESPRESSO suite
     for quantum simulation of materials; please cite
         "P. Giannozzi et al., J. Phys.:Condens. Matter 21 395502 (2009);
         "P. Giannozzi et al., J. Phys.:Condens. Matter 29 465901 (2017);
         "P. Giannozzi et al., J. Chem. Phys. 152 154105 (2020);
          URL http://www.quantum-espresso.org", 
     in publications or presentations arising from this work. More details at
     http://www.quantum-espresso.org/quote

     Parallel version (MPI & OpenMP), running on      16 processor cores
     Number of MPI processes:                 4
     Threads/MPI process:                     4

     MPI processes distributed on     1 nodes
     418401 MiB available memory on the printing compute node when the environment starts

     Reading input from qe/gap10/cu_ta_gap10.in
Warning: card &CELL ignored
Warning: card &FCP ignored
Warning: card &RISM ignored

     Current dimensions of program PWSCF are:
     Max number of different atomic species (ntypx) = 10
     Max number of k-points (npk) =  40000
     Max angular momentum in pseudopotentials (lmaxx) =  4
     file Cu.paw.z_11.ld1.psl.v1.0.0-low.upf: wavefunction(s)  4S 3D renormalized
     Message from routine setup:
     using ibrav=0 with symmetry is DISCOURAGED, use correct ibrav instead

     R & G space division:  proc/nbgrp/npool/nimage =       4
     Subspace diagonalization in iterative solution of the eigenvalue problem:
     a serial algorithm will be used


     Parallelization info
     --------------------
     sticks:   dense  smooth     PW     G-vecs:    dense   smooth      PW
     Min         480     289     73                67038    31201    3897
     Max         481     290     74                67053    31218    3902
     Sum        1921    1159    295               268181   124847   15603

     Using Slab Decomposition



     bravais-lattice index     =            0
     lattice parameter (alat)  =       9.6610  a.u.
     unit-cell volume          =    3054.9480 (a.u.)^3
     number of atoms/cell      =            7
     number of atomic types    =            2
     number of electrons       =        83.00
     number of Kohn-Sham states=           50
     kinetic-energy cutoff     =      45.0000  Ry
     charge density cutoff     =     300.0000  Ry
     scf convergence threshold =      1.0E-04
     mixing beta               =       0.3000
     number of iterations used =            8  plain     mixing
     Exchange-correlation= SLA  PW   PBX  PBC
                           (   1   4   3   4   0   0   0)

     celldm(1)=   9.661002  celldm(2)=   0.000000  celldm(3)=   0.000000
     celldm(4)=   0.000000  celldm(5)=   0.000000  celldm(6)=   0.000000

     crystal axes: (cart. coord. in units of alat)
               a(1) = (   1.000000   0.000000   0.000000 )  
               a(2) = (   0.500000   0.866025   0.000000 )  
               a(3) = (   0.000000   0.000000   3.912071 )  

     reciprocal axes: (cart. coord. in units 2 pi/alat)
               b(1) = (  1.000000 -0.577350  0.000000 )  
               b(2) = (  0.000000  1.154701  0.000000 )  
               b(3) = (  0.000000  0.000000  0.255619 )  


     PseudoPot. # 1 for Ta read from file:
     /apps/QE/pseudo/efficiency/Ta_pbe_v1.uspp.F.UPF
     MD5 check sum: f8bbe9446314a3b8ea5d9f3e3836c939
     Pseudo is Ultrasoft + core correction, Zval = 13.0
     Generated by new atomic code, or converted to UPF format
     Using radial grid of  921 points,  7 beta functions with: 
                l(1) =   0
                l(2) =   0
                l(3) =   1
                l(4) =   1
                l(5) =   2
                l(6) =   2
                l(7) =   3
     Q(r) pseudized with  6 coefficients,  rinner =    1.300   1.300   1.300
                                                       1.300   1.300   1.300
                                                       1.300

     PseudoPot. # 2 for Cu read from file:
     /apps/QE/pseudo/efficiency/Cu.paw.z_11.ld1.psl.v1.0.0-low.upf
     MD5 check sum: 619f40885d92a09a85a8b37550532d0c
     Pseudo is Projector augmented-wave + core cor, Zval = 11.0
     Generated using &quot;atomic&quot; code by A. Dal Corso  v.6.3MaX
     Shape of augmentation charge: PSQ
     Using radial grid of 1199 points,  6 beta functions with: 
                l(1) =   0
                l(2) =   0
                l(3) =   1
                l(4) =   1
                l(5) =   2
                l(6) =   2
     Q(r) pseudized with 0 coefficients 


     atomic species   valence    mass     pseudopotential
     Ta               13.00   180.94788     Ta( 1.00)
     Cu               11.00    63.54600     Cu( 1.00)

     12 Sym. Ops. (no inversion) found ( 6 have fractional translation)



   Cartesian axes

     site n.     atom                  positions (alat units)
         1        Ta     tau(   1) = (   0.0000000   0.0000000   3.0737699  )
         2        Ta     tau(   2) = (   0.5000000   0.2886751   3.0737699  )
         3        Ta     tau(   3) = (   1.0000000   0.5773503   3.0737699  )
         4        Cu     tau(   4) = (   0.7500000   0.1443376   1.1177345  )
         5        Cu     tau(   5) = (   0.2500000   0.1443376   1.1177345  )
         6        Cu     tau(   6) = (   1.0000000   0.5773503   1.1177345  )
         7        Cu     tau(   7) = (   0.5000000   0.5773503   1.1177345  )

     number of k points=     1  Methfessel-Paxton smearing, width (Ry)=  0.0200
                       cart. coord. in units 2pi/alat
        k(    1) = (   0.0000000   0.0000000   0.0000000), wk =   2.0000000

     Dense  grid:   268181 G-vectors     FFT dimensions: (  54,  54, 216)

     Smooth grid:   124847 G-vectors     FFT dimensions: (  45,  45, 162)

     Estimated max dynamical RAM per process >     421.55 MB

     Estimated total dynamical RAM >       1.65 GB

     Check: negative core charge=   -0.000002

     Initial potential from superposition of free atoms

     starting charge      82.9958, renormalised to      83.0000

     negative rho (up, down):  2.878E-01 0.000E+00
     Starting wfcs are   75 randomized atomic wfcs
     Checking if some PAW data can be deallocated... 

     total cpu time spent up to now is        9.9 secs

     per-process dynamical memory:    95.9 Mb

     Self-consistent Calculation

     iteration #  1     ecut=    45.00 Ry     beta= 0.30
     Davidson diagonalization with overlap
     ethr =  1.00E-02,  avg # of iterations =  2.0

     negative rho (up, down):  2.927E-01 0.000E+00

     total cpu time spent up to now is       21.6 secs

     total energy              =   -1273.80965305 Ry
     estimated scf accuracy    <       5.32536056 Ry

     iteration #  2     ecut=    45.00 Ry     beta= 0.30
     Davidson diagonalization with overlap
     ethr =  6.42E-03,  avg # of iterations = 11.0

     negative rho (up, down):  2.927E-01 0.000E+00

     total cpu time spent up to now is       41.6 secs

     total energy              =   -1272.56702489 Ry
     estimated scf accuracy    <     279.40863715 Ry

     iteration #  3     ecut=    45.00 Ry     beta= 0.30
     Davidson diagonalization with overlap
     ethr =  6.42E-03,  avg # of iterations = 17.0

     negative rho (up, down):  2.936E-01 0.000E+00

     total cpu time spent up to now is       60.5 secs

     total energy              =   -1275.31345468 Ry
     estimated scf accuracy    <      33.12994541 Ry

     iteration #  4     ecut=    45.00 Ry     beta= 0.30
     Davidson diagonalization with overlap
     ethr =  6.42E-03,  avg # of iterations =  1.0

     negative rho (up, down):  2.945E-01 0.000E+00

     total cpu time spent up to now is       72.5 secs

     total energy              =   -1275.60214879 Ry
     estimated scf accuracy    <       1.61631967 Ry

     iteration #  5     ecut=    45.00 Ry     beta= 0.30
     Davidson diagonalization with overlap
     ethr =  1.95E-03,  avg # of iterations =  2.0

     negative rho (up, down):  2.931E-01 0.000E+00

     total cpu time spent up to now is       84.7 secs

     total energy              =   -1275.85933676 Ry
     estimated scf accuracy    <       9.23581251 Ry

     iteration #  6     ecut=    45.00 Ry     beta= 0.30
     Davidson diagonalization with overlap
     ethr =  1.95E-03,  avg # of iterations =  2.0

     negative rho (up, down):  3.069E-01 0.000E+00

     total cpu time spent up to now is       98.6 secs

     total energy              =   -1273.69743790 Ry
     estimated scf accuracy    <      11.19040516 Ry

     iteration #  7     ecut=    45.00 Ry     beta= 0.30
     Davidson diagonalization with overlap
     ethr =  1.95E-03,  avg # of iterations = 14.0
     Minimization algorithm failed to find Fermi energy: reverting to bisection
     Possible cause: smearing is larger than the electronic band-gap.

     negative rho (up, down):  3.048E-01 0.000E+00

     total cpu time spent up to now is      128.3 secs

     total energy              =   -1281.62517618 Ry
     estimated scf accuracy    <     732.64382539 Ry

     iteration #  8     ecut=    45.00 Ry     beta= 0.30
     Davidson diagonalization with overlap
     ethr =  1.95E-03,  avg # of iterations =  1.0

     negative rho (up, down):  3.051E-01 0.000E+00

     total cpu time spent up to now is      142.6 secs

     total energy              =   -1281.92023813 Ry
     estimated scf accuracy    <     496.04431463 Ry

     iteration #  9     ecut=    45.00 Ry     beta= 0.30
     Davidson diagonalization with overlap
     ethr =  1.95E-03,  avg # of iterations =  1.0

     negative rho (up, down):  3.051E-01 0.000E+00

     total cpu time spent up to now is      156.3 secs

     total energy              =   -1281.89994727 Ry
     estimated scf accuracy    <     495.61577633 Ry

     iteration # 10     ecut=    45.00 Ry     beta= 0.30
     Davidson diagonalization with overlap
     ethr =  1.95E-03,  avg # of iterations =  1.0

     negative rho (up, down):  3.061E-01 0.000E+00

     total cpu time spent up to now is      170.6 secs

     total energy              =   -1282.12032408 Ry
     estimated scf accuracy    <     495.45487879 Ry

     iteration # 11     ecut=    45.00 Ry     beta= 0.30
     Davidson diagonalization with overlap
     ethr =  1.95E-03,  avg # of iterations =  1.0

     negative rho (up, down):  3.090E-01 0.000E+00

     total cpu time spent up to now is      185.0 secs

     total energy              =   -1279.97524682 Ry
     estimated scf accuracy    <     495.86297370 Ry

     iteration # 12     ecut=    45.00 Ry     beta= 0.30
     Davidson diagonalization with overlap
     ethr =  1.95E-03,  avg # of iterations =  1.0

     negative rho (up, down):  3.157E-01 0.000E+00

     total cpu time spent up to now is      199.0 secs

     total energy              =   -1272.90943561 Ry
     estimated scf accuracy    <     409.44728503 Ry

     iteration # 13     ecut=    45.00 Ry     beta= 0.30
     Davidson diagonalization with overlap
     ethr =  1.95E-03,  avg # of iterations =  2.0

     negative rho (up, down):  3.108E-01 0.000E+00

     total cpu time spent up to now is      213.1 secs

     total energy              =   -1276.26584425 Ry
     estimated scf accuracy    <      47.64263846 Ry

     iteration # 14     ecut=    45.00 Ry     beta= 0.30
     Davidson diagonalization with overlap
