ITEM: TIMESTEP
0
ITEM: NUMBER OF ATOMS
35
ITEM: BOX BOUNDS xy xz yz pp pp pp
0.0000000000000000e+00 7.6685730000000003e+00 2.5561910000000001e+00
0.0000000000000000e+00 4.4274529999999999e+00 0.0000000000000000e+00
0.0000000000000000e+00 3.4699264999999997e+01 0.0000000000000000e+00
ITEM: ATOMS id type x y z
1 1 2.55619 1.47582 31.082
2 1 5.11238 2.95164 31.082
3 1 0 0 31.082
4 1 5.11238 1.47582 28.7443
5 1 2.55619 2.95164 28.7443
6 1 2.55619 0 28.7443
7 1 2.55619 1.47582 26.4066
8 1 5.11238 2.95164 26.4066
9 1 0 0 26.4066
10 1 5.11238 1.47582 24.0689
11 1 2.55619 2.95164 24.0689
12 1 2.55619 0 24.0689
13 1 2.55619 1.47582 21.7312
14 1 5.11238 2.95164 21.7312
15 1 0 0 21.7312
16 2 1.2781 2.21373 14.7312
17 2 0 0 14.7312
18 2 3.83429 2.21373 14.7312
19 2 2.55619 0 14.7312
20 2 3.83429 3.68954 12.6441
21 2 2.55619 1.47582 12.6441
22 2 6.39048 3.68954 12.6441
23 2 5.11238 1.47582 12.6441
24 2 5.11238 2.95164 10.5569
25 2 3.83429 0.737909 10.5569
26 2 2.55619 2.95164 10.5569
27 2 1.2781 0.737909 10.5569
28 2 1.2781 2.21373 8.46981
29 2 0 0 8.46981
30 2 3.83429 2.21373 8.46981
31 2 2.55619 0 8.46981
32 2 3.83429 3.68954 6.38269
33 2 2.55619 1.47582 6.38269
34 2 6.39048 3.68954 6.38269
35 2 5.11238 1.47582 6.38269
ITEM: TIMESTEP
100
ITEM: NUMBER OF ATOMS
35
ITEM: BOX BOUNDS xy xz yz pp pp pp
0.0000000000000000e+00 7.6685730000000003e+00 2.5561910000000001e+00
0.0000000000000000e+00 4.4274529999999999e+00 0.0000000000000000e+00
0.0000000000000000e+00 3.4699264999999997e+01 0.0000000000000000e+00
ITEM: ATOMS id type x y z
1 1 2.9913 1.6711 30.4364
2 1 5.07226 3.15385 30.626
3 1 5.11068 0.0217079 30.5016
4 1 4.95324 1.52393 28.6902
5 1 2.3709 2.89136 28.5049
6 1 4.5084 4.3827 28.6449
7 1 2.47572 1.56666 26.4762
8 1 5.11326 3.1302 26.6992
9 1 7.44492 4.27286 26.8742
10 1 5.46549 1.3726 25.1674
11 1 3.40773 2.37734 24.1725
12 1 4.71698 4.37589 24.1141
13 1 2.6581 1.39623 22.1935
14 1 4.68132 2.96836 22.3922
15 1 5.05016 0.797644 22.0024
16 2 1.26922 2.08255 15.3558
17 2 7.54343 4.33504 15.523
18 2 3.85517 2.09684 15.8643
19 2 5.0669 4.36727 15.996
20 2 3.64858 3.76576 13.1312
21 2 2.41957 1.5783 13.0129
22 2 6.17996 3.71001 12.9639
23 2 4.90879 1.52423 12.9943
24 2 5.21117 2.8829 10.5787
25 2 3.89716 0.647858 10.5022
26 2 2.64765 2.93264 10.4984
27 2 1.40403 0.700625 10.5597
28 2 1.27801 2.19215 8.11697
29 2 5.1452 0.0162772 8.05858
30 2 3.88961 2.21411 7.87433
31 2 5.13749 4.42871 7.97283
32 2 4.01484 3.78141 5.14031
33 2 2.69707 1.5757 5.32585
34 2 6.51728 3.67246 5.63761
35 2 5.22169 1.50341 5.54114
ITEM: TIMESTEP
200
ITEM: NUMBER OF ATOMS
35
ITEM: BOX BOUNDS xy xz yz pp pp pp
0.0000000000000000e+00 7.6685730000000003e+00 2.5561910000000001e+00
0.0000000000000000e+00 4.4274529999999999e+00 0.0000000000000000e+00
0.0000000000000000e+00 3.4699264999999997e+01 0.0000000000000000e+00
ITEM: ATOMS id type x y z
1 1 3.24407 1.13886 30.169
2 1 5.37938 3.10426 30.272
3 1 2.70985 4.22772 30.1874
4 1 4.44152 1.91232 28.3541
5 1 1.7819 2.91697 28.6921
6 1 1.52317 0.193023 28.5273
7 1 2.82611 1.48363 26.7225
8 1 4.8897 3.25274 26.7143
9 1 7.17441 4.18602 26.6011
10 1 5.72545 1.85356 24.7153
11 1 3.32666 2.33747 24.6141
12 1 2.592 -0.0621943 24.5474
13 1 2.33139 1.54338 22.5577
14 1 4.75128 3.50237 22.5689
15 1 5.33141 0.23946 23.2788
16 2 6.17746 2.13525 15.941
17 2 2.49255 4.3064 16.2828
18 2 3.65153 2.02288 16.9606
19 2 5.05836 4.27796 17.2504
20 2 3.65941 3.63189 14.1281
21 2 2.29107 1.50959 13.7216
22 2 6.17632 3.80592 13.3233
23 2 4.81889 1.64361 13.3016
24 2 5.30419 2.89323 10.6269
25 2 3.97839 0.664091 10.242
26 2 2.61937 2.85348 10.3714
27 2 1.39672 0.617695 10.7724
28 2 1.28803 2.20904 7.81976
29 2 2.6533 4.46795 7.71341
30 2 3.92894 2.20898 6.92465
31 2 2.53693 0.0300352 7.03917
32 2 3.98134 3.69524 3.73426
33 2 2.79041 1.46507 4.16311
34 2 6.67277 3.8051 5.10639
35 2 5.47809 1.64031 4.86458
ITEM: TIMESTEP
300
ITEM: NUMBER OF ATOMS
35
ITEM: BOX BOUNDS xy xz yz pp pp pp
0.0000000000000000e+00 7.6685730000000003e+00 2.5561910000000001e+00
0.0000000000000000e+00 4.4274529999999999e+00 0.0000000000000000e+00
0.0000000000000000e+00 3.4699264999999997e+01 0.0000000000000000e+00
ITEM: ATOMS id type x y z
1 1 2.51289 1.08526 30.2549
2 1 5.06065 3.01917 30.2478
3 1 2.86757 4.12528 30.5157
4 1 4.59576 1.41993 28.4198
5 1 1.5483 2.98249 28.3105
6 1 1.3266 0.165703 28.3697
7 1 2.51884 1.42864 26.6648
8 1 4.90862 3.29239 26.5676
9 1 7.58429 4.41006 26.1929
10 1 6.12172 2.23285 24.908
11 1 3.76371 2.55477 24.808
12 1 5.46787 4.93618 24.7828
13 1 2.05728 1.73049 22.8706
14 1 4.91437 2.94714 22.6262
15 1 -0.00872053 0.181751 23.7182
16 2 5.94976 2.33297 16.1832
17 2 7.24877 4.46712 16.7287
18 2 3.39601 2.14423 17.5507
19 2 4.79005 4.18138 18.0498
20 2 3.9264 3.70575 14.9479
21 2 2.44707 1.54324 14.2263
22 2 6.30901 3.62769 12.9289
23 2 4.84279 1.46981 13.0845
24 2 5.31739 2.82282 10.6682
25 2 3.78111 0.638917 9.52682
26 2 2.74698 2.83494 10.5768
27 2 1.39328 0.641191 11.5968
28 2 1.30835 2.24699 8.2701
29 2 0.104679 0.0348874 7.61764
30 2 3.58395 2.32197 6.12397
31 2 2.39241 0.118186 6.18173
32 2 4.21972 3.71426 3.00229
33 2 3.03044 1.41637 3.27985
34 2 7.17262 3.59576 4.86519
35 2 5.63106 1.50821 4.61983
ITEM: TIMESTEP
400
ITEM: NUMBER OF ATOMS
35
ITEM: BOX BOUNDS xy xz yz pp pp pp
0.0000000000000000e+00 7.6685730000000003e+00 2.5561910000000001e+00
0.0000000000000000e+00 4.4274529999999999e+00 0.0000000000000000e+00
0.0000000000000000e+00 3.4699264999999997e+01 0.0000000000000000e+00
ITEM: ATOMS id type x y z
1 1 2.10289 1.56921 30.0672
2 1 4.91031 2.67764 30.1395
3 1 2.40112 4.21269 30.6225
4 1 4.26134 1.20766 28.4656
5 1 6.81645 3.27916 28.614
6 1 1.29879 -0.248363 28.53
7 1 2.37883 1.62083 27.1437
8 1 5.22433 3.18446 26.7925
9 1 5.15499 0.385416 25.9692
10 1 6.49774 2.37483 25.0706
11 1 3.45742 2.60569 25.0706
12 1 2.6599 -0.0454433 24.4349
13 1 2.43046 1.88778 22.7562
14 1 5.25303 2.77718 22.7316
15 1 5.32307 0.369056 23.4115
16 2 5.78678 2.1561 16.2731
17 2 4.20851 0.205829 16.6757
18 2 2.79512 2.37555 17.7962
19 2 4.50603 4.39345 18.3134
20 2 3.96254 3.8337 15.3151
21 2 2.68047 1.56519 14.9716
22 2 6.68115 3.49557 13.1482
23 2 4.53566 1.85612 13.099
24 2 5.1463 2.51739 10.4149
25 2 3.32399 0.749383 9.24613
26 2 2.7133 3.13617 10.8613
27 2 2.00699 0.376943 12.233
28 2 6.35421 2.23138 8.00858
29 2 0.228966 -0.0952925 7.13253
30 2 3.9608 2.00057 6.20381
31 2 2.51629 -0.0691837 5.54872
32 2 4.51042 3.60501 3.04642
33 2 3.4038 1.31898 2.88056
34 2 7.10011 3.70686 4.24282
35 2 5.79036 1.50907 4.42087
ITEM: TIMESTEP
500
ITEM: NUMBER OF ATOMS
35
ITEM: BOX BOUNDS xy xz yz pp pp pp
0.0000000000000000e+00 7.6685730000000003e+00 2.5561910000000001e+00
0.0000000000000000e+00 4.4274529999999999e+00 0.0000000000000000e+00
0.0000000000000000e+00 3.4699264999999997e+01 0.0000000000000000e+00
ITEM: ATOMS id type x y z
1 1 2.29581 1.48069 29.9094
2 1 4.82313 2.75604 30.4876
3 1 4.66314 0.339601 30.7075
4 1 4.40013 1.40833 28.3131
5 1 6.47848 3.33606 28.6977
6 1 3.8145 4.05925 28.6271
7 1 2.05784 1.32867 26.8212
8 1 5.20061 3.30872 26.6808
9 1 4.90866 0.305243 26.1984
10 1 6.22061 2.05846 24.5498
11 1 3.6732 2.40368 25.237
12 1 2.74639 0.273376 24.7193
13 1 3.29454 2.08462 23.0926
14 1 5.26349 2.91308 22.5422
15 1 0.171842 -0.0233376 23.7079
16 2 5.24499 2.12908 16.4066
17 2 3.90804 -0.128362 16.7468
18 2 2.50662 2.64682 18.1189
19 2 1.71459 0.110492 17.9768
20 2 3.7242 4.15685 15.4373
21 2 2.80655 1.62431 15.2126
22 2 6.95991 3.57116 13.9485
23 2 4.71404 1.98306 13.0423
24 2 5.42514 1.81756 10.2781
25 2 2.78752 0.712273 8.78799
26 2 2.42257 3.75125 10.5773
27 2 2.37131 0.476824 12.4446
28 2 6.23122 2.25818 7.32979
29 2 2.90644 4.14002 7.33033
30 2 3.86144 1.90454 6.16887
31 2 5.23626 4.20731 5.78297
32 2 4.83013 3.56644 2.99927
33 2 3.54662 1.28307 2.80429
34 2 2.45659 3.51236 3.86789
35 2 6.057 1.51165 4.40493
ITEM: TIMESTEP
600
ITEM: NUMBER OF ATOMS
35
ITEM: BOX BOUNDS xy xz yz pp pp pp
0.0000000000000000e+00 7.6685730000000003e+00 2.5561910000000001e+00
0.0000000000000000e+00 4.4274529999999999e+00 0.0000000000000000e+00
0.0000000000000000e+00 3.4699264999999997e+01 0.0000000000000000e+00
ITEM: ATOMS id type x y z
1 1 2.46373 1.17693 29.5857
2 1 4.73026 3.20898 30.6561
3 1 4.86145 0.792936 30.1233
4 1 4.24349 1.77762 27.9503
5 1 6.3092 3.0893 28.9209
6 1 3.56372 4.00798 28.5526
7 1 1.85118 1.40297 27.3077
8 1 5.39127 3.47033 26.825
9 1 7.57331 4.36713 26.547
10 1 6.12412 1.98581 24.7046
11 1 3.62004 2.44198 25.5382
12 1 5.16061 4.42462 24.6137
13 1 3.24384 1.65433 22.8982
14 1 5.86181 3.6116 22.5815
15 1 2.52718 4.07576 23.9266
16 2 4.96578 2.13794 16.5193
17 2 6.57807 4.08547 16.9312
18 2 2.66017 2.30076 18.5999
19 2 1.32393 0.190711 18.0214
20 2 3.7441 4.30218 15.0542
21 2 2.86872 1.94106 14.8889
22 2 6.50162 3.94009 13.5849
23 2 5.03465 1.90508 13.0343
24 2 5.51289 1.97714 10.0395
25 2 2.68197 0.584492 9.00626
26 2 2.29192 3.51738 10.5618
27 2 2.31715 0.832709 11.7854
28 2 6.08864 2.29071 7.38707
29 2 3.02311 3.94942 7.84243
30 2 3.60255 1.98785 5.63358
31 2 5.30635 3.99066 5.608
32 2 5.36922 3.29478 2.86889
33 2 3.7529 1.36885 3.04961
34 2 2.4798 3.69264 4.33839
35 2 1.10615 1.31153 4.75648
ITEM: TIMESTEP
700
ITEM: NUMBER OF ATOMS
35
ITEM: BOX BOUNDS xy xz yz pp pp pp
0.0000000000000000e+00 7.6685730000000003e+00 2.5561910000000001e+00
0.0000000000000000e+00 4.4274529999999999e+00 0.0000000000000000e+00
0.0000000000000000e+00 3.4699264999999997e+01 0.0000000000000000e+00
ITEM: ATOMS id type x y z
1 1 2.84458 1.11089 29.7181
2 1 4.03243 3.56505 30.7453
3 1 5.39131 1.28206 30.0654
4 1 4.2494 1.27604 27.9006
5 1 6.23727 3.2602 29.1771
6 1 3.35676 3.55721 28.4531
7 1 1.66056 1.88961 26.9559
8 1 5.44663 3.7074 27.088
9 1 2.71842 4.31247 26.1913
10 1 5.84082 2.43495 24.6696
11 1 3.66096 1.80804 25.6508
12 1 2.19972 -0.0309648 24.6815
13 1 3.3479 1.67684 23.2707
14 1 6.05187 3.44075 22.7476
15 1 2.64651 3.9684 23.8023
16 2 5.00623 2.12955 16.3951
17 2 6.53106 4.23155 16.7239
18 2 3.20649 1.80884 18.3209
19 2 1.16157 0.140649 17.8888
20 2 1.19822 -0.0151267 14.376
21 2 2.48908 2.05419 14.7284
22 2 6.22468 4.17354 13.5095
23 2 5.13287 1.91256 12.6455
24 2 4.54803 2.49598 10.0134
25 2 3.28454 0.575772 8.85198
26 2 2.66957 3.57527 10.9234
27 2 2.19985 0.880544 11.4797
28 2 6.02183 1.92026 7.82669
29 2 2.97608 3.73491 7.87926
30 2 3.88283 1.68911 6.35321
31 2 5.16412 3.87694 5.89203
32 2 5.6268 3.06678 2.84533
33 2 3.43268 1.49056 3.28344
34 2 2.66998 3.77291 4.43112
35 2 1.28719 1.58962 5.00846
ITEM: TIMESTEP
800
ITEM: NUMBER OF ATOMS
35
ITEM: BOX BOUNDS xy xz yz pp pp pp
0.0000000000000000e+00 7.6685730000000003e+00 2.5561910000000001e+00
0.0000000000000000e+00 4.4274529999999999e+00 0.0000000000000000e+00
0.0000000000000000e+00 3.4699264999999997e+01 0.0000000000000000e+00
ITEM: ATOMS id type x y z
1 1 2.79247 1.45541 29.8025
2 1 3.35938 3.46909 30.7428
3 1 5.61082 1.28343 30.1412
4 1 4.73585 0.943038 27.9498
5 1 6.19449 3.72811 29.7666
6 1 3.41464 3.15927 28.2988
7 1 1.65283 1.86309 27.4664
8 1 5.2082 4.20952 27.029
9 1 2.57379 3.91404 25.7962
10 1 6.24178 2.26633 24.9176
11 1 4.00039 1.83403 25.7252
12 1 2.32999 0.354741 24.6744
13 1 3.75041 1.63322 23.349
14 1 4.9876 3.1658 22.43
15 1 2.65695 4.18534 23.4068
16 2 5.03665 2.08254 15.3367
17 2 6.33034 4.09945 16.0913
18 2 3.498 1.80496 17.6915
19 2 1.27156 0.137065 17.2729
20 2 3.62164 4.2337 14.0688
21 2 2.42617 2.00418 15.056
22 2 6.19847 4.36522 13.7743
23 2 4.7746 2.30781 12.5586
24 2 4.46236 2.68639 9.90927
25 2 3.32753 0.0390683 8.97958
26 2 7.11793 4.25728 11.4512
27 2 2.25473 0.775569 11.4527
28 2 1.31691 1.7293 8.50719
29 2 3.02541 3.53011 7.68263
30 2 4.11255 1.46209 6.46312
31 2 5.18035 3.84068 6.23467
32 2 5.6021 2.89956 3.22849
33 2 3.19357 1.21497 3.60384
34 2 3.25059 4.01846 4.37018
35 2 1.33011 1.9713 5.5101
ITEM: TIMESTEP
900
ITEM: NUMBER OF ATOMS
35
ITEM: BOX BOUNDS xy xz yz pp pp pp
0.0000000000000000e+00 7.6685730000000003e+00 2.5561910000000001e+00
0.0000000000000000e+00 4.4274529999999999e+00 0.0000000000000000e+00
0.0000000000000000e+00 3.4699264999999997e+01 0.0000000000000000e+00
ITEM: ATOMS id type x y z
1 1 2.62199 1.3674 29.6561
2 1 3.539 3.55028 30.5486
3 1 4.98443 1.5338 30.2266
4 1 4.70495 0.619651 28.1498
5 1 6.20555 3.48667 29.6818
6 1 3.93754 3.29629 28.3781
7 1 1.40095 2.16446 27.6913
8 1 5.53166 4.07203 26.8399
9 1 2.69379 4.09258 25.8236
10 1 6.2971 2.21495 24.3243
11 1 4.11527 2.06133 26.0982
12 1 4.70226 4.24949 24.8844
13 1 3.52309 1.6685 23.5683
14 1 5.0364 3.66235 22.6746
15 1 2.62328 4.02578 23.2706
16 2 4.89422 2.00614 15.0219
17 2 6.29932 3.73751 16.8685
18 2 3.77158 2.2376 17.3738
19 2 1.17591 0.21875 16.4056
20 2 3.47794 4.2788 13.9574
21 2 2.33459 1.98885 15.0633
22 2 3.5447 -0.00314392 13.4775
23 2 4.5502 2.52249 12.2204
24 2 3.88567 2.51581 9.81886
25 2 6.17204 4.38339 8.96507
26 2 7.43277 3.91414 11.1115
27 2 1.67247 1.43502 11.5474
28 2 1.40613 1.42111 8.98676
29 2 2.96225 3.66385 7.5615
30 2 4.58453 1.55159 6.23366
31 2 5.21131 4.04952 6.56904
32 2 5.53276 2.51846 3.79766
33 2 3.31143 0.837667 3.86955
34 2 3.12487 4.14981 4.30085
35 2 2.03902 1.97134 5.98039
ITEM: TIMESTEP
1000
ITEM: NUMBER OF ATOMS
35
ITEM: BOX BOUNDS xy xz yz pp pp pp
0.0000000000000000e+00 7.6685730000000003e+00 2.5561910000000001e+00
0.0000000000000000e+00 4.4274529999999999e+00 0.0000000000000000e+00
0.0000000000000000e+00 3.4699264999999997e+01 0.0000000000000000e+00
ITEM: ATOMS id type x y z
1 1 2.17055 1.16896 29.3495
2 1 3.5937 4.06302 30.6681
3 1 4.52229 1.52666 30.614
4 1 5.22138 0.594852 28.4118
5 1 6.21432 3.40837 29.6396
6 1 4.02013 2.81712 28.3188
7 1 1.69844 1.98887 26.8187
8 1 5.38958 4.49026 27.2086
9 1 2.44173 4.04642 25.9284
10 1 5.94492 2.05188 24.2777
11 1 4.08684 2.05935 26.059
12 1 4.74953 4.25012 24.7328
13 1 3.71841 1.77208 23.9201
14 1 5.52355 3.85986 22.5161
15 1 2.49163 4.11999 23.6335
16 2 4.88399 2.38135 14.9615
17 2 6.23504 3.47032 17.2227
18 2 3.83871 2.0777 17.5662
19 2 1.23908 0.490497 16.5943
20 2 3.31887 4.36533 13.5035
21 2 2.27423 2.33405 14.6023
22 2 3.28084 -0.119616 13.445
23 2 4.3373 2.33908 11.8906
24 2 3.86728 2.32706 9.10835
25 2 5.77853 4.26905 9.06721
26 2 7.38604 4.20669 11.0093
27 2 1.90125 1.5703 12.1003
28 2 1.08741 1.64103 9.07538
29 2 3.16908 3.90612 7.67164
30 2 4.92455 1.33955 6.51816
31 2 5.58529 3.9379 6.23717
32 2 5.56691 2.23713 4.04254
33 2 3.06164 0.720691 3.79333
34 2 3.18812 3.83379 4.51874
35 2 2.50529 2.01721 6.10403
ITEM: TIMESTEP
1100
ITEM: NUMBER OF ATOMS
35
ITEM: BOX BOUNDS xy xz yz pp pp pp
0.0000000000000000e+00 7.6685730000000003e+00 2.5561910000000001e+00
0.0000000000000000e+00 4.4274529999999999e+00 0.0000000000000000e+00
0.0000000000000000e+00 3.4699264999999997e+01 0.0000000000000000e+00
ITEM: ATOMS id type x y z
1 1 2.09943 1.21078 29.3047
2 1 3.29988 4.04216 30.4323
3 1 4.20863 1.62511 30.6935
4 1 5.17772 0.369007 28.3128
5 1 6.06909 3.38321 29.6122
6 1 3.97003 2.75881 28.4274
7 1 1.65673 1.89421 26.733
8 1 2.90176 -0.375213 27.4164
9 1 2.75168 4.35965 26.0849
10 1 6.18891 2.08139 23.9522
11 1 4.06925 2.11697 26.2628
12 1 5.17518 4.51476 25.184
13 1 3.21075 1.77112 23.3977
14 1 5.45042 3.93327 22.9243
15 1 2.86544 4.26402 23.6511
16 2 4.67667 2.29115 15.1478
17 2 6.43712 3.40968 17.0196
18 2 3.59139 1.74218 17.4205
19 2 1.32474 0.383941 16.6816
20 2 3.17007 4.83633 13.5776
21 2 2.25589 2.1758 14.9218
22 2 5.75244 4.34803 13.8638
23 2 4.97594 2.79518 11.7869
24 2 3.95419 1.63175 9.28129
25 2 4.90001 3.9629 9.2659
26 2 7.43359 4.37883 10.7742
27 2 2.25782 1.86894 11.6968
28 2 1.32711 2.06189 9.38616
29 2 3.09624 4.14639 7.72392
30 2 4.77168 1.64805 6.3418
31 2 5.90235 3.78249 5.92197
32 2 5.60825 2.02791 3.67536
33 2 3.02417 0.798863 3.52134
34 2 3.36215 3.75395 4.46748
35 2 2.21155 1.67265 6.45365
ITEM: TIMESTEP
1200
ITEM: NUMBER OF ATOMS
35
ITEM: BOX BOUNDS xy xz yz pp pp pp
0.0000000000000000e+00 7.6685730000000003e+00 2.5561910000000001e+00
0.0000000000000000e+00 4.4274529999999999e+00 0.0000000000000000e+00
0.0000000000000000e+00 3.4699264999999997e+01 0.0000000000000000e+00
ITEM: ATOMS id type x y z
1 1 2.05335 1.06855 29.6551
2 1 3.10389 3.68271 30.6223
3 1 4.26945 1.43604 30.4402
4 1 4.95815 0.800987 28.3137
5 1 5.69099 3.35492 30.0947
6 1 3.60559 2.9034 28.31
7 1 1.71081 1.75421 27.321
8 1 5.69891 3.7771 27.3524
9 1 2.90812 4.45565 25.893
10 1 6.18364 2.09513 24.5041
11 1 4.28435 2.42425 25.5454
12 1 2.84923 0.352645 25.129
13 1 3.96413 1.9602 23.2891
14 1 5.10235 3.98891 22.9006
15 1 2.56193 4.06993 23.3414
16 2 4.67126 2.11233 15.3098
17 2 6.416 3.56963 17.0295
18 2 3.34727 1.55151 17.5543
19 2 1.15642 -0.0932739 16.5355
20 2 0.641168 0.436927 13.3943
21 2 2.18425 2.34637 14.6468
22 2 5.96021 4.48838 14.5677
23 2 5.48649 3.44794 12.0353
24 2 3.95156 1.15416 8.86136
25 2 4.41044 4.10014 9.40055
26 2 7.87414 4.20158 11.2082
27 2 3.13022 1.61185 12.1513
28 2 1.49074 2.43202 8.9993
29 2 2.56364 3.82146 7.45966
30 2 4.27689 2.31397 6.15414
31 2 6.01218 3.95481 5.60124
32 2 5.84297 1.98739 3.33598
33 2 3.31112 0.975558 3.52804
34 2 3.20796 3.6653 4.39523
35 2 1.59495 1.14982 6.64786
ITEM: TIMESTEP
1300
ITEM: NUMBER OF ATOMS
35
ITEM: BOX BOUNDS xy xz yz pp pp pp
0.0000000000000000e+00 7.6685730000000003e+00 2.5561910000000001e+00
0.0000000000000000e+00 4.4274529999999999e+00 0.0000000000000000e+00
0.0000000000000000e+00 3.4699264999999997e+01 0.0000000000000000e+00
ITEM: ATOMS id type x y z
1 1 1.70036 1.23252 29.8548
2 1 2.9244 3.29559 30.4415
3 1 4.36681 1.08749 30.6001
4 1 4.72668 1.17713 28.255
5 1 5.62435 3.30083 29.7758
6 1 3.21856 3.20516 28.1638
7 1 2.2396 1.33825 27.089
8 1 5.81573 3.7312 27.6096
9 1 5.12647 0.273641 25.8107
10 1 1.9839 2.37636 25.0093
11 1 4.14807 2.66923 25.7965
12 1 3.02538 0.176523 25.0324
13 1 4.33366 1.80541 23.3973
14 1 4.7362 4.35759 22.8274
15 1 2.27532 3.83768 23.3568
16 2 4.91537 2.3029 15.2333
17 2 5.99485 2.96667 17.6451
18 2 3.25233 1.80496 17.6345
19 2 0.869239 0.182759 16.4924
20 2 1.02493 0.216983 13.7017
21 2 2.32051 2.55398 14.1874
22 2 3.26523 0.173722 15.2646
23 2 5.7739 2.95919 12.2551
24 2 3.9666 1.31952 8.7681
25 2 4.51971 3.92629 9.03775
26 2 2.64686 4.28346 10.8367
27 2 3.73895 1.65531 12.0165
28 2 1.26257 2.14496 9.79763
29 2 2.14208 3.60091 7.54774
30 2 4.15319 2.06681 6.29258
31 2 6.04389 3.97116 5.40657
32 2 6.00768 2.24262 3.62918
33 2 3.40709 1.24108 3.31942
34 2 3.19201 3.97814 3.70495
35 2 1.41462 1.15018 5.93657
ITEM: TIMESTEP
1400
ITEM: NUMBER OF ATOMS
35
ITEM: BOX BOUNDS xy xz yz pp pp pp
0.0000000000000000e+00 7.6685730000000003e+00 2.5561910000000001e+00
0.0000000000000000e+00 4.4274529999999999e+00 0.0000000000000000e+00
0.0000000000000000e+00 3.4699264999999997e+01 0.0000000000000000e+00
ITEM: ATOMS id type x y z
1 1 1.51714 1.03543 29.6848
2 1 2.94021 3.05692 30.3626
3 1 4.16824 0.870046 30.281
4 1 4.69351 1.62711 28.1528
5 1 5.2972 3.37322 29.8724
6 1 3.29224 3.88652 28.0326
7 1 2.29003 0.993839 27.3843
8 1 6.30072 3.26425 27.1273
9 1 5.62289 0.324867 25.6896
10 1 1.72943 2.22483 25.0369
11 1 4.03998 2.50803 26.1509
12 1 3.08127 -0.0622474 25.0973
13 1 4.58815 2.03285 23.9166
14 1 4.41236 5.16237 23.1685
15 1 2.14522 3.71493 23.3354
16 2 5.0057 2.40109 14.9756
17 2 5.66649 2.79597 17.9419
18 2 3.2891 1.94497 17.3909
19 2 0.594573 0.247241 16.9439
20 2 1.28384 0.220401 13.1455
21 2 2.44301 2.60421 14.7689
22 2 3.38155 0.211857 15.3928
23 2 5.89474 3.10229 12.5498
24 2 3.88967 1.48235 8.88743
25 2 4.58467 4.03194 8.49378
26 2 2.75792 3.94321 10.6672
27 2 3.37372 1.56404 11.855
28 2 1.41393 1.6982 10.2879
29 2 1.77776 2.9788 8.03927
30 2 4.027 2.41068 5.94314
31 2 6.33313 4.05002 5.51387
32 2 5.84807 2.57664 3.2489
33 2 3.40078 1.28398 3.12437
34 2 3.50114 4.11458 3.4278
35 2 1.48935 1.02704 6.01412
ITEM: TIMESTEP
1500
ITEM: NUMBER OF ATOMS
35
ITEM: BOX BOUNDS xy xz yz pp pp pp
0.0000000000000000e+00 7.6685730000000003e+00 2.5561910000000001e+00
0.0000000000000000e+00 4.4274529999999999e+00 0.0000000000000000e+00
0.0000000000000000e+00 3.4699264999999997e+01 0.0000000000000000e+00
ITEM: ATOMS id type x y z
1 1 1.3483 0.929455 30.2816
2 1 2.74296 2.99584 30.1395
3 1 3.87557 0.723976 30.1607
4 1 4.86729 1.45643 27.9201
5 1 5.29147 3.19973 29.6014
6 1 3.51839 3.86581 28.1089
7 1 2.52426 0.898341 27.7284
8 1 6.4199 3.27576 27.5674
9 1 0.422914 0.193841 25.3592
10 1 1.6331 2.2416 25.5417
11 1 4.44792 2.70671 25.9757
12 1 5.55501 4.52656 25.1134
13 1 4.67984 2.13084 23.7534
14 1 1.71638 1.13838 23.1067
15 1 6.95225 3.87351 23.1998
16 2 4.98773 1.90295 14.8885
17 2 5.80721 3.40569 17.5135
18 2 2.98452 1.72757 17.7686
19 2 0.897124 0.205392 17.0338
20 2 0.779299 0.355425 13.0741
21 2 2.49485 2.71895 15.3122
22 2 3.20076 0.207069 15.115
23 2 5.92892 3.34122 12.5431
24 2 4.39223 1.24362 8.51538
25 2 4.18906 4.28646 8.16565
26 2 2.89215 3.27574 10.5806
27 2 3.78864 1.49773 12.4946
28 2 1.01367 1.49694 10.5311
29 2 1.81513 2.59914 7.9368
30 2 4.08591 2.8858 5.651
31 2 6.71621 4.02888 5.59513
32 2 5.92208 2.79648 3.04213
33 2 3.30268 1.17292 3.47361
34 2 3.60627 4.30707 3.47667
35 2 1.19491 1.18395 5.80769
ITEM: TIMESTEP
1600
ITEM: NUMBER OF ATOMS
35
ITEM: BOX BOUNDS xy xz yz pp pp pp
0.0000000000000000e+00 7.6685730000000003e+00 2.5561910000000001e+00
0.0000000000000000e+00 4.4274529999999999e+00 0.0000000000000000e+00
0.0000000000000000e+00 3.4699264999999997e+01 0.0000000000000000e+00
ITEM: ATOMS id type x y z
1 1 1.19128 0.557841 30.1028
2 1 2.30894 2.97241 30.0544
3 1 3.84703 0.801073 30.0527
4 1 5.30158 1.06932 27.7773
5 1 5.11634 2.82706 30.1117
6 1 3.96135 3.21128 27.9464
7 1 2.35614 1.51364 28.233
8 1 6.14026 3.63536 27.9537
9 1 0.358032 0.302772 25.3623
10 1 2.07622 2.60218 25.4549
11 1 4.50655 2.48868 25.5175
12 1 3.14882 0.520785 25.172
13 1 4.4389 2.37389 23.3876
14 1 1.62525 1.15463 23.3649
15 1 6.93975 3.84216 23.331
16 2 5.01473 1.89064 15.3952
17 2 6.01615 3.48596 17.2472
18 2 3.35718 1.64722 18.0579
19 2 0.865932 0.332497 17.0833
20 2 0.78645 -0.103889 13.2292
21 2 2.55604 2.95257 15.2634
22 2 2.56969 0.148026 14.9269
23 2 6.03391 3.30852 12.4673
24 2 4.45607 1.01214 7.9452
25 2 4.31912 3.9869 8.00965
26 2 3.47747 2.78498 10.246
27 2 3.40017 1.92958 12.8903
28 2 0.602546 1.23188 10.74
29 2 1.6874 2.68526 8.03802
30 2 4.06495 2.84877 5.86465
31 2 6.59995 4.29975 5.82116
32 2 6.1307 2.9009 3.1143
33 2 3.47064 1.41713 3.72555
34 2 3.17905 4.28927 3.13659
35 2 1.45438 1.54044 5.22459
ITEM: TIMESTEP
1700
ITEM: NUMBER OF ATOMS
35
ITEM: BOX BOUNDS xy xz yz pp pp pp
0.0000000000000000e+00 7.6685730000000003e+00 2.5561910000000001e+00
0.0000000000000000e+00 4.4274529999999999e+00 0.0000000000000000e+00
0.0000000000000000e+00 3.4699264999999997e+01 0.0000000000000000e+00
ITEM: ATOMS id type x y z
1 1 1.1358 0.657912 29.8336
2 1 2.37062 2.74408 30.0397
3 1 3.58247 0.576927 29.8543
4 1 5.04212 1.34579 27.7311
5 1 4.77926 2.6308 30.3788
6 1 3.8037 3.45976 28.0668
7 1 2.51119 1.32771 27.5584
8 1 6.28319 3.52032 27.8166
9 1 0.971184 0.301846 25.6873
10 1 2.1336 2.7073 25.8034
11 1 4.63548 2.55017 25.5511
12 1 3.50965 0.386091 25.6376
13 1 3.99606 2.5957 22.9369
14 1 1.43294 1.37411 23.4903
15 1 7.01768 3.8249 23.6759
16 2 4.89913 1.85745 15.3152
17 2 6.14708 3.30288 17.7956
18 2 3.76934 1.96883 17.6353
19 2 1.08887 0.21602 17.6764
20 2 0.465675 0.397139 13.0644
21 2 2.27469 3.09101 15.3566
22 2 2.80775 0.189407 15.2952
23 2 5.87294 3.18603 12.2452
24 2 4.44151 1.14675 8.06775
25 2 4.63089 4.41772 8.25173
26 2 3.66319 2.60777 10.2224
27 2 3.03487 1.45781 12.7341
28 2 0.586174 0.808559 10.4045
29 2 1.61116 2.47536 8.27685
30 2 3.81772 3.01984 5.65256
31 2 6.56043 4.24264 5.48367
32 2 5.71631 3.10771 3.10135
33 2 3.69764 1.56299 3.0482
34 2 3.35432 4.28152 3.05921
35 2 1.64198 1.20531 5.65587
ITEM: TIMESTEP
1800
ITEM: NUMBER OF ATOMS
35
ITEM: BOX BOUNDS xy xz yz pp pp pp
0.0000000000000000e+00 7.6685730000000003e+00 2.5561910000000001e+00
0.0000000000000000e+00 4.4274529999999999e+00 0.0000000000000000e+00
0.0000000000000000e+00 3.4699264999999997e+01 0.0000000000000000e+00
ITEM: ATOMS id type x y z
1 1 0.881478 0.511594 29.8955
2 1 2.46641 2.59886 29.9954
3 1 3.57088 0.325704 29.9198
4 1 4.69485 1.3462 27.7176
5 1 4.80775 2.93138 29.8461
6 1 3.49255 3.50273 27.7558
7 1 2.38211 1.06957 27.8542
8 1 6.34897 3.28341 27.6247
9 1 1.06532 0.397369 25.7634
10 1 2.40803 2.49488 25.7077
11 1 5.30414 2.91026 25.5226
12 1 3.57994 0.447444 25.7451
13 1 3.75308 2.51413 23.7502
14 1 1.27194 1.46359 23.7319
15 1 7.07138 4.33029 23.4599
16 2 5.28903 1.88562 15.1858
17 2 6.36219 3.22536 18.2298
18 2 3.78197 1.94531 17.3866
19 2 1.3 0.542462 17.8177
20 2 0.508869 0.0968403 13.119
21 2 2.49345 3.13667 15.2831
22 2 2.24227 0.154144 15.456
23 2 5.50766 3.02963 12.0756
24 2 4.44988 1.31996 7.58047
25 2 4.66239 4.24006 8.21445
26 2 3.37927 2.36422 10.4114
27 2 2.89036 1.32199 12.6339
28 2 0.680142 0.707829 10.4835
29 2 1.94738 3.18816 8.36566
30 2 3.97914 2.59099 5.43202
31 2 6.47268 4.33788 5.39064
32 2 5.91686 2.9524 3.24877
33 2 3.23443 1.40856 2.80662
34 2 0.993797 0.306476 3.34966
35 2 1.47099 1.3172 5.79144
ITEM: TIMESTEP
1900
ITEM: NUMBER OF ATOMS
35
ITEM: BOX BOUNDS xy xz yz pp pp pp
0.0000000000000000e+00 7.6685730000000003e+00 2.5561910000000001e+00
0.0000000000000000e+00 4.4274529999999999e+00 0.0000000000000000e+00
0.0000000000000000e+00 3.4699264999999997e+01 0.0000000000000000e+00
ITEM: ATOMS id type x y z
1 1 1.12149 0.254091 30.0708
2 1 2.2228 2.64906 30.0351
3 1 3.70637 0.533392 30.1643
4 1 4.87435 0.886657 27.8336
5 1 5.07511 2.37197 29.8495
6 1 3.43714 3.21708 28.1633
7 1 2.1294 1.33284 27.9137
8 1 5.9184 3.76757 27.7317
9 1 1.44474 0.553472 25.4539
10 1 2.41611 2.90821 25.8724
11 1 5.2487 2.66229 25.3988
12 1 3.66274 0.685237 25.6962
13 1 3.61162 2.41083 23.4264
14 1 1.3413 1.78247 23.3767
15 1 4.21195 -0.174441 23.5621
16 2 5.13413 1.77024 14.9085
17 2 6.47036 3.52963 17.7263
18 2 3.83108 1.79802 17.5209
19 2 1.20848 0.753805 17.8203
20 2 2.97526 3.56891 12.7262
21 2 2.53122 3.17909 15.5617
22 2 2.58932 0.0486233 15.3812
23 2 5.58908 3.15483 12.1925
24 2 4.61675 1.8196 7.83769
25 2 4.6354 4.41028 7.95368
26 2 3.11381 1.89111 10.2653
27 2 2.97131 1.28687 13.3691
28 2 0.519654 0.909202 10.6178
29 2 2.1952 3.31095 7.97751
30 2 3.98678 2.77455 4.94028
31 2 6.2784 4.20748 5.64514
32 2 6.16763 2.95033 3.07902
33 2 3.26547 1.39537 2.96217
34 2 0.49866 0.0796125 3.7105
35 2 1.58322 1.61127 5.97563
ITEM: TIMESTEP
2000
ITEM: NUMBER OF ATOMS
35
ITEM: BOX BOUNDS xy xz yz pp pp pp
0.0000000000000000e+00 7.6685730000000003e+00 2.5561910000000001e+00
0.0000000000000000e+00 4.4274529999999999e+00 0.0000000000000000e+00
0.0000000000000000e+00 3.4699264999999997e+01 0.0000000000000000e+00
ITEM: ATOMS id type x y z
1 1 1.28 0.129743 30.4137
2 1 2.35112 2.59552 30.2421
3 1 3.67158 0.357177 29.5993
4 1 4.8743 1.26542 28.1199
5 1 4.93399 2.15411 30.6952
6 1 3.44 3.51098 27.9674
7 1 2.26187 1.23738 27.7132
8 1 6.14521 3.30822 27.8502
9 1 1.16567 0.570778 25.252
10 1 2.44981 2.88855 25.6955
11 1 4.86019 2.93124 25.2933
12 1 3.95665 0.814264 25.8549
13 1 3.86317 2.98125 23.1913
14 1 0.975187 1.47685 23.2471
15 1 6.61302 4.20636 23.7063
16 2 5.38015 1.44004 14.6044
17 2 6.24657 3.67236 18.0083
18 2 3.98358 2.18329 17.6123
19 2 1.20686 0.640671 17.3992
20 2 3.23416 3.93411 12.9072
21 2 2.61043 3.07164 15.1832
22 2 5.02235 4.14619 15.4108
23 2 5.62839 2.97621 12.0206
24 2 4.77147 1.94411 8.14175
25 2 2.35277 0.658864 8.24074
26 2 2.88707 1.62794 10.6152
27 2 3.04489 0.945765 13.0024
28 2 0.378066 0.525303 10.5187
29 2 2.25279 3.33118 8.02165
30 2 4.11226 2.65567 5.66365
31 2 6.19878 4.46551 5.66313
32 2 5.67643 2.96803 3.05258
33 2 3.08931 1.3639 2.99095
34 2 0.605506 0.271188 3.54951
35 2 1.52738 1.57173 5.46202
ITEM: TIMESTEP
2100
ITEM: NUMBER OF ATOMS
35
ITEM: BOX BOUNDS xy xz yz pp pp pp
0.0000000000000000e+00 7.6685730000000003e+00 2.5561910000000001e+00
0.0000000000000000e+00 4.4274529999999999e+00 0.0000000000000000e+00
0.0000000000000000e+00 3.4699264999999997e+01 0.0000000000000000e+00
ITEM: ATOMS id type x y z
1 1 0.865094 0.11236 30.0127
2 1 2.4006 2.27422 29.6485
3 1 6.03088 4.18955 30.2175
4 1 4.90363 1.5831 28.2143
5 1 4.77948 2.42808 30.4311
6 1 3.67717 3.49033 27.8408
7 1 2.54784 1.02671 28.0086
8 1 6.47894 3.36494 27.6236
9 1 1.03638 0.651166 25.8407
10 1 2.76373 2.60746 25.3116
11 1 5.23117 2.93882 25.5243
12 1 3.90435 0.733513 25.9105
13 1 3.85737 3.58171 23.7034
14 1 5.68603 1.43677 23.2718
15 1 3.65202 0.172159 23.5813
16 2 5.19776 1.49618 14.8088
17 2 6.325 3.52108 18.2809
18 2 3.83125 2.54461 17.3059
19 2 1.10694 0.901082 17.2035
20 2 3.63415 4.09807 12.7646
21 2 2.42981 2.52953 15.1621
22 2 5.2386 4.0325 15.0438
23 2 5.62004 2.28084 11.6714
24 2 5.27456 2.12386 8.58682
25 2 2.5211 0.603259 8.16878
26 2 2.86443 1.88571 10.502
27 2 3.47584 1.08644 13.089
28 2 2.55228 4.28052 10.4183
29 2 2.36673 3.60592 8.11451
30 2 3.77939 3.08607 6.15793
31 2 4.09017 0.120304 5.45526
32 2 5.26105 2.77834 3.28844
33 2 2.79875 1.82067 3.17697
34 2 3.1506 4.16824 3.23753
35 2 1.29593 1.80066 5.5264
ITEM: TIMESTEP
2200
ITEM: NUMBER OF ATOMS
35
ITEM: BOX BOUNDS xy xz yz pp pp pp
0.0000000000000000e+00 7.6685730000000003e+00 2.5561910000000001e+00
0.0000000000000000e+00 4.4274529999999999e+00 0.0000000000000000e+00
0.0000000000000000e+00 3.4699264999999997e+01 0.0000000000000000e+00
ITEM: ATOMS id type x y z
1 1 1.12619 0.0888481 29.9265
2 1 1.83217 2.26998 30.137
3 1 3.38409 0.30054 30.1034
4 1 5.26822 0.952646 27.6877
5 1 4.50511 2.24208 29.9748
6 1 3.93672 2.99084 27.7413
7 1 2.52021 1.07557 28.0447
8 1 6.55705 3.2042 27.884
9 1 1.58326 0.479579 25.677
10 1 2.36995 2.88443 25.371
11 1 5.19513 2.83063 25.9804
12 1 4.10492 0.561869 25.7831
13 1 3.59828 3.98735 23.5554
14 1 5.67189 2.06108 23.8829
15 1 3.47409 0.387181 23.6729
16 2 4.90829 1.13169 15.1198
17 2 6.478 3.75044 17.4211
18 2 3.84623 2.3217 17.4523
19 2 1.17685 0.949099 17.3477
20 2 3.7959 3.80096 12.819
21 2 2.40997 2.7113 15.0193
22 2 5.23653 4.17771 15.5406
23 2 5.95215 2.5279 11.9574
24 2 5.38966 2.34086 9.12177
25 2 2.61383 0.439442 7.71671
26 2 2.77866 1.39388 10.167
27 2 3.55806 0.946294 12.5761
28 2 4.84502 -0.0215824 10.4776
29 2 2.407 3.79667 7.78462
30 2 4.21494 3.34106 5.58705
31 2 4.0225 0.375995 5.3599
32 2 5.42801 2.67671 3.60393
33 2 2.62399 1.23586 3.59472
34 2 5.036 0.106333 2.94806
35 2 1.25125 1.85278 6.24973
ITEM: TIMESTEP
2300
ITEM: NUMBER OF ATOMS
35
ITEM: BOX BOUNDS xy xz yz pp pp pp
0.0000000000000000e+00 7.6685730000000003e+00 2.5561910000000001e+00
0.0000000000000000e+00 4.4274529999999999e+00 0.0000000000000000e+00
0.0000000000000000e+00 3.4699264999999997e+01 0.0000000000000000e+00
ITEM: ATOMS id type x y z
1 1 0.68935 -0.0563628 30.2452
2 1 2.17287 2.31796 30.7553
3 1 3.40444 0.0995811 30.2021
4 1 5.43704 1.01395 27.7998
5 1 4.80047 2.08701 29.8727
6 1 3.62359 3.09813 27.9186
7 1 2.88225 0.779943 27.7297
8 1 6.23741 3.08062 28.178
9 1 1.47708 0.812794 25.1809
10 1 2.87999 2.79946 25.6792
11 1 5.2872 2.97343 25.94
12 1 4.04991 0.606898 25.7534
13 1 3.06735 3.77389 23.3654
14 1 5.56722 2.41597 23.6036
15 1 3.43647 0.647615 23.4439
16 2 4.9282 1.39173 14.9074
17 2 6.90361 3.85201 17.2885
18 2 3.88344 2.08077 17.5618
19 2 1.47782 0.880626 17.7484
20 2 3.73408 3.73581 12.61
21 2 2.29174 2.74648 14.8397
22 2 4.5002 4.31966 15.0405
23 2 6.44578 2.4586 12.5094
24 2 4.97192 2.58992 9.29253
25 2 2.86299 0.348245 7.84802
26 2 2.21619 1.18078 10.1302
27 2 3.51827 0.761964 12.7692
28 2 5.33492 -0.272501 10.3301
29 2 3.0166 3.72518 7.94545
30 2 3.78973 3.52784 5.4449
31 2 4.31598 0.524086 5.56561
32 2 5.44793 2.78388 3.10016
33 2 2.24561 1.06358 3.62948
34 2 5.04198 -0.0552206 2.8021
35 2 1.08609 2.16459 6.41455
ITEM: TIMESTEP
2400
ITEM: NUMBER OF ATOMS
35
ITEM: BOX BOUNDS xy xz yz pp pp pp
0.0000000000000000e+00 7.6685730000000003e+00 2.5561910000000001e+00
0.0000000000000000e+00 4.4274529999999999e+00 0.0000000000000000e+00
0.0000000000000000e+00 3.4699264999999997e+01 0.0000000000000000e+00
ITEM: ATOMS id type x y z
1 1 0.638155 0.0225809 30.055
2 1 2.44058 2.12326 30.5723
3 1 5.86234 4.16025 30.1909
4 1 4.98212 0.808878 27.7941
5 1 4.86406 2.0763 30.257
6 1 4.17026 3.17346 28.1556
7 1 2.37009 0.888428 27.6891
8 1 6.79931 3.10571 28.4744
9 1 1.68861 0.769844 25.1548
10 1 2.95488 2.69479 25.8129
11 1 5.42751 3.03564 26.0029
12 1 4.25508 0.791035 25.3954
13 1 2.68781 3.4723 23.5476
14 1 5.28745 2.8046 23.4667
15 1 3.02885 1.0819 23.3389
16 2 4.75978 1.75824 15.0488
17 2 6.73165 3.85381 17.2887
18 2 4.24661 2.28936 17.2863
19 2 1.74858 0.913633 17.6248
20 2 4.01488 3.45673 12.3901
21 2 2.1823 2.62769 15.0735
22 2 4.70041 4.41073 15.1887
23 2 6.01699 1.8324 12.6147
24 2 4.98931 2.30345 9.82152
25 2 3.54265 0.679281 7.79097
26 2 2.41883 1.41562 10.3865
27 2 3.81812 0.641017 12.7425
28 2 7.07568 4.14541 10.3177
29 2 3.25043 3.50275 7.75442
30 2 3.77949 3.36768 5.17711
31 2 4.09147 0.880669 5.08442
32 2 4.92287 2.82231 3.03769
33 2 2.14375 1.36696 3.67795
34 2 2.57015 3.93827 2.95781
35 2 6.16077 2.41106 6.4297
ITEM: TIMESTEP
2500
ITEM: NUMBER OF ATOMS
35
ITEM: BOX BOUNDS xy xz yz pp pp pp
0.0000000000000000e+00 7.6685730000000003e+00 2.5561910000000001e+00
0.0000000000000000e+00 4.4274529999999999e+00 0.0000000000000000e+00
0.0000000000000000e+00 3.4699264999999997e+01 0.0000000000000000e+00
ITEM: ATOMS id type x y z
1 1 0.98325 -0.263291 29.8374
2 1 1.98578 1.94004 30.135
3 1 5.99307 4.50531 30.0193
4 1 4.91986 0.820803 27.6222
5 1 4.7002 2.06836 30.4899
6 1 4.55313 2.88637 28.2013
7 1 2.47645 0.601136 27.6783
8 1 6.88651 3.11286 28.1579
9 1 1.68609 0.464268 25.326
10 1 3.13705 3.0943 26.2215
11 1 5.78918 2.98827 25.9951
12 1 4.33365 1.00414 25.2348
13 1 2.26532 3.61971 23.9405
14 1 4.76946 3.01166 24.0235
15 1 2.85881 1.29449 23.2808
16 2 4.88183 1.15427 15.0764
17 2 6.67682 4.16833 17.5574
18 2 4.36089 2.79819 17.6947
19 2 1.64438 1.24391 17.4133
20 2 3.78452 3.1936 12.3378
21 2 2.44359 3.03465 14.6989
22 2 5.02062 4.32876 15.0912
23 2 6.41709 1.52917 12.5777
24 2 4.83577 2.27165 10.0163
25 2 3.88304 0.979598 7.55513
26 2 2.29874 1.37289 10.0897
27 2 3.57143 0.0822979 12.7994
28 2 6.94787 3.885 10.2688
29 2 3.65464 3.79068 8.14342
30 2 4.00453 3.97452 5.53398
31 2 4.06127 0.464232 5.05806
32 2 4.68772 2.77153 3.06781
33 2 1.74273 1.35433 3.52682
34 2 2.0914 4.09018 2.71551
35 2 6.19775 2.0803 6.38186
ITEM: TIMESTEP
2600
ITEM: NUMBER OF ATOMS
35
ITEM: BOX BOUNDS xy xz yz pp pp pp
0.0000000000000000e+00 7.6685730000000003e+00 2.5561910000000001e+00
0.0000000000000000e+00 4.4274529999999999e+00 0.0000000000000000e+00
0.0000000000000000e+00 3.4699264999999997e+01 0.0000000000000000e+00
ITEM: ATOMS id type x y z
1 1 3.23828 4.31499 30.0309
2 1 1.9876 1.88506 30.3077
3 1 5.88815 4.27186 29.864
4 1 5.85615 0.628625 27.6645
5 1 4.43959 2.15192 30.6321
6 1 4.27398 2.53176 28.4495
7 1 3.1788 0.687445 27.6824
8 1 1.83872 2.89018 27.9514
9 1 1.544 1.01311 25.3528
10 1 3.44954 3.28394 25.8684
11 1 5.76148 3.2081 26.0386
12 1 4.1979 0.836605 25.7214
13 1 1.73384 3.62693 23.8948
14 1 4.37139 3.27515 23.6409
15 1 2.89307 1.12119 23.3408
16 2 5.15128 1.32234 15.1752
17 2 6.99875 4.61624 17.5309
18 2 4.00871 3.17521 17.5951
19 2 1.56155 1.9156 17.1612
20 2 3.61876 2.8202 12.3767
21 2 2.73074 2.67744 14.9426
22 2 5.11358 3.89383 15.23
23 2 1.15746 1.39973 12.6323
24 2 4.62756 2.06689 10.0994
25 2 3.94757 1.00643 7.48753
26 2 2.14556 1.22232 9.99744
27 2 6.18104 4.28066 12.3965
28 2 7.45254 3.90399 10.3291
29 2 3.85268 3.81423 8.00432
30 2 3.87163 3.72877 5.81735
31 2 3.96672 0.0943948 4.87748
32 2 4.10356 2.90201 3.39909
33 2 1.86279 1.28935 3.52398
34 2 6.78003 4.47479 2.2778
35 2 6.67565 2.33811 6.65284
ITEM: TIMESTEP
2700
ITEM: NUMBER OF ATOMS
35
ITEM: BOX BOUNDS xy xz yz pp pp pp
0.0000000000000000e+00 7.6685730000000003e+00 2.5561910000000001e+00
0.0000000000000000e+00 4.4274529999999999e+00 0.0000000000000000e+00
0.0000000000000000e+00 3.4699264999999997e+01 0.0000000000000000e+00
ITEM: ATOMS id type x y z
1 1 2.85232 4.13827 30.4177
2 1 1.93427 1.95364 30.3983
3 1 5.44558 4.06079 30.4093
4 1 1.04477 0.588635 27.9718
5 1 4.51278 1.82308 30.7991
6 1 4.73675 2.93946 28.1528
7 1 3.6834 0.599417 28.0018
8 1 2.27634 2.73053 28.0934
9 1 1.59406 1.0991 25.0083
10 1 2.5527 3.06853 25.9144
11 1 5.18456 3.59087 25.8625
12 1 4.50256 1.10927 25.2955
13 1 6.77752 3.32711 23.5637
14 1 4.19094 3.49842 23.5751
15 1 3.22647 1.36046 23.2709
16 2 5.18935 0.9252 14.9775
17 2 4.06487 0.89031 17.3509
18 2 4.06753 3.5846 17.263
19 2 1.49987 2.22173 17.5821
20 2 3.77381 2.67699 12.821
21 2 2.65108 2.18652 15.0032
22 2 5.46038 4.10521 15.0728
23 2 0.947426 1.23585 12.5573
24 2 5.25386 2.39286 10.1301
25 2 4.10269 0.634292 7.42009
26 2 2.50518 1.03659 10.3119
27 2 6.07699 4.26594 12.6327
28 2 2.27155 3.87633 10.0211
29 2 4.01953 3.50907 8.23246
30 2 3.92167 3.26391 5.51558
31 2 4.02838 0.093179 4.66824
32 2 3.88684 2.81578 2.63468
33 2 1.34107 1.75427 3.68191
34 2 3.89807 0.260648 2.24945
35 2 1.55916 2.3019 7.27739
ITEM: TIMESTEP
2800
ITEM: NUMBER OF ATOMS
35
ITEM: BOX BOUNDS xy xz yz pp pp pp
0.0000000000000000e+00 7.6685730000000003e+00 2.5561910000000001e+00
0.0000000000000000e+00 4.4274529999999999e+00 0.0000000000000000e+00
0.0000000000000000e+00 3.4699264999999997e+01 0.0000000000000000e+00
ITEM: ATOMS id type x y z
1 1 2.94273 3.85942 30.5142
2 1 1.38782 1.58297 30.2513
3 1 5.51225 3.91327 30.4033
4 1 1.36814 0.693897 27.656
5 1 4.07487 1.76049 30.0929
6 1 5.38844 2.80767 28.3212
7 1 3.785 0.556377 28.2167
8 1 2.71593 2.90893 28.4485
9 1 1.20408 1.42097 25.1175
10 1 2.71522 3.83668 25.8934
11 1 5.44241 3.4239 25.9333
12 1 3.59152 1.60797 25.7921
13 1 6.60631 3.1071 23.6942
14 1 4.10503 3.46899 23.5537
15 1 3.54231 1.09435 23.1316
16 2 5.4522 0.559538 15.0652
17 2 3.62363 1.23795 17.3823
18 2 3.97491 4.17786 17.2432
19 2 1.16918 2.40876 17.8086
20 2 3.717 2.90972 12.6308
21 2 2.39695 2.30107 15.2506
22 2 5.26612 3.5785 14.9814
23 2 1.3699 1.1824 12.4376
24 2 5.32464 2.26065 10.258
25 2 4.21595 0.272008 7.43155
26 2 2.77827 0.897306 10.0537
27 2 6.46886 4.22075 12.5168
28 2 7.83571 3.9871 10.1043
29 2 4.43311 3.65215 8.08979
30 2 4.15515 3.1164 5.4877
31 2 3.81644 0.197183 4.71427
32 2 3.91228 3.13673 2.12022
33 2 0.902743 1.89462 4.06876
34 2 3.50946 0.210908 2.10571
35 2 1.35586 1.77499 7.55288
ITEM: TIMESTEP
2900
ITEM: NUMBER OF ATOMS
35
ITEM: BOX BOUNDS xy xz yz pp pp pp
0.0000000000000000e+00 7.6685730000000003e+00 2.5561910000000001e+00
0.0000000000000000e+00 4.4274529999999999e+00 0.0000000000000000e+00
0.0000000000000000e+00 3.4699264999999997e+01 0.0000000000000000e+00
ITEM: ATOMS id type x y z
1 1 2.82163 3.86718 30.617
2 1 1.42965 1.46521 29.8749
3 1 5.46341 3.81386 30.1891
4 1 1.73591 0.677912 27.7995
5 1 3.7682 1.71271 30.1313
6 1 5.32003 2.51854 27.9863
7 1 4.3331 0.388842 27.9591
8 1 3.04046 2.90222 27.9809
9 1 0.92487 1.64107 25.2708
10 1 2.39367 3.93016 25.7572
11 1 5.13556 3.89014 25.9454
12 1 3.43126 1.71083 25.9542
13 1 6.8436 3.05032 23.6798
14 1 4.14457 3.53395 24.0435
15 1 3.48035 1.07548 24.0791
16 2 4.96706 0.61091 14.8722
17 2 3.81263 1.25992 17.3992
18 2 3.52114 4.36627 17.7276
19 2 5.94862 2.94029 17.4566
20 2 4.09372 2.7001 12.5105
21 2 2.58943 2.11006 15.1959
22 2 4.95986 3.28032 14.9926
23 2 1.71617 1.42222 12.8374
24 2 5.37674 2.09944 10.1646
25 2 4.38238 0.26336 7.39034
26 2 2.818 1.12987 9.78689
27 2 6.73706 4.36059 12.366
28 2 3.1214 3.77395 10.0888
29 2 4.45465 3.11749 7.71991
30 2 3.71704 3.20464 5.38815
31 2 3.55988 0.362547 4.76045
32 2 3.55547 3.35703 3.20676
33 2 1.22581 1.55571 3.8914
34 2 3.35302 0.32585 2.34879
35 2 1.80895 1.68847 7.11208
ITEM: TIMESTEP
3000
ITEM: NUMBER OF ATOMS
35
ITEM: BOX BOUNDS xy xz yz pp pp pp
0.0000000000000000e+00 7.6685730000000003e+00 2.5561910000000001e+00
0.0000000000000000e+00 4.4274529999999999e+00 0.0000000000000000e+00
0.0000000000000000e+00 3.4699264999999997e+01 0.0000000000000000e+00
ITEM: ATOMS id type x y z
1 1 2.5494 3.93815 30.4249
2 1 1.44645 1.77207 30.3188
3 1 5.02823 3.83724 29.8037
4 1 1.73941 0.522191 28.0325
5 1 4.16103 1.58503 30.4331
6 1 5.89655 2.64214 27.6982
7 1 4.41358 0.463842 28.1084
8 1 2.98086 2.58742 28.5124
9 1 0.872719 1.64464 25.4879
10 1 2.17059 3.85246 25.775
11 1 4.79684 4.31072 25.6568
12 1 3.69972 2.03994 26.3923
13 1 6.82058 2.79082 23.4603
14 1 4.16217 3.45233 23.5754
15 1 3.42181 0.863739 23.8165
16 2 4.78245 0.374404 14.9848
17 2 3.55187 1.49231 17.4868
18 2 3.49228 4.33086 17.4356
19 2 6.14085 3.04715 17.1733
20 2 4.39332 2.73434 12.5526
21 2 2.35014 2.03577 15.2365
22 2 4.81175 3.90558 14.9348
23 2 1.69799 1.34012 12.5371
24 2 5.96397 2.2464 10.0694
25 2 4.64762 0.183218 7.68746
26 2 3.11642 0.674588 9.73321
27 2 6.66325 4.23248 12.3372
28 2 2.92574 3.79212 10.0789
29 2 4.8982 2.84708 8.0323
30 2 3.4191 3.4291 5.57708
31 2 3.46563 0.159617 5.21716
32 2 3.08028 3.30299 2.88667
33 2 1.02097 1.78122 3.74441
34 2 3.47789 0.399039 2.60552
35 2 1.85666 1.57701 6.8251
ITEM: TIMESTEP
3100
ITEM: NUMBER OF ATOMS
35
ITEM: BOX BOUNDS xy xz yz pp pp pp
0.0000000000000000e+00 7.6685730000000003e+00 2.5561910000000001e+00
0.0000000000000000e+00 4.4274529999999999e+00 0.0000000000000000e+00
0.0000000000000000e+00 3.4699264999999997e+01 0.0000000000000000e+00
ITEM: ATOMS id type x y z
1 1 2.64929 4.08358 30.7714
2 1 1.36237 1.63718 30.4815
3 1 5.31597 3.90499 30.2457
4 1 1.68606 0.374306 27.7125
5 1 3.79824 1.85149 31.0721
6 1 5.8134 2.8991 27.7831
7 1 4.24741 0.565005 28.0267
8 1 3.44315 2.71301 28.7073
9 1 0.594842 1.78913 25.5326
10 1 2.37548 4.08939 25.6557
11 1 4.82765 3.95432 25.5343
12 1 3.21174 1.89043 25.7169
13 1 6.712 2.80798 23.4131
14 1 4.02185 3.128 23.4435
15 1 3.98319 0.75195 23.6511
16 2 4.79221 1.12051 14.9869
17 2 3.40358 1.75719 17.3842
18 2 3.75783 4.49915 17.0785
19 2 6.0152 2.84523 17.4143
20 2 4.04831 2.54641 12.3853
21 2 2.18041 2.42045 14.6356
22 2 4.68419 3.6815 14.7443
23 2 1.77893 0.923953 12.4123
24 2 5.98156 2.10587 10.1403
25 2 4.89079 -0.274548 7.88327
26 2 3.32557 0.596617 10.1872
27 2 6.84867 4.13168 12.6779
28 2 3.63511 3.52733 10.2818
29 2 4.72827 3.34601 7.75535
30 2 3.52762 3.65635 4.86906
31 2 3.56001 -0.219303 5.47382
32 2 3.14918 3.18196 2.55906
33 2 0.341767 2.02887 4.01324
34 2 3.36864 0.534562 3.02791
35 2 1.77969 1.42744 7.13754
ITEM: TIMESTEP
3200
ITEM: NUMBER OF ATOMS
35
ITEM: BOX BOUNDS xy xz yz pp pp pp
0.0000000000000000e+00 7.6685730000000003e+00 2.5561910000000001e+00
0.0000000000000000e+00 4.4274529999999999e+00 0.0000000000000000e+00
0.0000000000000000e+00 3.4699264999999997e+01 0.0000000000000000e+00
ITEM: ATOMS id type x y z
1 1 2.61954 4.16124 30.6628
2 1 1.27858 1.75881 29.884
3 1 5.26069 4.18693 30.0411
4 1 2.05022 0.611509 27.8779
5 1 3.87721 1.93422 30.7474
6 1 5.54462 2.91662 27.8841
7 1 4.40742 0.647716 28.4252
8 1 3.13827 2.91933 28.4761
9 1 5.59403 1.61296 25.6195
10 1 2.0798 3.92303 26.0107
11 1 4.82259 3.98869 25.7206
12 1 3.31605 1.79557 25.7751
13 1 6.52509 2.32197 23.7046
14 1 3.85674 3.19059 23.6725
15 1 4.65068 0.62676 23.5321
16 2 4.6273 1.06588 14.9574
17 2 3.42535 1.63468 17.1171
18 2 0.978278 0.32168 17.004
19 2 5.89891 3.15917 17.27
20 2 4.27861 2.04501 12.6496
21 2 2.14618 2.5394 14.9672
22 2 4.96908 4.22596 14.9299
23 2 1.68091 0.614066 12.6434
24 2 6.07145 1.87159 9.6969
25 2 7.07077 4.28661 8.27791
26 2 3.60924 0.838667 10.1923
27 2 7.01376 3.85156 12.3928
28 2 3.79808 3.66594 9.90836
29 2 4.50947 2.73809 7.27796
30 2 3.3589 3.54667 4.80762
31 2 6.27275 4.35689 5.75196
32 2 2.99045 3.32931 2.17383
33 2 5.62492 1.83093 4.24674
34 2 2.89532 0.642664 3.39988
35 2 2.29329 1.6451 7.28223
ITEM: TIMESTEP
3300
ITEM: NUMBER OF ATOMS
35
ITEM: BOX BOUNDS xy xz yz pp pp pp
0.0000000000000000e+00 7.6685730000000003e+00 2.5561910000000001e+00
0.0000000000000000e+00 4.4274529999999999e+00 0.0000000000000000e+00
0.0000000000000000e+00 3.4699264999999997e+01 0.0000000000000000e+00
ITEM: ATOMS id type x y z
1 1 2.51493 4.16916 30.5163
2 1 1.35869 2.25404 30.0699
3 1 4.97295 4.19194 29.9602
4 1 2.01699 0.934093 28.09
5 1 3.87393 2.03525 29.9219
6 1 5.47839 3.08197 28.0212
7 1 4.76486 0.609296 28.2009
8 1 3.16853 3.04659 27.9794
9 1 5.77008 1.53261 26.1509
10 1 6.87165 3.75215 25.9691
11 1 4.63554 4.01479 25.4871
12 1 3.34459 1.52862 25.8864
13 1 1.61601 2.19103 24.1267
14 1 3.84534 2.91058 23.6818
15 1 4.65537 0.500131 24.2586
16 2 5.13924 0.729672 14.5995
17 2 3.36118 1.86477 17.6045
18 2 0.496701 0.31616 17.4805
19 2 5.91234 3.4651 17.3974
20 2 4.58226 2.48958 12.6532
21 2 2.21925 2.55522 15.045
22 2 4.8959 4.23043 15.0237
23 2 1.63245 0.642144 12.2611
24 2 6.23666 2.21171 9.67007
25 2 6.97878 4.20681 7.99565
26 2 3.56347 1.20005 10.5545
27 2 6.90729 3.14687 11.7239
28 2 4.12594 3.66545 9.6438
29 2 4.80939 2.31511 7.03867
30 2 3.41201 3.10566 5.11651
31 2 3.64519 0.205282 5.54511
32 2 2.65453 3.63682 2.78006
33 2 5.83972 1.94159 4.3106
34 2 2.79116 0.555539 3.15807
35 2 1.80032 1.24356 7.24469
ITEM: TIMESTEP
3400
ITEM: NUMBER OF ATOMS
35
ITEM: BOX BOUNDS xy xz yz pp pp pp
0.0000000000000000e+00 7.6685730000000003e+00 2.5561910000000001e+00
0.0000000000000000e+00 4.4274529999999999e+00 0.0000000000000000e+00
0.0000000000000000e+00 3.4699264999999997e+01 0.0000000000000000e+00
ITEM: ATOMS id type x y z
1 1 0.0788455 -0.0878625 29.9392
2 1 1.22608 2.07191 30.4609
3 1 5.11297 4.32867 30.9807
4 1 1.83575 1.05015 28.139
5 1 3.68029 2.20604 30.1532
6 1 5.97104 3.07775 28.269
7 1 4.37411 1.0374 28.1023
8 1 3.61874 3.34761 27.9881
9 1 5.55144 1.50754 26.0476
10 1 7.02063 3.74261 25.9764
11 1 4.26927 3.77892 25.5605
12 1 3.00004 1.48712 25.7727
13 1 1.59712 2.0758 23.9533
14 1 4.13002 2.64034 23.4055
15 1 4.74101 0.206086 23.8383
16 2 4.94574 0.861418 14.7708
17 2 3.32067 2.12133 17.3965
18 2 0.707695 0.496641 17.5324
19 2 5.72981 3.29648 17.6668
20 2 4.38559 2.48181 12.7205
21 2 2.352 2.30038 14.6935
22 2 5.05771 3.65311 15.1819
23 2 1.63391 0.894356 12.1487
24 2 6.25097 2.01048 9.56038
25 2 7.17025 3.93589 7.90984
26 2 4.00956 1.03337 10.1762
27 2 7.11252 3.77997 12.1624
28 2 4.08875 4.05955 9.73999
29 2 4.68618 2.52461 7.57628
30 2 3.15214 3.03167 5.33007
31 2 3.6633 0.230491 5.15129
32 2 2.52274 3.89242 3.12469
33 2 5.70822 1.92286 4.28758
34 2 2.67361 0.584066 2.64138
35 2 1.87606 0.56561 6.98188
ITEM: TIMESTEP
3500
ITEM: NUMBER OF ATOMS
35
ITEM: BOX BOUNDS xy xz yz pp pp pp
0.0000000000000000e+00 7.6685730000000003e+00 2.5561910000000001e+00
0.0000000000000000e+00 4.4274529999999999e+00 0.0000000000000000e+00
0.0000000000000000e+00 3.4699264999999997e+01 0.0000000000000000e+00
ITEM: ATOMS id type x y z
1 1 5.03523 0.0754551 30.3013
2 1 1.22557 1.98504 30.7645
3 1 5.25706 4.33274 30.7182
4 1 1.89465 1.23092 28.5248
5 1 3.87924 2.10805 30.5833
6 1 5.93438 3.51638 28.5428
7 1 4.45052 1.23904 27.9469
8 1 3.29785 3.39349 27.7915
9 1 5.57093 1.55974 25.7356
10 1 6.6734 3.53982 26.1598
11 1 4.14875 3.78735 25.7219
12 1 3.08957 1.4027 25.2798
13 1 1.47784 1.92349 23.4363
14 1 4.27894 2.58549 23.6711
15 1 7.5424 4.35765 23.6655
16 2 4.67031 0.568703 15.2692
17 2 3.27038 2.01165 16.8951
18 2 1.17494 0.618439 17.1812
19 2 6.04516 3.27715 17.6643
20 2 4.46984 2.28795 12.3099
21 2 2.15617 2.11363 14.6954
22 2 4.98588 3.59315 15.1719
23 2 1.97643 1.32374 12.4425
24 2 1.81621 2.61543 10.0776
25 2 7.1647 3.73314 7.58364
26 2 3.81753 0.878574 9.74123
27 2 6.68655 4.16277 12.7618
28 2 4.11967 3.6315 10.3379
29 2 4.45116 2.02385 7.49875
30 2 3.22535 2.99567 5.21106
31 2 3.42895 0.193541 4.98526
32 2 2.82785 3.78103 2.6102
33 2 5.51399 1.89043 4.21583
34 2 2.39799 0.943163 2.87702
35 2 1.77797 0.983863 7.13297
ITEM: TIMESTEP
3600
ITEM: NUMBER OF ATOMS
35
ITEM: BOX BOUNDS xy xz yz pp pp pp
0.0000000000000000e+00 7.6685730000000003e+00 2.5561910000000001e+00
0.0000000000000000e+00 4.4274529999999999e+00 0.0000000000000000e+00
0.0000000000000000e+00 3.4699264999999997e+01 0.0000000000000000e+00
ITEM: ATOMS id type x y z
1 1 5.11299 -0.0364825 30.504
2 1 1.34262 2.49954 30.6703
3 1 5.0164 4.51379 30.6515
4 1 2.19487 1.29345 28.1265
5 1 3.99078 2.14872 30.0904
6 1 5.48264 3.33029 28.2549
7 1 4.48675 1.18985 27.9827
8 1 2.99268 3.53955 28.3839
9 1 5.42836 1.55952 25.6645
10 1 6.68541 3.58983 26.0979
11 1 4.27711 3.59215 25.8416
12 1 2.89607 1.51891 25.6901
13 1 1.89345 1.62452 23.5015
14 1 4.4684 2.57577 23.6529
15 1 7.36678 4.23944 23.9899
16 2 4.67489 0.45323 15.2035
17 2 3.96604 2.24848 17.3354
18 2 1.49976 0.40784 17.4508
19 2 6.48196 3.53845 17.334
20 2 4.59347 2.36404 12.6839
21 2 1.84251 2.06185 14.9246
22 2 4.32587 3.59954 14.7912
23 2 1.65862 0.755456 12.2583
24 2 1.57568 2.52779 10.2749
25 2 6.99094 3.60939 7.46096
26 2 4.07774 0.959485 9.78975
27 2 6.78347 3.95947 12.6036
28 2 4.19848 4.03034 9.95982
29 2 4.3401 2.36708 7.09336
30 2 3.27413 3.56856 4.88046
31 2 3.22381 -0.154348 5.28748
32 2 2.80251 3.59825 2.47657
33 2 5.39267 1.89181 4.11885
34 2 2.62557 0.979204 2.90823
35 2 1.69131 0.81179 7.73625
ITEM: TIMESTEP
3700
ITEM: NUMBER OF ATOMS
35
ITEM: BOX BOUNDS xy xz yz pp pp pp
0.0000000000000000e+00 7.6685730000000003e+00 2.5561910000000001e+00
0.0000000000000000e+00 4.4274529999999999e+00 0.0000000000000000e+00
0.0000000000000000e+00 3.4699264999999997e+01 0.0000000000000000e+00
ITEM: ATOMS id type x y z
1 1 5.17578 0.362966 30.7372
2 1 6.52068 2.47506 30.0426
3 1 2.48032 0.428659 30.2296
4 1 1.35503 1.15496 28.1677
5 1 3.77406 2.50474 30.1153
6 1 5.54244 3.39705 28.2563
7 1 4.25355 1.10749 28.0098
8 1 3.02457 3.24021 28.1155
9 1 5.67977 1.46286 25.6946
10 1 6.80043 3.67414 25.9684
11 1 4.29515 3.83548 26.0377
12 1 3.22206 1.50312 26.1184
13 1 2.3006 1.13084 24.0243
14 1 4.46417 2.73619 24.0795
15 1 7.1675 3.89596 23.7958
16 2 4.16914 1.06349 15.013
17 2 4.71457 2.11357 17.5549
18 2 1.8195 0.73896 17.4984
19 2 7.00259 3.61175 17.2045
20 2 4.01739 1.90313 12.4747
21 2 1.78412 1.97998 15.1165
22 2 4.08427 3.65041 15.1086
23 2 1.61421 0.561276 12.4996
24 2 1.58001 2.21503 9.99787
25 2 6.7317 3.83051 8.06989
26 2 4.24367 1.19707 9.91318
27 2 7.04189 3.3152 12.1968
28 2 4.10699 3.65684 9.95187
29 2 4.48331 2.37195 6.99356
30 2 2.86492 3.74056 4.98131
31 2 5.6419 4.93848 5.46649
32 2 2.46848 3.69404 2.44621
33 2 5.56884 1.91992 3.74443
34 2 3.037 0.519874 2.94876
35 2 1.64879 0.927534 7.28943
ITEM: TIMESTEP
3800
ITEM: NUMBER OF ATOMS
35
ITEM: BOX BOUNDS xy xz yz pp pp pp
0.0000000000000000e+00 7.6685730000000003e+00 2.5561910000000001e+00
0.0000000000000000e+00 4.4274529999999999e+00 0.0000000000000000e+00
0.0000000000000000e+00 3.4699264999999997e+01 0.0000000000000000e+00
ITEM: ATOMS id type x y z
1 1 5.40696 0.450227 30.1832
2 1 6.60867 2.60883 30.3291
3 1 2.65965 0.210766 30.3851
4 1 1.31841 1.08543 28.014
5 1 4.16365 2.67915 31.0321
6 1 5.20158 3.07829 28.0825
7 1 3.93081 1.47429 28.6139
8 1 2.55999 3.39669 28.2374
9 1 5.52358 1.46303 25.7224
10 1 6.88944 3.78858 25.7647
11 1 4.36431 4.08374 25.9464
12 1 3.30802 1.79457 26.0496
13 1 2.51789 0.571278 23.8873
14 1 4.27971 2.60657 23.878
15 1 7.19301 3.77077 23.5469
16 2 3.95624 0.729187 14.7966
17 2 4.86074 2.08636 17.4572
18 2 2.55259 0.917406 17.4394
19 2 7.45809 3.76913 17.3088
20 2 4.32276 1.76763 12.3196
21 2 1.24389 2.41818 14.7971
22 2 4.27586 3.77636 15.4109
23 2 1.66833 0.385596 12.8095
24 2 1.7582 1.86823 9.68903
25 2 6.63503 4.01256 7.54041
26 2 3.94052 0.386243 10.1431
27 2 6.41114 3.3458 12.4526
28 2 4.15496 3.66816 10.2253
29 2 4.22939 2.54613 7.19599
30 2 2.73801 3.42274 5.21781
31 2 3.37038 0.894871 5.07084
32 2 2.85821 3.37336 2.65114
33 2 5.51258 2.32354 3.88346
34 2 2.62769 0.559328 2.74173
35 2 1.53829 1.21776 7.22125
ITEM: TIMESTEP
3900
ITEM: NUMBER OF ATOMS
35
ITEM: BOX BOUNDS xy xz yz pp pp pp
0.0000000000000000e+00 7.6685730000000003e+00 2.5561910000000001e+00
0.0000000000000000e+00 4.4274529999999999e+00 0.0000000000000000e+00
0.0000000000000000e+00 3.4699264999999997e+01 0.0000000000000000e+00
ITEM: ATOMS id type x y z
1 1 0.402657 0.297043 30.5466
2 1 1.72682 2.57446 30.3207
3 1 3.10497 0.186543 30.7935
4 1 1.12658 1.14801 27.8248
5 1 4.22577 2.38797 30.674
6 1 5.11687 3.4419 28.3415
7 1 3.71538 1.28764 28.5573
8 1 2.53414 3.63505 28.2245
9 1 5.82151 1.91202 25.3622
10 1 6.79469 4.24414 26.0682
11 1 4.13883 3.76707 25.8407
12 1 2.79365 1.75108 26.1541
13 1 2.50001 0.598501 23.9631
14 1 4.24258 2.25627 23.6343
15 1 2.22962 3.7083 23.6122
16 2 4.13656 0.623632 14.9493
17 2 5.45777 2.29715 17.2718
18 2 2.78774 1.00927 17.2554
19 2 2.44353 3.7777 17.4054
20 2 4.19387 2.03547 12.4103
21 2 6.40089 2.13449 14.9455
22 2 3.87613 3.80664 15.2535
23 2 1.32822 0.281487 12.695
24 2 1.37582 1.90887 9.91681
25 2 6.48787 4.13739 7.26082
26 2 4.27925 0.231468 9.88518
27 2 6.76877 3.60586 12.3902
28 2 3.97703 3.39026 10.0784
29 2 3.86594 2.72007 7.8847
30 2 3.20122 3.65068 5.21822
31 2 3.32821 0.689267 4.801
32 2 3.04091 3.21222 2.72022
33 2 5.5252 2.27862 4.51166
34 2 2.16328 0.69873 2.52223
35 2 1.51488 0.93231 6.90982
ITEM: TIMESTEP
4000
ITEM: NUMBER OF ATOMS
35
ITEM: BOX BOUNDS xy xz yz pp pp pp
0.0000000000000000e+00 7.6685730000000003e+00 2.5561910000000001e+00
0.0000000000000000e+00 4.4274529999999999e+00 0.0000000000000000e+00
0.0000000000000000e+00 3.4699264999999997e+01 0.0000000000000000e+00
ITEM: ATOMS id type x y z
1 1 0.621329 0.217962 30.3571
2 1 1.86963 2.04064 29.9917
3 1 3.2667 0.130023 30.7121
4 1 0.874728 1.61541 27.6882
5 1 4.31071 2.36394 30.3927
6 1 4.79495 4.00573 28.2508
7 1 3.80105 1.00239 28.5329
8 1 2.56071 3.33879 28.1542
9 1 5.78999 1.96878 25.3782
10 1 6.71088 4.44514 26.4114
11 1 4.24768 4.02386 26.158
12 1 2.83232 1.96739 26.141
13 1 2.33062 0.375054 24.0212
14 1 4.03927 2.18803 23.664
15 1 2.30756 3.64844 24.3128
16 2 3.98993 0.553515 14.8661
17 2 5.40545 2.49721 17.2106
18 2 2.73098 1.01825 17.2117
19 2 2.90458 4.0589 17.6749
20 2 3.82742 1.88408 12.6092
21 2 6.82093 1.88899 14.7054
22 2 3.85696 3.34438 14.9285
23 2 1.61096 0.885862 12.2973
24 2 1.45554 2.02526 10.0412
25 2 6.07029 3.69256 7.31712
26 2 4.10271 0.78415 9.63467
27 2 6.68786 3.50367 12.3971
28 2 4.37998 3.55742 10.419
29 2 3.71434 2.10284 7.39074
30 2 3.61541 3.61557 5.19862
31 2 3.40711 0.629986 4.68163
32 2 2.63791 3.1541 2.76632
33 2 5.97731 2.23529 4.86465
34 2 1.82146 0.671449 2.51178
35 2 1.17666 1.27049 7.47166
ITEM: TIMESTEP
4100
ITEM: NUMBER OF ATOMS
35
ITEM: BOX BOUNDS xy xz yz pp pp pp
0.0000000000000000e+00 7.6685730000000003e+00 2.5561910000000001e+00
0.0000000000000000e+00 4.4274529999999999e+00 0.0000000000000000e+00
0.0000000000000000e+00 3.4699264999999997e+01 0.0000000000000000e+00
ITEM: ATOMS id type x y z
1 1 0.61431 -0.0527448 30.3205
2 1 1.85729 1.95436 30.2389
3 1 3.31447 -0.0832599 30.6823
4 1 6.19039 1.51064 27.6519
5 1 4.66073 2.355 30.9278
6 1 5.13071 3.66482 28.5699
7 1 3.72112 1.5555 28.3961
8 1 2.33594 3.41531 28.1366
9 1 5.55057 2.07019 25.4232
10 1 6.57881 4.4004 26.2743
11 1 4.06622 4.34531 26.1236
12 1 3.03041 2.18207 26.1012
13 1 2.30623 0.116104 23.7882
14 1 3.83259 1.97488 23.6507
15 1 2.16059 4.06344 24.1388
16 2 4.3564 0.0145001 15.0348
17 2 5.25151 2.69854 17.0958
18 2 2.93571 1.19769 17.2542
19 2 3.05297 4.2799 17.2165
20 2 4.35323 2.19857 12.3125
21 2 1.3186 1.79617 14.9365
22 2 4.24845 3.34015 14.7403
23 2 1.26714 0.548759 12.3366
24 2 2.04878 2.73924 9.84998
25 2 5.77717 3.67163 7.23898
26 2 4.03728 0.897968 10.121
27 2 6.37693 3.78002 12.3966
28 2 4.4076 3.63875 9.85495
29 2 3.43995 1.95082 7.0584
30 2 3.64677 3.83697 5.12388
31 2 3.90717 0.860037 4.56879
32 2 1.90634 3.28412 2.85964
33 2 6.35143 1.97328 5.09997
34 2 1.60804 0.35259 2.88058
35 2 0.832133 0.26494 8.12785
ITEM: TIMESTEP
4200
ITEM: NUMBER OF ATOMS
35
ITEM: BOX BOUNDS xy xz yz pp pp pp
0.0000000000000000e+00 7.6685730000000003e+00 2.5561910000000001e+00
0.0000000000000000e+00 4.4274529999999999e+00 0.0000000000000000e+00
0.0000000000000000e+00 3.4699264999999997e+01 0.0000000000000000e+00
ITEM: ATOMS id type x y z
1 1 3.65073 4.2356 30.5965
2 1 2.03939 2.37452 30.4224
3 1 3.3384 -0.0799994 30.7452
4 1 1.27208 1.55643 28.5012
5 1 4.64397 2.05381 30.8583
6 1 5.08741 3.46014 28.1218
7 1 3.63554 1.33971 28.6539
8 1 2.474 3.65931 28.3106
9 1 5.54636 2.29882 25.2069
10 1 3.89439 0.0902486 26.0573
11 1 3.81647 4.30256 25.9933
12 1 2.68601 2.17286 25.9167
13 1 4.76077 4.2436 23.8231
14 1 3.56219 2.06582 23.7329
15 1 7.38029 4.26469 23.738
16 2 4.00451 0.404081 14.7317
17 2 5.66167 2.79908 17.4082
18 2 3.17144 1.54188 16.9377
19 2 2.94964 4.19285 17.1986
20 2 3.95175 2.17118 12.3778
21 2 1.69966 1.66746 14.8323
22 2 4.21115 3.34685 14.7654
23 2 1.43747 0.63856 12.1259
24 2 2.01386 2.38549 9.98275
25 2 5.66652 3.58163 7.32768
26 2 4.34938 0.931028 9.9828
27 2 6.6564 3.68756 12.5221
28 2 4.83728 3.62059 9.79515
29 2 3.17004 1.77462 7.52512
30 2 3.796 3.56733 5.42108
31 2 4.0881 1.09484 4.25266
32 2 6.26159 3.16981 2.8875
33 2 1.37891 1.99728 5.54509
34 2 1.63886 0.260829 2.93763
35 2 0.221042 0.443026 7.46141
ITEM: TIMESTEP
4300
ITEM: NUMBER OF ATOMS
35
ITEM: BOX BOUNDS xy xz yz pp pp pp
0.0000000000000000e+00 7.6685730000000003e+00 2.5561910000000001e+00
0.0000000000000000e+00 4.4274529999999999e+00 0.0000000000000000e+00
0.0000000000000000e+00 3.4699264999999997e+01 0.0000000000000000e+00
ITEM: ATOMS id type x y z
1 1 0.933349 0.095441 30.4069
2 1 2.73148 2.12626 30.9852
3 1 6.13099 4.33088 30.136
4 1 1.19313 1.25866 28.3487
5 1 4.99547 2.2581 30.2757
6 1 4.93466 3.47458 28.0675
7 1 3.7912 1.31066 28.126
8 1 2.4347 3.47418 28.3834
9 1 5.10746 2.187 25.3667
10 1 3.70776 0.0917439 26.1905
11 1 1.21995 0.148713 26.1211
12 1 2.41432 2.28041 26.4464
13 1 4.93763 4.19192 24.044
14 1 2.95205 2.14212 23.9643
15 1 7.6272 4.38083 24.0739
16 2 4.17158 0.571106 14.6959
17 2 5.96154 2.95974 17.1363
18 2 3.21907 1.39328 17.1687
19 2 3.18441 4.45169 17.1816
20 2 4.05263 1.94715 12.3852
21 2 1.41081 2.2917 14.6334
22 2 4.17718 3.46901 15.0571
23 2 1.4845 0.549048 12.4603
24 2 1.99186 2.02597 9.97037
25 2 5.31063 3.50179 7.52528
26 2 4.85335 0.720436 9.77278
27 2 6.64607 3.42782 12.1761
28 2 4.3939 3.78766 10.0433
29 2 2.91456 2.05074 7.66436
30 2 4.02272 3.38586 5.15909
31 2 3.91607 0.854692 4.2197
32 2 5.97458 2.84933 3.19121
33 2 1.83988 1.91721 5.33597
34 2 1.22973 0.212059 3.03699
35 2 5.56486 0.860208 7.11434
ITEM: TIMESTEP
4400
ITEM: NUMBER OF ATOMS
35
ITEM: BOX BOUNDS xy xz yz pp pp pp
0.0000000000000000e+00 7.6685730000000003e+00 2.5561910000000001e+00
0.0000000000000000e+00 4.4274529999999999e+00 0.0000000000000000e+00
0.0000000000000000e+00 3.4699264999999997e+01 0.0000000000000000e+00
ITEM: ATOMS id type x y z
1 1 1.30952 0.031396 30.5328
2 1 2.47788 2.22071 30.7564
3 1 6.43338 4.61707 30.0214
4 1 1.2552 1.19926 28.3212
5 1 5.31169 2.2527 30.1891
6 1 5.29433 3.62309 28.0348
7 1 3.8459 1.31623 28.0576
8 1 2.69406 3.21607 28.6121
9 1 4.84574 2.09312 26.1139
10 1 3.49289 0.14631 25.9003
11 1 1.06324 -0.0463834 26.3283
12 1 2.14997 2.4178 26.3493
13 1 4.94208 3.69761 23.9284
14 1 2.43597 1.92221 23.9819
15 1 7.43985 5.18422 24.0654
16 2 4.31801 0.711982 14.9525
17 2 5.90717 3.1092 17.1025
18 2 3.223 1.38988 17.2852
19 2 3.27742 4.91632 17.3159
20 2 4.47648 1.85239 12.3082
21 2 1.66694 2.21927 14.487
22 2 4.17633 3.54488 15.2746
23 2 1.29857 0.12952 12.8033
24 2 1.73779 2.12203 9.89927
25 2 5.65917 3.89334 7.70972
26 2 4.40305 0.576032 9.54974
27 2 6.458 3.85109 12.1351
28 2 4.27346 3.39313 10.1609
29 2 3.26345 2.54303 7.61086
30 2 4.44223 3.39383 5.19554
31 2 4.08702 0.25657 4.63454
32 2 5.84704 2.79004 2.63164
33 2 1.79818 1.95064 5.02036
34 2 0.743868 -0.0463486 2.70055
35 2 5.30479 0.580538 7.06042
ITEM: TIMESTEP
4500
ITEM: NUMBER OF ATOMS
35
ITEM: BOX BOUNDS xy xz yz pp pp pp
0.0000000000000000e+00 7.6685730000000003e+00 2.5561910000000001e+00
0.0000000000000000e+00 4.4274529999999999e+00 0.0000000000000000e+00
0.0000000000000000e+00 3.4699264999999997e+01 0.0000000000000000e+00
ITEM: ATOMS id type x y z
1 1 1.68699 0.0288143 30.7005
2 1 2.61105 2.42106 30.6871
3 1 3.95737 0.209331 30.7319
4 1 1.70012 1.3249 28.6422
5 1 4.82855 2.23995 30.4539
6 1 5.50136 3.3749 28.2892
7 1 4.19009 1.18509 28.1158
8 1 2.96961 3.57026 28.2662
9 1 4.62868 2.47818 26.11
10 1 3.38642 0.142456 25.6721
11 1 3.12908 4.39306 25.7148
12 1 2.00138 2.1443 26.3336
13 1 4.65059 3.47713 23.9022
14 1 2.14592 1.583 24.045
15 1 4.93836 1.02003 23.7641
16 2 4.32954 0.610889 14.9613
17 2 6.18387 3.32356 17.4388
18 2 3.17554 1.95156 17.3958
19 2 0.564452 0.498609 17.5799
20 2 4.09874 2.1243 12.553
21 2 2.16828 2.03711 14.3415
22 2 4.27964 3.47027 15.4398
23 2 1.46229 0.418313 12.2173
24 2 1.48095 1.66005 9.80458
25 2 5.61281 3.96656 7.36871
26 2 4.11122 0.614327 10.0952
27 2 6.4553 3.44733 12.356
28 2 4.09984 3.57518 9.84796
29 2 3.20029 2.35902 7.54591
30 2 4.36587 3.17932 4.97859
31 2 4.44924 0.394578 4.89032
32 2 5.49745 2.52272 2.44181
33 2 1.7414 1.92039 4.5946
34 2 3.16039 3.96617 2.72241
35 2 5.96348 1.09196 7.18157
ITEM: TIMESTEP
4600
ITEM: NUMBER OF ATOMS
35
ITEM: BOX BOUNDS xy xz yz pp pp pp
0.0000000000000000e+00 7.6685730000000003e+00 2.5561910000000001e+00
0.0000000000000000e+00 4.4274529999999999e+00 0.0000000000000000e+00
0.0000000000000000e+00 3.4699264999999997e+01 0.0000000000000000e+00
ITEM: ATOMS id type x y z
1 1 1.06478 0.124423 30.6573
2 1 2.8291 2.2967 30.5672
3 1 3.80985 -0.0421287 30.6545
4 1 1.93463 1.12085 28.413
5 1 5.35802 2.39206 30.36
6 1 5.78018 3.53639 28.3177
7 1 4.54176 1.26423 28.3306
8 1 3.3691 3.54348 28.3377
9 1 4.3449 2.23393 25.9108
10 1 3.10599 0.0087302 26.02
11 1 0.738267 0.216579 25.9935
12 1 1.84311 2.38774 26.4662
13 1 4.24276 3.62606 23.7983
14 1 2.26701 1.87263 24.0868
15 1 4.43784 0.702671 23.7338
16 2 4.78157 0.0571926 14.9687
17 2 5.91164 3.65032 17.4514
18 2 3.38109 1.94932 17.2923
19 2 0.889646 0.763276 17.4176
20 2 3.84455 2.22601 12.4049
21 2 1.71886 1.8809 15.2245
22 2 4.78088 3.76133 15.0082
23 2 1.40046 0.66496 12.3082
24 2 1.44519 2.34964 9.91756
25 2 5.91793 3.93374 7.07462
26 2 3.85748 0.505345 10.1802
27 2 6.53138 3.33806 12.3512
28 2 3.95546 3.19366 9.7368
29 2 3.40465 2.45724 7.08046
30 2 4.31705 3.31493 4.97977
31 2 4.44315 0.39234 4.86289
32 2 5.20244 2.28524 2.76802
33 2 2.09112 1.57634 4.59105
34 2 2.85603 3.68419 2.60226
35 2 0.593471 1.10628 7.45766
ITEM: TIMESTEP
4700
ITEM: NUMBER OF ATOMS
35
ITEM: BOX BOUNDS xy xz yz pp pp pp
0.0000000000000000e+00 7.6685730000000003e+00 2.5561910000000001e+00
0.0000000000000000e+00 4.4274529999999999e+00 0.0000000000000000e+00
0.0000000000000000e+00 3.4699264999999997e+01 0.0000000000000000e+00
ITEM: ATOMS id type x y z
1 1 1.26516 0.032251 30.3103
2 1 2.52527 2.48812 30.5089
3 1 3.84636 0.061858 30.2534
4 1 2.20033 1.12698 28.3015
5 1 5.44565 2.18657 30.604
6 1 6.1162 3.41245 28.236
7 1 4.86159 1.12454 28.241
8 1 3.56443 3.15741 28.1046
9 1 4.40232 2.39464 26.0433
10 1 2.73402 0.268887 26.1789
11 1 0.509325 0.304012 26.387
12 1 1.83218 2.66646 26.2143
13 1 4.04501 3.98227 24.2378
14 1 1.95401 2.13474 24.0152
15 1 4.25527 0.0719785 24.2474
16 2 5.00984 0.211751 14.8267
17 2 5.81113 3.89282 17.3789
18 2 3.99563 2.25306 16.7603
19 2 0.904798 0.614713 17.7686
20 2 3.82144 1.99889 12.6057
21 2 1.92957 1.93414 15.2267
22 2 4.81752 3.34512 14.5421
23 2 1.17565 0.566988 12.4092
24 2 1.38414 2.194 9.97146
25 2 5.81264 3.62539 7.3758
26 2 3.74207 0.847745 9.64889
27 2 6.32901 3.80265 12.4666
28 2 4.04064 3.6921 9.76611
29 2 3.13334 2.45034 7.29947
30 2 4.68317 3.54164 4.97721
31 2 4.61884 0.0385027 4.83747
32 2 5.08793 1.89245 2.9844
33 2 2.07063 1.82256 4.68536
34 2 2.47224 3.50618 2.52474
35 2 5.63488 0.814043 7.5395
ITEM: TIMESTEP
4800
ITEM: NUMBER OF ATOMS
35
ITEM: BOX BOUNDS xy xz yz pp pp pp
0.0000000000000000e+00 7.6685730000000003e+00 2.5561910000000001e+00
0.0000000000000000e+00 4.4274529999999999e+00 0.0000000000000000e+00
0.0000000000000000e+00 3.4699264999999997e+01 0.0000000000000000e+00
ITEM: ATOMS id type x y z
1 1 1.59026 0.177404 30.427
2 1 2.51655 2.34005 30.4284
3 1 3.88728 0.122506 30.8
4 1 2.57752 1.23725 28.4053
5 1 4.88137 2.50523 30.6673
6 1 6.11963 3.16547 28.5848
7 1 4.87924 0.974064 28.5031
8 1 3.40662 3.447 28.1889
9 1 4.40517 2.66443 25.9076
10 1 3.17344 0.428117 26.308
11 1 0.447604 0.344795 26.1989
12 1 1.88043 2.38848 25.9777
13 1 4.24058 4.00623 24.1952
14 1 1.4379 1.97919 23.5214
15 1 6.54398 4.2074 24.0395
16 2 4.85242 0.431299 14.9252
17 2 6.48193 4.04522 17.0099
18 2 4.24592 2.43087 16.9362
19 2 0.98189 0.518477 17.8156
20 2 3.38878 2.0697 12.2035
21 2 2.42768 1.66246 14.6989
22 2 4.7864 3.49115 14.2848
23 2 0.966844 0.868974 12.3922
24 2 1.24291 2.29827 10.0778
25 2 5.30236 3.31171 7.85724
26 2 4.01139 1.06253 9.60806
27 2 6.29496 3.70043 11.9508
28 2 3.85571 3.94309 10.1093
29 2 3.0635 2.17279 7.40983
30 2 4.67724 3.20143 4.90641
31 2 4.64421 0.485047 5.5073
32 2 4.8956 1.51769 2.79272
33 2 2.15481 1.9392 4.92677
34 2 2.13817 3.16864 2.7163
35 2 0.994146 0.674485 7.3717
ITEM: TIMESTEP
4900
ITEM: NUMBER OF ATOMS
35
ITEM: BOX BOUNDS xy xz yz pp pp pp
0.0000000000000000e+00 7.6685730000000003e+00 2.5561910000000001e+00
0.0000000000000000e+00 4.4274529999999999e+00 0.0000000000000000e+00
0.0000000000000000e+00 3.4699264999999997e+01 0.0000000000000000e+00
ITEM: ATOMS id type x y z
1 1 1.04275 0.348456 30.6868
2 1 2.70197 2.46689 30.5302
3 1 3.64557 0.236789 31.1343
4 1 2.06989 1.15963 28.3414
5 1 4.96918 2.5913 30.7072
6 1 6.23195 3.67704 28.6338
7 1 4.92078 1.26508 28.5317
8 1 3.66926 3.19355 28.3777
9 1 4.45819 2.13607 26.0672
10 1 3.39681 0.0501725 26.1193
11 1 1.00284 0.338757 26.0074
12 1 2.13139 2.58346 25.7724
13 1 3.91747 3.54893 23.6963
14 1 0.845472 1.76376 23.9294
15 1 4.29599 0.354486 23.9008
16 2 4.97425 0.51414 14.818
17 2 6.46457 3.48956 16.8369
18 2 3.92463 2.49016 17.2618
19 2 2.00527 1.04247 17.024
20 2 3.29282 2.12502 12.0454
21 2 2.40522 1.93009 14.789
22 2 4.96491 3.39652 14.4739
23 2 0.692633 1.22995 12.3883
24 2 6.63511 2.31949 9.78659
25 2 5.98107 3.45523 7.27143
26 2 4.10416 0.734339 9.68227
27 2 6.17526 4.06675 12.24
28 2 3.86896 3.87568 10.0673
29 2 3.22689 2.24796 7.48015
30 2 4.56742 3.34874 4.75117
31 2 4.21301 0.483133 5.4804
32 2 4.5697 1.19483 3.01849
33 2 1.80965 1.48044 5.14005
34 2 1.79619 3.09552 3.08555
35 2 0.893847 0.419287 7.76063
ITEM: TIMESTEP
5000
ITEM: NUMBER OF ATOMS
35
ITEM: BOX BOUNDS xy xz yz pp pp pp
0.0000000000000000e+00 7.6685730000000003e+00 2.5561910000000001e+00
0.0000000000000000e+00 4.4274529999999999e+00 0.0000000000000000e+00
0.0000000000000000e+00 3.4699264999999997e+01 0.0000000000000000e+00
ITEM: ATOMS id type x y z
1 1 0.897042 0.334482 30.2823
2 1 2.26834 2.63822 30.4065
3 1 3.70303 0.567128 30.6673
4 1 2.26561 1.35839 28.0783
5 1 5.05357 2.51729 30.542
6 1 6.03806 3.42508 28.534
7 1 4.6734 1.37439 28.5001
8 1 3.6605 3.68531 28.1701
9 1 5.19813 2.25886 26.4439
10 1 3.48576 -0.0671225 26.5419
11 1 0.802839 0.0726189 26.0171
12 1 2.52434 2.16177 26.0636
13 1 3.84804 2.96748 24.1629
14 1 1.11818 2.16927 24.1061
15 1 3.63783 0.397152 24.1874
16 2 4.95771 0.675424 15.1018
17 2 6.70671 3.44313 17.059
18 2 4.12704 2.56616 17.3452
19 2 1.82663 0.600388 16.6451
20 2 3.53555 2.73116 12.2385
21 2 2.2955 2.30465 14.4558
22 2 4.78328 3.26286 14.8897
23 2 0.802786 1.23668 12.0187
24 2 6.97088 2.31371 9.7891
25 2 5.74705 3.27329 7.27916
26 2 3.98211 0.587251 9.59663
27 2 6.07024 4.04673 12.3614
28 2 4.46231 3.67347 10.2124
29 2 3.53023 2.08782 7.38023
30 2 4.07075 3.43634 4.473
31 2 4.53442 0.189838 5.20846
32 2 4.13633 1.39159 2.90956
33 2 1.54794 1.70035 5.42426
34 2 1.5621 2.7972 3.23154
35 2 0.959839 0.570011 7.6878
ITEM: TIMESTEP
5100
ITEM: NUMBER OF ATOMS
35
ITEM: BOX BOUNDS xy xz yz pp pp pp
0.0000000000000000e+00 7.6685730000000003e+00 2.5561910000000001e+00
0.0000000000000000e+00 4.4274529999999999e+00 0.0000000000000000e+00
0.0000000000000000e+00 3.4699264999999997e+01 0.0000000000000000e+00
ITEM: ATOMS id type x y z
1 1 1.05776 0.552043 30.4758
2 1 2.31397 2.79732 30.4817
3 1 3.4943 0.338372 30.6094
4 1 2.17418 1.2895 28.3939
5 1 4.66269 2.73139 30.8142
6 1 5.77113 3.28324 28.6143
7 1 4.7533 1.2111 28.5112
8 1 3.29758 3.4398 27.9594
9 1 5.155 2.57562 26.3075
10 1 6.61254 4.45798 26.5776
11 1 1.13734 0.352652 25.3399
12 1 2.53272 2.15428 26.2434
13 1 4.14658 2.62276 24.1992
14 1 6.5881 2.36353 24.0873
15 1 3.03428 0.248852 24.3283
16 2 4.46695 0.655661 14.7185
17 2 7.08608 3.53608 17.3723
18 2 4.34593 1.85359 17.3795
19 2 1.57679 0.813308 17.0822
20 2 3.53937 2.81002 12.4843
21 2 2.01611 1.99837 14.6969
22 2 4.73977 3.61498 14.6581
23 2 0.901055 1.17134 12.2161
24 2 2.14469 2.40149 9.69818
25 2 5.91063 3.57362 7.59544
26 2 4.57108 0.896009 9.84955
27 2 6.1359 4.42832 12.453
28 2 4.63262 3.41248 9.72902
29 2 3.53189 1.93594 7.15833
30 2 4.24984 3.5275 4.3922
31 2 4.20568 0.247191 5.34238
32 2 3.61149 1.32834 2.68397
33 2 1.81535 1.855 5.27236
34 2 6.32254 2.4819 2.7576
35 2 0.844905 0.301016 7.68314
ITEM: TIMESTEP
5200
ITEM: NUMBER OF ATOMS
35
ITEM: BOX BOUNDS xy xz yz pp pp pp
0.0000000000000000e+00 7.6685730000000003e+00 2.5561910000000001e+00
0.0000000000000000e+00 4.4274529999999999e+00 0.0000000000000000e+00
0.0000000000000000e+00 3.4699264999999997e+01 0.0000000000000000e+00
ITEM: ATOMS id type x y z
1 1 0.905459 0.386031 31.0149
2 1 2.15647 2.59544 30.3661
3 1 3.21747 0.671564 30.9356
4 1 2.04067 1.08138 28.2552
5 1 4.77331 2.91319 30.7551
6 1 6.03599 3.36281 28.6261
7 1 4.59494 1.2053 28.8405
8 1 3.30516 3.39504 28.5836
9 1 4.95905 2.69836 26.1607
10 1 3.86549 0.277413 26.4736
11 1 0.988264 0.305269 25.2608
12 1 2.63625 2.2583 26.134
13 1 4.35504 2.24216 23.7506
14 1 1.88795 2.53259 23.9463
15 1 3.24161 0.182801 24.0541
16 2 4.46915 0.486857 14.7602
17 2 7.04993 3.46647 17.1295
18 2 4.34136 1.89279 16.9486
19 2 2.01936 0.511015 17.4932
20 2 3.27664 2.84636 12.471
21 2 1.93229 2.09969 15.0332
22 2 4.3173 3.6815 15.2105
23 2 1.04915 1.50752 12.4901
24 2 2.27583 2.14782 9.92994
25 2 6.29201 3.47556 7.18858
26 2 5.00505 0.767036 10.0796
27 2 5.95778 4.30243 12.0693
28 2 4.69958 3.93112 10.0618
29 2 3.72624 2.13827 7.48365
30 2 4.36053 3.54518 4.52195
31 2 4.46192 0.343657 4.71763
32 2 3.11164 1.02596 2.78062
33 2 1.47616 1.81532 4.98203
34 2 5.8184 2.29081 2.56073
35 2 1.04339 0.525842 7.23581
ITEM: TIMESTEP
5300
ITEM: NUMBER OF ATOMS
35
ITEM: BOX BOUNDS xy xz yz pp pp pp
0.0000000000000000e+00 7.6685730000000003e+00 2.5561910000000001e+00
0.0000000000000000e+00 4.4274529999999999e+00 0.0000000000000000e+00
0.0000000000000000e+00 3.4699264999999997e+01 0.0000000000000000e+00
ITEM: ATOMS id type x y z
1 1 0.629305 0.447758 30.6988
2 1 1.98337 2.62569 30.7113
3 1 3.36317 0.399562 30.713
4 1 1.91033 1.1753 28.4044
5 1 4.60997 2.68793 30.6138
6 1 5.93416 3.4288 28.4515
7 1 4.53346 1.07652 28.6484
8 1 3.41977 3.40436 28.3582
9 1 5.1515 2.54061 26.3135
10 1 3.87727 0.622551 26.4988
11 1 0.877314 0.297352 25.3547
12 1 2.47572 2.72341 26.313
13 1 4.70994 2.26525 24.0558
14 1 2.14182 2.37737 23.891
15 1 3.26001 0.135745 24.3151
16 2 4.38455 0.57906 14.7757
17 2 7.00571 3.43686 17.3807
18 2 4.57214 1.97166 17.2167
19 2 2.24039 0.337958 17.6245
20 2 3.5618 3.09981 12.3568
21 2 1.78264 2.01093 14.9009
22 2 4.40455 3.72943 14.8156
23 2 0.620087 1.47024 12.5486
24 2 2.31472 2.31489 10.0423
25 2 6.31799 3.52323 7.3636
26 2 4.79172 0.812221 9.80418
27 2 5.87796 4.25429 12.6395
28 2 4.91232 3.66917 9.69682
29 2 3.96682 2.03629 7.38617
30 2 4.27249 3.15102 4.72733
31 2 4.51841 0.37397 4.53538
32 2 2.51985 0.979167 2.50462
33 2 1.89237 2.13359 4.88431
34 2 5.21513 2.22488 2.51121
35 2 1.54226 0.65721 7.36822
ITEM: TIMESTEP
5400
ITEM: NUMBER OF ATOMS
35
ITEM: BOX BOUNDS xy xz yz pp pp pp
0.0000000000000000e+00 7.6685730000000003e+00 2.5561910000000001e+00
0.0000000000000000e+00 4.4274529999999999e+00 0.0000000000000000e+00
0.0000000000000000e+00 3.4699264999999997e+01 0.0000000000000000e+00
ITEM: ATOMS id type x y z
1 1 0.6181 0.441161 30.3565
2 1 1.92833 2.68424 30.5194
3 1 3.25155 0.317393 30.6199
4 1 2.20315 1.21824 28.2877
5 1 4.41191 2.35033 30.5567
6 1 5.88312 3.42844 28.6665
7 1 4.80715 1.3099 28.3407
8 1 3.38849 3.52785 28.4572
9 1 4.98268 2.97014 26.5153
10 1 3.36144 0.580253 26.497
11 1 1.17464 0.603397 25.6241
12 1 2.35533 2.9449 26.4612
13 1 4.75055 2.01977 24.4054
14 1 2.29368 2.23306 24.0849
15 1 5.93959 4.10433 24.1278
16 2 4.38428 0.816536 15.3544
17 2 2.32268 3.37515 17.2954
18 2 4.79224 1.99847 17.6279
19 2 1.95615 0.582831 17.1294
20 2 3.18016 2.92035 12.3095
21 2 2.01166 2.1096 14.8952
22 2 4.59449 3.43951 14.909
23 2 5.76464 1.40868 12.093
24 2 2.18751 2.22469 9.94537
25 2 6.96226 3.58053 7.36624
26 2 4.53233 0.73797 9.76424
27 2 3.31644 0.184962 12.1557
28 2 4.87851 3.47879 9.78465
29 2 4.12759 1.86636 7.12497
30 2 4.62431 3.51211 5.14143
31 2 4.29333 0.419436 4.3608
32 2 2.03092 0.673133 2.68665
33 2 1.97311 1.96959 4.91617
34 2 4.72544 2.39327 2.60207
35 2 1.52902 0.612133 7.55816
ITEM: TIMESTEP
5500
ITEM: NUMBER OF ATOMS
35
ITEM: BOX BOUNDS xy xz yz pp pp pp
0.0000000000000000e+00 7.6685730000000003e+00 2.5561910000000001e+00
0.0000000000000000e+00 4.4274529999999999e+00 0.0000000000000000e+00
0.0000000000000000e+00 3.4699264999999997e+01 0.0000000000000000e+00
ITEM: ATOMS id type x y z
1 1 0.568771 0.249687 30.8225
2 1 1.90179 2.44572 30.7074
3 1 3.14511 0.435699 30.7397
4 1 2.24455 1.48161 28.5525
5 1 4.60827 2.77118 30.56
6 1 6.15788 3.7688 28.4094
7 1 4.88939 1.2969 28.3099
8 1 3.60973 3.47186 28.6213
9 1 4.51016 3.12083 26.2497
10 1 3.56833 0.926861 26.0326
11 1 1.11087 0.915183 26.3313
12 1 1.95444 3.02679 26.118
13 1 4.97268 1.33972 23.8729
14 1 2.32742 1.80253 24.2046
15 1 5.68091 3.79625 24.2022
16 2 4.58852 0.606727 14.9154
17 2 2.52715 3.30053 17.0497
18 2 5.00956 2.36893 17.8947
19 2 2.02385 0.745943 16.8096
20 2 3.14449 3.11265 12.4515
21 2 2.02173 2.26641 14.5118
22 2 4.82171 3.36068 14.844
23 2 5.88883 1.51151 12.288
24 2 1.98427 2.06749 9.6381
25 2 2.2055 3.39364 7.20296
26 2 4.49599 0.384469 9.67142
27 2 3.17253 0.0491867 12.2473
28 2 4.1672 3.48442 9.96986
29 2 4.46434 1.71171 7.04242
30 2 4.74567 3.99707 5.48613
31 2 4.67703 0.200335 4.26803
32 2 1.42808 0.586923 2.70911
33 2 1.68991 2.11047 5.02949
34 2 4.2095 2.42192 3.23117
35 2 1.84372 0.58229 7.68486
ITEM: TIMESTEP
5600
ITEM: NUMBER OF ATOMS
35
ITEM: BOX BOUNDS xy xz yz pp pp pp
0.0000000000000000e+00 7.6685730000000003e+00 2.5561910000000001e+00
0.0000000000000000e+00 4.4274529999999999e+00 0.0000000000000000e+00
0.0000000000000000e+00 3.4699264999999997e+01 0.0000000000000000e+00
ITEM: ATOMS id type x y z
1 1 0.852401 0.451143 30.8464
2 1 2.04532 2.74511 30.657
3 1 3.12949 0.455323 30.4371
4 1 2.43272 1.52168 28.4326
5 1 4.4218 2.80418 31.0521
6 1 6.17159 3.54929 28.3445
7 1 5.01146 1.55839 28.8391
8 1 3.52063 3.87074 28.4945
9 1 4.55995 3.32862 26.3602
10 1 3.18657 1.08784 26.3769
11 1 0.539598 1.05917 26.4824
12 1 2.12223 3.38494 26.0376
13 1 5.39304 0.429736 23.5585
14 1 2.46636 1.52104 24.1363
15 1 5.28395 3.21476 23.9214
16 2 4.8052 0.659123 14.5373
17 2 2.36725 3.81986 16.8979
18 2 5.16668 2.31113 16.9601
19 2 2.56108 0.732389 17.0198
20 2 3.32638 3.2986 12.3829
21 2 2.1622 1.84847 14.5517
22 2 4.69481 3.552 14.8248
23 2 5.39131 1.59514 12.2209
24 2 1.41359 2.0255 10.218
25 2 2.13232 3.33014 7.39373
26 2 4.19207 0.542103 9.77695
27 2 5.86028 4.34891 12.3773
28 2 4.32125 3.26153 9.78577
29 2 4.89571 1.68489 6.96863
30 2 4.72074 3.98686 5.30472
31 2 4.6433 0.0584394 4.53657
32 2 1.51839 1.18358 2.49066
33 2 1.47809 1.87594 4.96717
34 2 3.62724 2.19731 3.76726
35 2 2.42766 0.332329 7.87823
ITEM: TIMESTEP
5700
ITEM: NUMBER OF ATOMS
35
ITEM: BOX BOUNDS xy xz yz pp pp pp
0.0000000000000000e+00 7.6685730000000003e+00 2.5561910000000001e+00
0.0000000000000000e+00 4.4274529999999999e+00 0.0000000000000000e+00
0.0000000000000000e+00 3.4699264999999997e+01 0.0000000000000000e+00
ITEM: ATOMS id type x y z
1 1 0.706847 0.985465 30.8375
2 1 2.04614 2.93826 30.4426
3 1 3.44705 0.573069 30.5732
4 1 2.11427 1.62157 28.3861
5 1 4.39731 2.76246 31.2573
6 1 6.16472 3.97938 28.0531
7 1 4.70176 1.74062 28.7203
8 1 3.75283 3.90929 28.8698
9 1 4.24619 3.45351 26.3199
10 1 3.42897 1.08779 26.3666
11 1 5.80483 1.28926 25.93
12 1 1.73942 3.21463 26.1064
13 1 0.683694 -0.363313 24.2656
14 1 2.70056 1.36924 23.9348
15 1 5.07648 2.56809 24.1832
16 2 4.58372 0.424223 14.459
17 2 2.62973 3.72169 16.9781
18 2 5.40123 2.08677 16.5157
19 2 2.78583 0.989685 17.2886
20 2 2.8126 3.0498 12.1968
21 2 2.4455 2.03933 14.6643
22 2 4.50472 3.81321 14.5464
23 2 5.36957 1.76973 12.4892
24 2 1.86213 1.80837 9.88289
25 2 2.36132 3.14224 7.61435
26 2 4.29027 0.539957 10.0988
27 2 5.36306 4.43442 12.1918
28 2 4.18728 3.20019 9.46642
29 2 4.73767 1.63236 7.46682
30 2 4.5981 3.71035 5.46938
31 2 4.52871 -0.0307419 4.57964
32 2 1.44943 1.25793 2.73917
33 2 1.47732 1.99921 5.17659
34 2 3.76685 2.40225 3.3
35 2 2.59478 0.601537 7.64139
ITEM: TIMESTEP
5800
ITEM: NUMBER OF ATOMS
35
ITEM: BOX BOUNDS xy xz yz pp pp pp
0.0000000000000000e+00 7.6685730000000003e+00 2.5561910000000001e+00
0.0000000000000000e+00 4.4274529999999999e+00 0.0000000000000000e+00
0.0000000000000000e+00 3.4699264999999997e+01 0.0000000000000000e+00
ITEM: ATOMS id type x y z
1 1 0.546148 0.872549 30.8551
2 1 1.91161 3.08719 30.6249
3 1 3.0228 1.02554 30.6666
4 1 2.23778 1.91091 28.14
5 1 4.79354 3.1379 30.6607
6 1 6.12328 4.19093 28.7956
7 1 4.7425 1.79674 28.5
8 1 3.42865 4.116 28.8155
9 1 4.36094 3.23588 26.8449
10 1 3.37001 1.15022 26.1379
11 1 0.809395 0.871763 26.2459
12 1 6.62786 3.29898 25.9706
13 1 3.51871 3.82879 23.9573
14 1 2.61454 1.30074 24.0474
15 1 5.32723 1.88727 24.2676
16 2 4.18048 0.224562 14.2667
17 2 3.22998 3.49606 17.3193
18 2 5.58171 2.31444 16.5639
19 2 2.89879 0.627568 17.1775
20 2 2.69887 2.97118 11.9206
21 2 2.42688 2.10214 14.7739
22 2 4.24844 3.91447 14.7576
23 2 5.34505 1.93954 12.6771
24 2 1.97787 1.67063 9.57588
25 2 2.11265 3.623 7.42893
26 2 4.61593 0.326737 10.1637
27 2 2.0725 0.268469 11.9204
28 2 4.48683 3.43303 9.7473
29 2 5.21639 1.69569 7.72808
30 2 4.05926 3.04143 5.50338
31 2 4.05743 0.436825 4.47356
32 2 1.22 0.87391 3.11544
33 2 2.05523 1.95515 5.40343
34 2 4.39109 2.88697 2.86033
35 2 2.36467 0.308965 7.28867
ITEM: TIMESTEP
5900
ITEM: NUMBER OF ATOMS
35
ITEM: BOX BOUNDS xy xz yz pp pp pp
0.0000000000000000e+00 7.6685730000000003e+00 2.5561910000000001e+00
0.0000000000000000e+00 4.4274529999999999e+00 0.0000000000000000e+00
0.0000000000000000e+00 3.4699264999999997e+01 0.0000000000000000e+00
ITEM: ATOMS id type x y z
1 1 5.68164 1.0651 31.1009
2 1 6.92323 3.31361 30.9119
3 1 3.12975 1.07734 30.5466
4 1 2.26454 2.13884 28.5442
5 1 4.33294 3.60489 30.6914
6 1 5.82464 3.98026 28.2025
7 1 4.82204 1.88465 28.7631
8 1 3.51561 4.18529 28.5529
9 1 4.74378 2.90753 26.2605
10 1 3.20157 1.07314 26.3554
11 1 0.659652 0.901208 26.5818
12 1 1.8996 3.11724 25.6044
13 1 3.88733 3.72669 24.3103
14 1 2.51681 1.25478 24.0581
15 1 5.02177 1.62401 24.3088
16 2 4.25516 0.16039 14.4383
17 2 3.16183 3.72123 17.4011
18 2 5.38711 1.89822 16.3788
19 2 3.43859 0.251033 16.889
20 2 2.54669 3.15108 12.2012
21 2 2.12202 1.91713 14.7111
22 2 4.04991 3.74542 14.9096
23 2 5.05125 2.29577 12.875
24 2 2.24878 1.95694 9.51323
25 2 2.47368 3.50302 7.40176
26 2 4.46549 0.634411 10.0994
27 2 2.31101 0.497493 12.3395
28 2 4.98467 3.2214 9.87265
29 2 4.79627 1.85543 7.47166
30 2 4.3813 3.13209 5.13723
31 2 3.7192 0.375555 4.57062
32 2 1.24413 0.82094 2.98533
33 2 1.23466 1.80107 5.2991
34 2 4.94108 2.78011 2.72859
35 2 2.47025 0.341756 7.35052
ITEM: TIMESTEP
6000
ITEM: NUMBER OF ATOMS
35
ITEM: BOX BOUNDS xy xz yz pp pp pp
0.0000000000000000e+00 7.6685730000000003e+00 2.5561910000000001e+00
0.0000000000000000e+00 4.4274529999999999e+00 0.0000000000000000e+00
0.0000000000000000e+00 3.4699264999999997e+01 0.0000000000000000e+00
ITEM: ATOMS id type x y z
1 1 5.71029 1.40096 30.8281
2 1 6.96375 3.58506 30.3815
3 1 3.1649 1.22219 30.5254
4 1 1.85129 1.76885 28.3774
5 1 4.06428 3.2461 31.0824
6 1 6.36894 4.17311 28.3185
7 1 4.61803 2.06805 28.6442
8 1 3.58429 4.03536 28.9299
9 1 4.36327 3.23566 26.6604
10 1 3.26483 0.974547 26.456
11 1 0.664691 0.750982 26.3363
12 1 1.74337 3.17013 26.0844
13 1 4.24138 3.56335 24.0616
14 1 2.67104 1.92293 24.1242
15 1 5.03283 0.874941 24.2347
16 2 4.24939 0.239831 14.4636
17 2 3.07873 3.23444 17.3354
18 2 5.45271 1.69539 16.6553
19 2 2.87782 0.221746 17.0455
20 2 2.29375 3.74176 12.1243
21 2 2.15616 1.97504 14.7846
22 2 4.32029 3.4461 14.8998
23 2 5.19437 1.95397 12.7067
24 2 2.30238 2.14718 9.94579
25 2 2.61741 3.56105 7.33471
26 2 4.97569 0.749937 9.98549
27 2 2.3383 0.614104 12.3313
28 2 4.87099 3.61222 10.156
29 2 4.75525 1.76571 7.50852
30 2 3.34489 3.55016 4.68227
31 2 3.93285 0.393302 4.56959
32 2 1.43469 0.395686 2.51447
33 2 1.31417 1.76808 5.4169
34 2 5.32668 2.70828 2.5137
35 2 2.48789 0.238139 7.51106
ITEM: TIMESTEP
6100
ITEM: NUMBER OF ATOMS
35
ITEM: BOX BOUNDS xy xz yz pp pp pp
0.0000000000000000e+00 7.6685730000000003e+00 2.5561910000000001e+00
0.0000000000000000e+00 4.4274529999999999e+00 0.0000000000000000e+00
0.0000000000000000e+00 3.4699264999999997e+01 0.0000000000000000e+00
ITEM: ATOMS id type x y z
1 1 5.42143 1.11561 30.7783
2 1 6.78152 3.34035 30.6783
3 1 2.89737 1.08975 30.5553
4 1 2.46814 2.1589 28.2865
5 1 4.61099 3.39484 31.3332
6 1 6.04599 4.09989 28.3401
7 1 4.68198 1.78074 28.6546
8 1 3.70095 4.13098 28.8005
9 1 4.14221 3.33723 26.6645
10 1 3.05858 0.991976 25.7844
11 1 5.61446 1.11234 26.505
12 1 6.92717 3.43611 26.1795
13 1 5.23222 3.43154 24.3953
14 1 2.03295 2.26578 24.088
15 1 4.8074 0.433128 24.2343
16 2 4.63147 0.431448 15.072
17 2 2.79543 2.69956 17.1063
18 2 5.36068 1.61215 17.1608
19 2 2.42038 0.0750701 17.4234
20 2 2.51719 3.48881 12.4053
21 2 2.13789 1.84058 14.7739
22 2 4.53567 3.58406 14.6151
23 2 4.82768 2.11461 12.202
24 2 2.44426 2.25671 9.89571
25 2 2.20146 3.43767 7.5363
26 2 5.11509 0.782597 9.69705
27 2 2.45627 0.760902 12.3519
28 2 4.81694 3.65337 9.96133
29 2 5.02586 2.10943 7.36428
30 2 3.72355 3.2089 4.48971
31 2 3.3765 0.672787 4.40956
32 2 1.58221 0.254784 2.32842
33 2 1.13647 2.05475 5.16155
34 2 5.85672 2.62136 2.9857
35 2 2.40086 0.30802 7.46303
ITEM: TIMESTEP
6200
ITEM: NUMBER OF ATOMS
35
ITEM: BOX BOUNDS xy xz yz pp pp pp
0.0000000000000000e+00 7.6685730000000003e+00 2.5561910000000001e+00
0.0000000000000000e+00 4.4274529999999999e+00 0.0000000000000000e+00
0.0000000000000000e+00 3.4699264999999997e+01 0.0000000000000000e+00
ITEM: ATOMS id type x y z
1 1 5.44292 0.966511 31.4059
2 1 6.94041 3.00434 30.5233
3 1 3.17254 1.01643 30.4273
4 1 2.30373 1.91286 28.2183
5 1 4.26163 3.22316 30.8395
6 1 5.93393 4.308 28.4423
7 1 4.99234 2.19768 28.8902
8 1 3.46673 4.39217 29.036
9 1 4.30342 3.35812 26.6038
10 1 2.9484 1.2428 26.0651
11 1 5.54585 1.39037 26.3211
12 1 6.84636 3.48296 26.2521
13 1 4.85743 3.60041 24.3434
14 1 2.15221 1.83443 23.8058
15 1 5.15795 0.302919 24.3126
16 2 4.7112 0.486829 15.2056
17 2 2.54827 2.84823 17.0376
18 2 5.04178 1.60849 17.7857
19 2 2.53756 -0.208804 17.2637
20 2 2.27305 3.7126 12.5226
21 2 1.8841 1.87616 14.5635
22 2 4.94895 3.31244 14.745
23 2 4.93497 2.1412 12.1949
24 2 2.50926 2.10205 9.81159
25 2 2.32925 3.67994 7.23454
26 2 4.79886 0.508235 9.94017
27 2 2.52629 0.487422 12.1305
28 2 5.23703 3.56737 9.62199
29 2 4.37087 2.05542 7.46929
30 2 3.66461 3.60389 4.976
31 2 3.75933 0.462963 4.47826
32 2 1.46626 0.0808278 2.45907
33 2 1.07163 1.88423 5.22587
34 2 6.55575 2.90464 2.5156
35 2 2.22777 0.813393 7.14848
ITEM: TIMESTEP
6300
ITEM: NUMBER OF ATOMS
35
ITEM: BOX BOUNDS xy xz yz pp pp pp
0.0000000000000000e+00 7.6685730000000003e+00 2.5561910000000001e+00
0.0000000000000000e+00 4.4274529999999999e+00 0.0000000000000000e+00
0.0000000000000000e+00 3.4699264999999997e+01 0.0000000000000000e+00
ITEM: ATOMS id type x y z
1 1 5.94502 0.855692 31.0523
2 1 1.5742 2.98307 30.3132
3 1 3.14555 0.68891 30.817
4 1 2.14499 2.31571 28.2743
5 1 4.12547 3.09748 31.297
6 1 6.06645 4.50257 28.133
7 1 4.50842 2.28786 28.7334
8 1 3.44871 4.64463 28.9833
9 1 4.22033 3.66351 26.7009
10 1 3.38514 1.25825 26.2061
11 1 5.75415 1.42036 26.5761
12 1 6.81082 3.23076 25.7911
13 1 4.82506 3.38337 24.5548
14 1 2.15034 1.66544 24.2503
15 1 5.00398 0.358108 24.0289
16 2 4.56948 0.52404 15.1387
17 2 2.35622 2.93705 16.9251
18 2 4.982 1.30115 17.72
19 2 5.01967 4.7791 17.0331
20 2 2.38585 3.68767 12.6276
21 2 2.27449 1.4552 14.4558
22 2 4.62484 3.11781 14.8871
23 2 5.07979 2.00428 12.4197
24 2 2.3563 1.98526 9.89545
25 2 1.84011 4.05725 7.24033
26 2 5.31184 0.466792 9.89022
27 2 2.21853 0.402257 12.0133
28 2 5.19483 3.55451 9.47605
29 2 4.47342 2.20459 7.49608
30 2 3.70238 3.15628 5.14291
31 2 3.91074 0.61256 4.44233
32 2 1.38833 0.25843 2.96192
33 2 6.16167 2.21001 4.54508
34 2 7.3691 2.93336 2.52518
35 2 1.88258 0.664327 7.41505
ITEM: TIMESTEP
6400
ITEM: NUMBER OF ATOMS
35
ITEM: BOX BOUNDS xy xz yz pp pp pp
0.0000000000000000e+00 7.6685730000000003e+00 2.5561910000000001e+00
0.0000000000000000e+00 4.4274529999999999e+00 0.0000000000000000e+00
0.0000000000000000e+00 3.4699264999999997e+01 0.0000000000000000e+00
ITEM: ATOMS id type x y z
1 1 0.306063 1.10019 31.4625
2 1 6.89429 3.16818 30.5628
3 1 2.96167 0.8777 30.514
4 1 2.29405 2.56829 28.0707
5 1 4.08938 3.07889 31.1212
6 1 3.5653 -0.0275695 28.4365
7 1 4.80264 2.07982 29.0072
8 1 0.865882 0.163109 28.8634
9 1 4.54866 3.52426 26.6919
10 1 3.25097 1.36624 26.1154
11 1 5.82317 1.31195 26.5114
12 1 7.24577 3.63136 25.9702
13 1 4.95561 2.91111 24.2468
14 1 1.8207 1.19487 24.1918
15 1 4.44921 0.696085 24.2092
16 2 4.83721 0.171352 14.7799
17 2 2.22911 3.08686 16.906
18 2 4.89045 1.61552 17.1049
19 2 2.22349 0.267157 17.1747
20 2 2.27493 3.29594 12.656
21 2 2.18283 1.38918 14.5146
22 2 4.53408 3.10262 14.887
23 2 4.80517 1.86818 12.2147
24 2 2.79524 2.28601 9.85759
25 2 6.54456 3.57686 7.30888
26 2 0.199929 0.505464 9.77705
27 2 2.3903 0.319693 12.1892
28 2 5.45579 3.504 10.1256
29 2 4.28718 2.2934 7.5366
30 2 3.51334 3.2865 5.09633
31 2 3.87955 0.633637 4.74466
32 2 1.78407 0.350509 3.02969
33 2 6.17235 2.506 4.86208
34 2 2.92366 2.73018 2.42079
35 2 1.55353 1.04495 6.97227
ITEM: TIMESTEP
6500
ITEM: NUMBER OF ATOMS
35
ITEM: BOX BOUNDS xy xz yz pp pp pp
0.0000000000000000e+00 7.6685730000000003e+00 2.5561910000000001e+00
0.0000000000000000e+00 4.4274529999999999e+00 0.0000000000000000e+00
0.0000000000000000e+00 3.4699264999999997e+01 0.0000000000000000e+00
ITEM: ATOMS id type x y z
1 1 4.9982 1.09801 30.9693
2 1 6.61047 3.47502 30.6327
3 1 2.67376 1.28612 30.62
4 1 2.58593 2.15877 28.5197
5 1 4.25106 3.35795 31.1367
6 1 3.93902 0.107613 28.3562
7 1 5.26778 2.49015 28.9293
8 1 3.67757 4.29081 28.806
9 1 4.60835 3.54989 26.7683
10 1 3.25719 1.35892 26.1784
11 1 5.60735 1.17526 26.5505
12 1 2.21121 3.49856 25.9939
13 1 5.15288 3.00966 24.5208
14 1 1.38703 0.892706 24.3266
15 1 4.0752 0.470498 23.9379
16 2 4.76084 0.182808 14.4642
17 2 2.11619 3.24879 17.1857
18 2 4.53738 1.72023 16.9034
19 2 4.73242 4.36452 17.12
20 2 2.05702 3.05797 12.0246
21 2 2.04385 1.7325 15.1737
22 2 4.99754 3.1481 14.3449
23 2 4.697 1.5085 12.1934
24 2 3.05565 1.92941 10.1287
25 2 6.66778 3.93559 7.55144
26 2 5.48715 0.644538 9.59849
27 2 2.17914 0.343481 12.5244
28 2 5.64532 3.42892 9.83632
29 2 3.68285 2.23934 7.53885
30 2 3.58321 3.59159 5.06994
31 2 3.86606 0.95699 5.20404
32 2 1.78644 0.592274 2.89477
33 2 6.04088 2.5024 4.52459
34 2 3.47013 2.39026 2.82849
35 2 1.78294 0.6913 6.95324
ITEM: TIMESTEP
6600
ITEM: NUMBER OF ATOMS
35
ITEM: BOX BOUNDS xy xz yz pp pp pp
0.0000000000000000e+00 7.6685730000000003e+00 2.5561910000000001e+00
0.0000000000000000e+00 4.4274529999999999e+00 0.0000000000000000e+00
0.0000000000000000e+00 3.4699264999999997e+01 0.0000000000000000e+00
ITEM: ATOMS id type x y z
1 1 5.37626 1.21103 30.609
2 1 6.36757 3.45883 30.7431
3 1 2.50132 1.29509 31.2095
4 1 2.77899 2.43505 28.1163
5 1 3.74521 3.41204 31.0602
6 1 4.06201 0.22594 28.3387
7 1 5.06413 2.65961 28.5931
8 1 1.98233 0.313816 29.1867
9 1 4.40861 3.72835 26.6569
10 1 3.32999 1.13025 26.2283
11 1 5.8864 1.37166 26.6973
12 1 6.92853 3.32265 25.8291
13 1 4.88468 2.55385 24.6843
14 1 1.52267 0.451717 24.598
15 1 3.90172 0.361434 23.9503
16 2 4.76855 0.100223 14.8619
17 2 2.01297 3.28065 17.5279
18 2 4.4011 1.51918 16.9795
19 2 1.95124 0.0568775 16.8599
20 2 1.88919 3.22803 12.2452
21 2 2.33129 1.84856 14.8206
22 2 4.93673 2.97302 14.419
23 2 4.51656 1.54076 12.0788
24 2 3.16294 1.60694 9.7205
25 2 6.78336 3.80085 7.33609
26 2 0.689426 0.427401 9.80868
27 2 1.77851 0.337781 12.1997
28 2 5.43864 3.28539 9.8494
29 2 4.42569 2.57977 7.46675
30 2 3.58224 3.82819 5.16096
31 2 3.17861 0.839638 5.13649
32 2 1.51853 0.582963 2.94995
33 2 6.33386 2.92902 4.32194
34 2 4.38333 1.9525 2.845
35 2 1.48013 1.01555 7.38551
ITEM: TIMESTEP
6700
ITEM: NUMBER OF ATOMS
35
ITEM: BOX BOUNDS xy xz yz pp pp pp
0.0000000000000000e+00 7.6685730000000003e+00 2.5561910000000001e+00
0.0000000000000000e+00 4.4274529999999999e+00 0.0000000000000000e+00
0.0000000000000000e+00 3.4699264999999997e+01 0.0000000000000000e+00
ITEM: ATOMS id type x y z
1 1 4.82463 1.19902 30.857
2 1 6.2362 3.55936 30.6204
3 1 2.59328 1.21399 31.621
4 1 2.80694 2.71692 28.5805
5 1 3.6339 3.49572 30.4858
6 1 4.55529 0.516525 28.3448
7 1 5.38562 2.52888 28.8101
8 1 1.9035 0.678533 29.0826
9 1 4.44169 3.54567 26.8457
10 1 3.22611 1.33251 26.1922
11 1 5.86504 1.57124 26.5577
12 1 7.25015 3.4758 25.969
13 1 4.69465 2.11932 24.3508
14 1 1.36567 0.291224 24.5346
15 1 3.85042 -0.187899 23.8788
16 2 4.84252 0.0764682 14.8723
17 2 1.75341 2.80363 17.218
18 2 4.4753 1.94254 17.2634
19 2 1.71409 0.184719 16.7191
20 2 1.85794 3.27857 12.4425
21 2 2.50321 1.53544 14.4851
22 2 4.86487 2.95288 14.7507
23 2 3.96257 1.91427 12.1197
24 2 3.10488 1.84691 9.3496
25 2 7.06911 4.09898 7.25266
26 2 0.108553 -0.0702721 10.025
27 2 1.91776 0.211665 12.2609
28 2 5.81558 2.78441 10.1283
29 2 4.46627 2.8132 7.1849
30 2 3.48841 4.27997 5.16312
31 2 3.36275 1.35468 5.29426
32 2 1.71355 0.0530221 2.69487
33 2 6.42104 2.82778 4.26718
34 2 4.33943 1.58205 3.01152
35 2 1.81937 1.21833 7.38989
ITEM: TIMESTEP
6800
ITEM: NUMBER OF ATOMS
35
ITEM: BOX BOUNDS xy xz yz pp pp pp
0.0000000000000000e+00 7.6685730000000003e+00 2.5561910000000001e+00
0.0000000000000000e+00 4.4274529999999999e+00 0.0000000000000000e+00
0.0000000000000000e+00 3.4699264999999997e+01 0.0000000000000000e+00
ITEM: ATOMS id type x y z
1 1 4.91297 1.43567 30.5516
2 1 6.31118 3.69078 31.0969
3 1 2.11371 1.29256 31.0321
4 1 3.18033 2.64925 28.3008
5 1 3.65102 3.25758 31.1544
6 1 4.1621 0.536585 28.5129
7 1 5.81053 2.70714 28.7032
8 1 1.54197 0.49076 28.7769
9 1 4.74533 3.67628 26.4183
10 1 3.31992 1.39021 26.0035
11 1 5.90032 1.57131 26.5901
12 1 2.27554 3.81742 26.4901
13 1 4.57363 2.21864 24.5028
14 1 1.20117 0.120279 24.3617
15 1 6.27422 3.75017 24.4562
16 2 4.95547 0.275403 14.8655
17 2 1.81418 3.15241 16.5896
18 2 4.06024 1.57996 17.3449
19 2 1.69417 0.260754 17.0833
20 2 6.63308 3.45947 12.6235
21 2 2.46671 1.3181 14.6254
22 2 4.96811 2.87786 14.7689
23 2 4.31769 1.84871 12.217
24 2 3.15091 1.33487 9.89055
25 2 6.9497 4.40241 7.6064
26 2 3.13034 4.30364 9.90796
27 2 1.62404 0.336713 12.0948
28 2 5.60162 2.55545 9.88515
29 2 4.65471 3.15603 7.27779
30 2 1.07807 0.357352 4.65556
31 2 3.66988 1.48056 5.42771
32 2 4.74492 3.83358 2.53338
33 2 6.28024 2.90132 4.33908
34 2 3.8513 1.30008 2.7933
35 2 1.65997 1.33974 7.28558
ITEM: TIMESTEP
6900
ITEM: NUMBER OF ATOMS
35
ITEM: BOX BOUNDS xy xz yz pp pp pp
0.0000000000000000e+00 7.6685730000000003e+00 2.5561910000000001e+00
0.0000000000000000e+00 4.4274529999999999e+00 0.0000000000000000e+00
0.0000000000000000e+00 3.4699264999999997e+01 0.0000000000000000e+00
ITEM: ATOMS id type x y z
1 1 5.0158 1.53424 30.8707
2 1 6.07466 3.66027 30.967
3 1 2.30342 1.3803 30.3825
4 1 3.39282 2.58658 28.9049
5 1 3.48984 3.8726 31.0963
6 1 3.89991 0.47172 28.4065
7 1 5.84705 2.55761 28.8484
8 1 1.48684 0.309521 28.4687
9 1 4.84519 3.64761 26.5915
10 1 3.33377 1.55568 26.3911
11 1 5.81171 1.55822 26.4392
12 1 2.35707 3.69433 26.7537
13 1 4.40882 1.95828 23.9779
14 1 1.08012 0.309046 24.6143
15 1 6.5058 3.65027 24.4987
16 2 5.40354 0.519651 14.6278
17 2 6.68797 3.12427 16.6802
18 2 3.96721 1.36459 17.0336
19 2 1.50199 -0.0788377 17.4661
20 2 6.67305 3.34591 12.1718
21 2 2.81487 1.48864 14.6746
22 2 4.60124 3.35035 15.0291
23 2 4.28007 1.87684 12.4756
24 2 3.17275 0.713476 10.1427
25 2 4.48714 0.311021 7.57365
26 2 3.33841 3.72327 9.74515
27 2 1.58865 0.58307 12.3904
28 2 5.77728 2.47156 9.75656
29 2 4.19761 3.55455 7.27907
30 2 1.13217 0.145534 4.42365
31 2 3.82105 1.54167 5.18455
32 2 4.80685 3.13808 2.3116
33 2 6.49714 3.30279 4.87222
34 2 3.50409 1.1036 2.67093
35 2 1.65096 2.01719 7.21503
ITEM: TIMESTEP
7000
ITEM: NUMBER OF ATOMS
35
ITEM: BOX BOUNDS xy xz yz pp pp pp
0.0000000000000000e+00 7.6685730000000003e+00 2.5561910000000001e+00
0.0000000000000000e+00 4.4274529999999999e+00 0.0000000000000000e+00
0.0000000000000000e+00 3.4699264999999997e+01 0.0000000000000000e+00
ITEM: ATOMS id type x y z
1 1 4.59385 1.79869 31.3671
2 1 6.05614 3.77761 30.7489
3 1 2.39836 1.79374 31.2461
4 1 2.86838 2.46162 28.6754
5 1 3.50837 3.94874 30.68
6 1 4.27192 0.469972 28.9272
7 1 5.48689 2.78553 28.659
8 1 1.75059 0.518429 28.4474
9 1 4.9049 3.65338 26.4997
10 1 3.42343 1.29517 26.4631
11 1 6.05159 1.51173 26.1635
12 1 2.44245 3.5343 26.5606
13 1 4.21582 1.90491 24.2811
14 1 1.44001 -0.00423528 24.3337
15 1 6.30692 3.45244 24.4441
16 2 5.00678 0.503319 14.6641
17 2 6.62805 2.52695 16.9984
18 2 4.14493 1.37703 17.1692
19 2 3.74819 4.15887 17.4782
20 2 6.80907 3.39499 12.3274
21 2 2.60204 2.12621 14.7259
22 2 5.205 3.75468 15.0223
23 2 4.05219 2.2908 12.1466
24 2 3.31356 0.574716 9.87382
25 2 4.26529 1.21079 7.5485
26 2 3.06783 3.28089 9.79434
27 2 1.83528 0.379867 12.2634
28 2 5.97071 1.57661 9.89404
29 2 4.06216 4.01633 6.69818
30 2 1.13411 0.171134 4.22027
31 2 4.11329 1.99032 5.0138
32 2 5.24668 2.38973 2.72344
33 2 6.42798 3.37433 4.96298
34 2 2.91702 0.789224 2.81962
35 2 1.95688 2.08317 7.27947
ITEM: TIMESTEP
7100
ITEM: NUMBER OF ATOMS
35
ITEM: BOX BOUNDS xy xz yz pp pp pp
0.0000000000000000e+00 7.6685730000000003e+00 2.5561910000000001e+00
0.0000000000000000e+00 4.4274529999999999e+00 0.0000000000000000e+00
0.0000000000000000e+00 3.4699264999999997e+01 0.0000000000000000e+00
ITEM: ATOMS id type x y z
1 1 4.63621 1.74349 30.8794
2 1 5.96184 4.28351 31.1099
3 1 2.02181 1.84228 31.0073
4 1 2.65592 2.91995 28.895
5 1 3.40456 4.01071 30.9575
6 1 4.41872 0.548727 28.8582
7 1 5.38065 2.7384 28.9889
8 1 1.97062 0.54619 28.5836
9 1 4.84247 3.26696 26.2774
10 1 3.44494 1.20538 26.8256
11 1 1.43228 1.29597 25.9877
12 1 2.30415 3.75124 26.4407
13 1 4.21014 1.69126 24.5414
14 1 3.88321 4.29904 24.042
15 1 6.47362 3.32929 24.3645
16 2 5.30325 0.968288 14.7293
17 2 1.45816 2.22425 17.5136
18 2 3.94744 1.15367 17.3027
19 2 3.79168 3.93325 16.9345
20 2 6.68281 3.6938 12.2976
21 2 2.42102 2.40128 14.7389
22 2 5.12944 3.86714 14.9035
23 2 4.42498 2.0272 12.0594
24 2 3.11897 -0.329499 9.63748
25 2 4.5512 1.34349 7.48937
26 2 3.3021 2.95418 9.42562
27 2 1.76456 0.740741 12.3872
28 2 5.68394 1.25564 9.9634
29 2 4.42296 4.40154 7.04868
30 2 0.894699 0.173035 4.55107
31 2 3.74411 1.87162 5.09278
32 2 5.77289 2.05651 2.46112
33 2 6.33142 3.37252 4.91989
34 2 3.13442 0.957374 2.66727
35 2 1.55753 2.85377 7.40851
ITEM: TIMESTEP
7200
ITEM: NUMBER OF ATOMS
35
ITEM: BOX BOUNDS xy xz yz pp pp pp
0.0000000000000000e+00 7.6685730000000003e+00 2.5561910000000001e+00
0.0000000000000000e+00 4.4274529999999999e+00 0.0000000000000000e+00
0.0000000000000000e+00 3.4699264999999997e+01 0.0000000000000000e+00
ITEM: ATOMS id type x y z
1 1 4.54911 1.9849 31.052
2 1 5.68033 3.98332 30.9736
3 1 1.7792 1.81614 30.5574
4 1 3.58994 2.94191 28.8551
5 1 3.07907 4.14897 31.3026
6 1 4.26821 0.542643 29.1002
7 1 5.85436 2.9062 28.478
8 1 1.30734 0.716923 28.356
9 1 5.15949 3.80221 26.4644
10 1 3.89327 1.51431 26.9129
11 1 0.979978 1.50098 26.0463
12 1 2.52319 3.59201 26.6371
13 1 4.09742 1.09089 24.5079
14 1 3.73297 3.88387 24.5288
15 1 6.43602 3.17719 24.2254
16 2 5.28186 1.39674 14.9083
17 2 1.11803 2.38813 17.3455
18 2 3.67957 0.68324 16.9626
19 2 3.69287 3.71849 17.0441
20 2 7.03193 3.67699 12.0096
21 2 2.90399 2.3442 14.9414
22 2 5.31382 4.04616 14.4315
23 2 4.21436 2.23268 12.4047
24 2 5.56291 3.7939 9.88999
25 2 4.64789 1.41433 7.2891
26 2 3.08202 2.23683 9.54619
27 2 1.78061 0.926138 12.3548
28 2 5.8379 0.966553 9.80999
29 2 1.97913 0.300921 7.46641
30 2 1.09057 0.308308 4.70551
31 2 3.05258 1.92189 5.18199
32 2 6.01408 2.27682 2.41944
33 2 5.79392 3.1005 4.63257
34 2 3.49127 0.962016 2.83668
35 2 7.01973 3.17928 7.26776
ITEM: TIMESTEP
7300
ITEM: NUMBER OF ATOMS
35
ITEM: BOX BOUNDS xy xz yz pp pp pp
0.0000000000000000e+00 7.6685730000000003e+00 2.5561910000000001e+00
0.0000000000000000e+00 4.4274529999999999e+00 0.0000000000000000e+00
0.0000000000000000e+00 3.4699264999999997e+01 0.0000000000000000e+00
ITEM: ATOMS id type x y z
1 1 3.89522 1.91672 31.6052
2 1 5.27912 3.80748 30.7113
3 1 1.76626 1.72293 30.3402
4 1 3.61595 3.01458 29.1792
5 1 2.95137 4.1641 31.1241
6 1 4.45334 0.77937 29.1123
7 1 6.07999 2.96599 28.3633
8 1 1.82016 0.5324 28.3521
9 1 5.30702 4.30915 26.1165
10 1 4.02951 2.01013 27.0665
11 1 1.09342 1.57587 26.1719
12 1 2.59363 3.84674 26.6233
13 1 3.96631 0.938418 24.5741
14 1 3.73714 3.16334 24.6378
15 1 6.23303 2.98206 24.2525
16 2 5.67144 0.849869 14.7982
17 2 5.89756 2.21441 16.916
18 2 3.43419 0.520934 16.748
19 2 3.6262 3.71133 17.3173
20 2 7.28432 3.9379 12.2124
21 2 2.76525 2.85198 14.8869
22 2 5.77374 4.2481 14.2104
23 2 4.47941 2.30375 12.4312
24 2 5.60188 3.49183 10.0546
25 2 4.82198 2.18115 7.30242
26 2 3.02648 1.90875 9.95051
27 2 1.74884 1.08453 12.0966
28 2 0.260546 0.422747 9.70662
29 2 2.12058 0.18029 7.39579
30 2 0.303253 0.449848 4.63032
31 2 2.91252 1.93261 4.93162
32 2 6.4501 2.1675 2.52773
33 2 5.20589 3.32967 4.98765
34 2 3.89261 0.823524 2.87265
35 2 2.23797 3.21886 7.38954
ITEM: TIMESTEP
7400
ITEM: NUMBER OF ATOMS
35
ITEM: BOX BOUNDS xy xz yz pp pp pp
0.0000000000000000e+00 7.6685730000000003e+00 2.5561910000000001e+00
0.0000000000000000e+00 4.4274529999999999e+00 0.0000000000000000e+00
0.0000000000000000e+00 3.4699264999999997e+01 0.0000000000000000e+00
ITEM: ATOMS id type x y z
1 1 3.54278 1.68654 31.4627
2 1 5.30959 3.99097 30.5432
3 1 1.31095 1.57549 30.814
4 1 3.04594 3.0065 29.2354
5 1 2.42101 4.16454 31.381
6 1 4.97779 0.838694 29.0976
7 1 6.00795 2.74433 28.366
8 1 2.62872 0.887835 28.4166
9 1 5.21212 3.90519 26.1695
10 1 3.70831 1.9997 26.6374
11 1 1.66989 1.80745 26.06
12 1 2.49579 4.32366 26.9958
13 1 4.76309 0.821071 24.7553
14 1 3.44142 3.34086 24.5234
15 1 6.1705 2.77158 24.0202
16 2 0.773496 1.02212 14.3446
17 2 5.7237 2.07798 16.8366
18 2 3.32545 0.923915 16.8002
19 2 3.32805 3.7453 17.2381
20 2 7.24094 4.10452 12.1198
21 2 3.11275 2.39908 14.7963
22 2 5.54956 3.86656 14.4904
23 2 4.65577 2.51849 12.5364
24 2 5.47158 2.85593 9.94156
25 2 5.00588 1.77574 7.53338
26 2 3.06058 1.92513 9.84469
27 2 2.23298 1.16775 12.0961
28 2 5.20622 0.258268 9.71484
29 2 2.50608 0.831592 7.43595
30 2 4.95601 0.338288 5.16168
31 2 2.52962 1.91126 5.21623
32 2 1.62972 2.24338 2.82296
33 2 5.0684 3.71958 4.80181
34 2 3.82941 0.599006 2.21631
35 2 2.34914 3.49824 7.33161
ITEM: TIMESTEP
7500
ITEM: NUMBER OF ATOMS
35
ITEM: BOX BOUNDS xy xz yz pp pp pp
0.0000000000000000e+00 7.6685730000000003e+00 2.5561910000000001e+00
0.0000000000000000e+00 4.4274529999999999e+00 0.0000000000000000e+00
0.0000000000000000e+00 3.4699264999999997e+01 0.0000000000000000e+00
ITEM: ATOMS id type x y z
1 1 3.80392 1.69128 31.1944
2 1 4.91601 3.909 30.5923
3 1 1.08356 1.88156 31.4772
4 1 3.13015 2.98769 28.8746
5 1 2.21613 3.71344 31.5123
6 1 4.91454 0.827866 29.2834
7 1 5.91093 3.05723 28.161
8 1 2.19939 0.82562 28.2875
9 1 5.39568 4.20741 25.9771
10 1 4.29509 1.9622 27.0129
11 1 1.67126 1.89223 26.1511
12 1 3.04418 4.10324 27.0049
13 1 4.67604 0.757314 24.7071
14 1 3.44136 2.93598 24.6752
15 1 5.86873 3.27472 23.865
16 2 0.403761 0.763815 14.4459
17 2 5.78983 2.29974 17.1519
18 2 3.09965 0.786244 17.2984
19 2 3.01403 3.85588 16.5933
20 2 7.10623 3.75205 12.4739
21 2 3.26209 2.12532 14.5604
22 2 6.01399 3.73723 15.0205
23 2 4.47337 2.9493 11.9729
24 2 5.72327 3.36168 9.75372
25 2 5.34592 2.13607 7.14517
26 2 2.84092 1.97429 9.83119
27 2 2.49437 0.918394 12.236
28 2 5.73792 0.334719 10.0194
29 2 2.6678 0.0939454 7.62262
30 2 4.73446 0.768003 4.60626
31 2 2.44034 1.93477 5.08043
32 2 1.42355 2.25439 2.90788
33 2 4.76513 3.55945 4.38518
34 2 3.69852 0.471041 2.59636
35 2 2.56897 3.64877 7.4736
ITEM: TIMESTEP
7600
ITEM: NUMBER OF ATOMS
35
ITEM: BOX BOUNDS xy xz yz pp pp pp
0.0000000000000000e+00 7.6685730000000003e+00 2.5561910000000001e+00
0.0000000000000000e+00 4.4274529999999999e+00 0.0000000000000000e+00
0.0000000000000000e+00 3.4699264999999997e+01 0.0000000000000000e+00
ITEM: ATOMS id type x y z
1 1 3.33947 1.62783 31.4136
2 1 5.0044 3.90749 30.7852
3 1 0.988819 1.59936 31.206
4 1 3.53085 2.76335 29.2753
5 1 2.47759 3.89531 30.9292
6 1 4.76832 0.969247 29.2125
7 1 6.00327 3.33693 28.7873
8 1 1.83487 0.766841 28.4972
9 1 5.43882 4.36729 26.4007
10 1 4.30061 1.75205 26.9152
11 1 1.34695 2.24799 26.1264
12 1 3.13544 4.13282 26.5943
13 1 5.24804 0.826024 24.3484
14 1 3.47559 2.40316 24.6195
15 1 5.53694 3.59126 23.9588
16 2 0.873107 0.913259 14.3988
17 2 5.67108 2.14452 17.4581
18 2 2.90423 0.754623 17.3348
19 2 3.10836 3.82435 16.8826
20 2 7.07846 3.60538 12.577
21 2 3.22862 1.97796 14.9501
22 2 5.498 3.66531 14.9121
23 2 4.6904 2.30765 12.0654
24 2 5.91737 3.9139 9.68474
25 2 5.42127 1.68986 7.08945
26 2 3.30102 2.13252 9.6417
27 2 2.14736 0.936821 12.282
28 2 0.760614 0.79945 10.091
29 2 2.78327 0.525397 6.81395
30 2 5.12495 0.658181 4.84258
31 2 2.36091 2.0571 5.21414
32 2 1.16928 2.10243 2.54487
33 2 4.24037 3.42211 4.22588
34 2 3.22349 0.707053 2.45934
35 2 3.03769 3.531 7.60322
ITEM: TIMESTEP
7700
ITEM: NUMBER OF ATOMS
35
ITEM: BOX BOUNDS xy xz yz pp pp pp
0.0000000000000000e+00 7.6685730000000003e+00 2.5561910000000001e+00
0.0000000000000000e+00 4.4274529999999999e+00 0.0000000000000000e+00
0.0000000000000000e+00 3.4699264999999997e+01 0.0000000000000000e+00
ITEM: ATOMS id type x y z
1 1 3.7234 1.66045 31.0858
2 1 4.5855 3.99495 31.0332
3 1 6.0483 1.63288 30.6312
4 1 3.50635 3.30316 28.9598
5 1 2.21275 3.82856 31.2646
6 1 4.47523 0.672423 28.9431
7 1 6.03812 2.92587 28.45
8 1 2.37547 0.903961 28.881
9 1 5.3369 4.49779 26.7963
10 1 4.20561 2.1682 26.732
11 1 1.54828 1.99501 26.2641
12 1 2.55821 4.29419 26.8033
13 1 1.14749 0.716777 24.3367
14 1 3.18989 2.09483 24.4824
15 1 5.35615 3.64091 24.6684
16 2 0.612531 0.782146 15.0087
17 2 5.45863 2.18824 17.1234
18 2 2.95551 0.612744 17.3275
19 2 2.90663 3.73724 17.4222
20 2 7.35998 3.70153 12.3466
21 2 3.17729 2.05316 15.0798
22 2 5.52957 3.67784 14.8706
23 2 4.75846 1.92625 12.5664
24 2 6.00656 3.89054 9.47797
25 2 5.37881 2.00793 7.65369
26 2 3.52284 2.37 9.82112
27 2 2.38855 0.448564 11.9904
28 2 0.881177 1.01825 9.76393
29 2 3.19526 0.283281 6.92251
30 2 4.70524 0.621675 4.66924
31 2 1.79797 2.51339 4.68817
32 2 5.95433 2.1043 2.34168
33 2 4.66048 3.43102 4.15447
34 2 3.26381 0.845028 2.73479
35 2 3.18155 3.40552 7.01628
ITEM: TIMESTEP
7800
ITEM: NUMBER OF ATOMS
35
ITEM: BOX BOUNDS xy xz yz pp pp pp
0.0000000000000000e+00 7.6685730000000003e+00 2.5561910000000001e+00
0.0000000000000000e+00 4.4274529999999999e+00 0.0000000000000000e+00
0.0000000000000000e+00 3.4699264999999997e+01 0.0000000000000000e+00
ITEM: ATOMS id type x y z
1 1 3.42674 1.76811 30.9306
2 1 4.76547 4.02634 31.1621
3 1 5.90771 1.92992 31.1525
4 1 3.40528 3.02613 28.8328
5 1 2.05357 4.00364 30.9132
6 1 4.87173 0.61929 28.579
7 1 5.86429 3.07199 28.9001
8 1 2.2539 0.961284 28.9439
9 1 5.19324 4.44407 26.829
10 1 4.01486 2.3537 26.6885
11 1 1.70811 2.31146 26.7081
12 1 2.37874 4.40093 26.2287
13 1 1.21805 0.649106 24.4403
14 1 3.28217 1.87922 24.5153
15 1 5.85204 3.01541 24.7475
16 2 0.645114 0.273017 15.1955
17 2 5.31399 2.31556 17.1235
18 2 2.95858 0.616894 17.3598
19 2 2.68793 3.44686 17.5746
20 2 7.64851 3.13756 12.241
21 2 2.63318 2.19475 14.7069
22 2 5.89069 3.98837 14.5976
23 2 5.03093 1.93614 12.7567
24 2 6.23317 3.80767 9.63942
25 2 5.70485 2.0649 7.06013
26 2 3.56215 2.53524 9.93757
27 2 2.42799 0.214668 12.2992
28 2 1.22652 0.783068 9.85542
29 2 2.96587 0.565247 7.05452
30 2 4.56407 1.19237 4.97003
31 2 1.91616 2.17762 4.60707
32 2 5.80088 1.74228 2.06601
33 2 4.21756 4.05128 4.55894
34 2 3.25107 1.01556 2.44717
35 2 3.05521 3.51369 6.84444
ITEM: TIMESTEP
7900
ITEM: NUMBER OF ATOMS
35
ITEM: BOX BOUNDS xy xz yz pp pp pp
0.0000000000000000e+00 7.6685730000000003e+00 2.5561910000000001e+00
0.0000000000000000e+00 4.4274529999999999e+00 0.0000000000000000e+00
0.0000000000000000e+00 3.4699264999999997e+01 0.0000000000000000e+00
ITEM: ATOMS id type x y z
1 1 3.11518 2.02374 31.1445
2 1 4.74033 4.03198 31.3119
3 1 5.85348 1.96827 31.7137
4 1 3.31932 2.94621 28.8058
5 1 7.48209 4.49644 30.5556
6 1 4.57645 1.03784 28.5118
7 1 5.8807 3.01847 29.3993
8 1 1.83022 0.710267 29.1029
9 1 2.51636 0.105876 26.3305
10 1 4.16686 2.40468 26.5038
11 1 1.40687 2.18461 27.1799
12 1 5.16461 -0.130785 25.9409
13 1 1.54428 0.245462 24.2053
14 1 3.59564 1.7632 24.5239
15 1 6.00144 2.93323 24.5872
16 2 0.73888 0.373261 15.31
17 2 5.00221 2.27968 16.7579
18 2 2.80843 0.695555 17.1009
19 2 2.54409 3.39468 17.4024
20 2 2.47473 3.14612 12.1718
21 2 3.07131 2.05692 14.8344
22 2 5.81393 3.51927 14.7977
23 2 5.26703 1.44725 12.7225
24 2 6.47192 3.66742 9.95057
25 2 5.61833 2.18561 6.95652
26 2 4.15648 1.95739 9.4306
27 2 2.4684 0.304874 12.1328
28 2 1.30099 0.922712 9.82054
29 2 2.91019 0.888359 7.45106
30 2 4.10449 1.23682 4.80709
31 2 1.9443 2.98376 4.34896
32 2 5.58891 1.7711 2.74627
33 2 4.42599 4.05945 4.19408
34 2 3.1257 0.864644 2.32847
35 2 2.82595 3.77087 7.54466
ITEM: TIMESTEP
8000
ITEM: NUMBER OF ATOMS
35
ITEM: BOX BOUNDS xy xz yz pp pp pp
0.0000000000000000e+00 7.6685730000000003e+00 2.5561910000000001e+00
0.0000000000000000e+00 4.4274529999999999e+00 0.0000000000000000e+00
0.0000000000000000e+00 3.4699264999999997e+01 0.0000000000000000e+00
ITEM: ATOMS id type x y z
1 1 3.36337 2.30639 30.8033
2 1 4.70167 4.51805 31.6658
3 1 6.0923 2.05988 31.8057
4 1 2.99246 3.30144 28.7641
5 1 4.58469 0.0987345 31.0575
6 1 4.18182 0.513594 28.3427
7 1 5.48975 2.56847 29.4207
8 1 2.07097 0.616022 29.3529
9 1 2.67777 0.474738 26.4337
10 1 4.19067 2.59449 26.504
11 1 1.34034 2.39916 27.1072
12 1 2.67856 4.66326 25.8742
13 1 1.77801 -0.195713 24.063
14 1 3.68609 1.48175 24.155
15 1 6.12931 2.4838 24.7323
16 2 0.627752 0.298824 14.7084
17 2 4.87592 2.15796 17.2809
18 2 2.44778 0.44227 16.9948
19 2 2.25834 3.60035 17.2226
20 2 2.98411 3.03806 12.2532
21 2 3.67341 1.91896 14.5534
22 2 6.15513 3.17946 14.3643
23 2 5.01717 1.44157 12.1989
24 2 6.53901 3.45649 9.85568
25 2 5.23303 2.75346 7.00343
26 2 4.16939 2.1466 9.77993
27 2 2.80096 0.0110566 12.2116
28 2 1.75375 0.649403 9.7997
29 2 2.82822 0.67795 7.35652
30 2 3.85861 1.62855 5.28829
31 2 7.02723 3.38489 4.33403
32 2 5.47594 1.8035 2.93795
33 2 4.2754 4.14567 4.69993
34 2 2.95545 0.637723 2.33109
35 2 2.86146 4.10227 7.54133
ITEM: TIMESTEP
8100
ITEM: NUMBER OF ATOMS
35
ITEM: BOX BOUNDS xy xz yz pp pp pp
0.0000000000000000e+00 7.6685730000000003e+00 2.5561910000000001e+00
0.0000000000000000e+00 4.4274529999999999e+00 0.0000000000000000e+00
0.0000000000000000e+00 3.4699264999999997e+01 0.0000000000000000e+00
ITEM: ATOMS id type x y z
1 1 3.48129 2.24974 31.2888
2 1 2.07631 0.0281793 31.6135
3 1 6.08167 2.42323 31.4458
4 1 3.19899 3.0573 28.6723
5 1 7.16659 4.43916 30.7041
6 1 4.22393 0.754366 28.3032
7 1 5.44963 2.80249 29.2907
8 1 1.79394 0.814931 29.2762
9 1 2.69802 0.556199 26.6208
10 1 3.80088 2.76253 26.4831
11 1 6.40143 2.49161 27.1418
12 1 5.12747 0.430574 26.1858
13 1 4.37859 3.59746 24.3128
14 1 3.57852 1.34759 24.3957
15 1 6.59771 2.27787 24.6215
16 2 1.23438 0.191118 14.1861
17 2 4.86597 1.88314 17.3842
18 2 1.95682 0.50663 16.5913
19 2 2.18686 3.60894 16.6987
20 2 2.88996 2.81554 12.2062
21 2 3.74247 1.60443 14.8761
22 2 6.23903 2.76027 14.616
23 2 5.7547 1.36188 11.7202
24 2 6.78665 3.48074 9.66267
25 2 5.62251 2.56847 7.5676
26 2 3.94955 2.27242 9.62879
27 2 5.48101 4.35463 12.318
28 2 1.77831 0.450578 9.85607
29 2 2.64192 1.5079 7.62244
30 2 3.9818 1.98043 5.04988
31 2 6.59712 3.14592 4.48077
32 2 5.16564 1.56451 2.88478
33 2 1.56407 0.671214 5.20766
34 2 2.77686 0.534392 2.99789
35 2 2.64722 4.15946 7.06459
ITEM: TIMESTEP
8200
ITEM: NUMBER OF ATOMS
35
ITEM: BOX BOUNDS xy xz yz pp pp pp
0.0000000000000000e+00 7.6685730000000003e+00 2.5561910000000001e+00
0.0000000000000000e+00 4.4274529999999999e+00 0.0000000000000000e+00
0.0000000000000000e+00 3.4699264999999997e+01 0.0000000000000000e+00
ITEM: ATOMS id type x y z
1 1 3.45568 2.06135 31.241
2 1 4.64382 4.2048 31.1066
3 1 5.99292 2.27468 31.37
4 1 3.03274 2.96964 29.1366
5 1 4.8993 0.238033 31.0914
6 1 4.45356 1.26469 28.3826
7 1 5.62241 3.54318 29.1183
8 1 1.57803 1.17659 29.0061
9 1 2.26656 0.363601 26.8286
10 1 3.64477 2.32255 26.5801
11 1 6.09942 2.67106 26.9739
12 1 5.13792 0.349867 26.1574
13 1 4.39961 3.65769 24.5817
14 1 3.77518 0.572711 24.5188
15 1 1.8189 2.50518 24.5241
16 2 3.73893 4.13616 14.007
17 2 4.83151 1.98678 17.2309
18 2 2.0543 0.415658 16.6264
19 2 2.31402 3.59963 16.8269
20 2 2.97204 2.54053 12.181
21 2 3.86202 1.22953 14.7743
22 2 6.05049 2.5969 14.5375
23 2 5.50866 1.52129 12.1529
24 2 6.88443 3.78721 9.73335
25 2 5.15658 2.88146 7.3777
26 2 4.41619 1.88136 10.0679
27 2 6.04637 4.36456 12.0135
28 2 1.61491 0.319694 9.38442
29 2 3.01757 1.55094 7.30977
30 2 4.15205 2.39491 4.98902
31 2 6.65898 3.75642 4.86004
32 2 5.1311 1.22474 2.53171
33 2 1.4341 0.975077 5.57827
34 2 2.28021 0.343894 3.10102
35 2 7.44974 4.29333 7.24448
ITEM: TIMESTEP
8300
ITEM: NUMBER OF ATOMS
35
ITEM: BOX BOUNDS xy xz yz pp pp pp
0.0000000000000000e+00 7.6685730000000003e+00 2.5561910000000001e+00
0.0000000000000000e+00 4.4274529999999999e+00 0.0000000000000000e+00
0.0000000000000000e+00 3.4699264999999997e+01 0.0000000000000000e+00
ITEM: ATOMS id type x y z
1 1 3.5202 2.01734 30.9295
2 1 4.66387 4.45169 31.245
3 1 5.99344 2.18679 30.9686
4 1 3.09794 3.83361 28.7835
5 1 4.6382 -0.275773 31.5072
6 1 4.18993 1.56082 28.844
7 1 5.83089 3.66147 28.966
8 1 1.91742 1.40639 28.9818
9 1 2.45079 0.0851534 26.959
10 1 3.51936 2.22379 26.6182
11 1 6.10152 2.47009 26.7039
12 1 4.89777 0.244305 26.62
13 1 4.30141 3.47753 24.7337
14 1 3.62065 0.545939 24.4742
15 1 1.95912 2.42479 24.5363
16 2 3.70666 3.74618 14.5599
17 2 4.81091 2.28855 17.0683
18 2 2.43114 0.495172 16.7746
19 2 2.33426 3.31338 17.0259
20 2 3.03284 2.57548 11.9779
21 2 3.58287 0.932756 14.4093
22 2 6.38874 2.74103 14.8474
23 2 5.77072 1.22891 12.4545
24 2 6.91766 2.88064 9.74226
25 2 5.21039 3.34915 7.19651
26 2 4.49788 2.13389 9.59514
27 2 5.6031 4.00911 12.1434
28 2 1.78592 0.532894 9.55324
29 2 2.92613 1.72812 7.41601
30 2 3.77525 2.63663 4.58471
31 2 6.78867 4.25766 4.67898
32 2 4.76031 1.37507 2.76169
33 2 1.30646 1.13769 5.22073
34 2 2.16635 -0.0356327 2.95565
35 2 7.81947 4.42478 7.47287
ITEM: TIMESTEP
8400
ITEM: NUMBER OF ATOMS
35
ITEM: BOX BOUNDS xy xz yz pp pp pp
0.0000000000000000e+00 7.6685730000000003e+00 2.5561910000000001e+00
0.0000000000000000e+00 4.4274529999999999e+00 0.0000000000000000e+00
0.0000000000000000e+00 3.4699264999999997e+01 0.0000000000000000e+00
ITEM: ATOMS id type x y z
1 1 3.04226 2.16751 31.1256
2 1 2.03805 -0.0928667 31.133
3 1 5.76323 1.87578 31.2493
4 1 3.50068 3.98681 29.1377
5 1 7.10793 4.2882 30.9793
6 1 4.86484 1.5381 28.7859
7 1 5.87247 4.05088 29.1713
8 1 2.30855 1.79 28.7322
9 1 2.24345 0.0519814 26.6482
10 1 3.42547 2.43271 26.7081
11 1 5.90536 2.05141 26.635
12 1 4.56603 -0.313087 26.7616
13 1 4.33268 3.30268 24.5938
14 1 3.81985 0.909667 24.9238
15 1 1.7983 2.4067 24.5295
16 2 3.82808 3.84084 15.0441
17 2 4.858 1.88434 16.8287
18 2 2.57907 0.741857 17.1061
19 2 2.43294 3.60286 17.4478
20 2 3.0505 2.53333 12.2293
21 2 3.64526 1.01991 14.4034
22 2 6.37984 2.27175 14.772
23 2 0.645779 0.807636 12.2858
24 2 1.80873 3.41074 9.70738
25 2 5.55202 3.34753 6.98187
26 2 4.28784 1.72775 9.35616
27 2 5.65757 3.51408 12.3051
28 2 1.95239 0.0673772 9.99686
29 2 2.71856 1.93177 7.01389
30 2 3.53307 2.94917 4.82081
31 2 6.14226 4.28132 4.80642
32 2 4.7271 1.52748 2.57975
33 2 1.19704 1.55632 4.68263
34 2 4.76403 4.24853 2.56367
35 2 0.558311 0.440334 7.42192
ITEM: TIMESTEP
8500
ITEM: NUMBER OF ATOMS
35
ITEM: BOX BOUNDS xy xz yz pp pp pp
0.0000000000000000e+00 7.6685730000000003e+00 2.5561910000000001e+00
0.0000000000000000e+00 4.4274529999999999e+00 0.0000000000000000e+00
0.0000000000000000e+00 3.4699264999999997e+01 0.0000000000000000e+00
ITEM: ATOMS id type x y z
1 1 3.17037 2.10234 31.1854
2 1 1.83536 -0.210904 31.394
3 1 5.8352 2.17774 31.129
4 1 3.60846 3.81949 28.9298
5 1 7.05717 4.43749 31.0321
6 1 4.87275 1.66818 29.0515
7 1 6.00994 4.11792 28.8753
8 1 1.97853 1.8945 28.9894
9 1 1.88183 -0.00488061 26.7261
10 1 3.23085 1.93157 26.8741
11 1 5.65568 2.08073 26.4843
12 1 4.83116 -0.266624 26.5987
13 1 4.39095 3.462 24.6997
14 1 4.22252 0.647341 24.5752
15 1 1.9076 2.70743 24.7858
16 2 3.80735 3.87285 15.0837
17 2 5.11668 1.96951 17.0469
18 2 2.38197 0.654702 17.3417
19 2 2.3813 3.67896 17.5049
20 2 3.18612 1.87379 12.1788
21 2 4.11559 0.668923 14.6839
22 2 6.52861 2.12314 14.7798
23 2 0.37945 0.601001 12.0413
24 2 1.91893 3.19406 9.6982
25 2 5.51009 3.41974 7.52469
26 2 4.30792 1.69038 9.69269
27 2 5.68885 3.56594 12.4982
28 2 1.76822 0.282293 9.63617
29 2 2.97948 1.93835 7.04322
30 2 3.63824 3.48912 4.61764
31 2 6.09558 4.73751 4.68847
32 2 4.41179 1.47856 2.33949
33 2 0.995664 1.70873 4.48235
34 2 4.68463 4.26416 2.29088
35 2 0.457325 0.451846 7.10452
ITEM: TIMESTEP
8600
ITEM: NUMBER OF ATOMS
35
ITEM: BOX BOUNDS xy xz yz pp pp pp
0.0000000000000000e+00 7.6685730000000003e+00 2.5561910000000001e+00
0.0000000000000000e+00 4.4274529999999999e+00 0.0000000000000000e+00
0.0000000000000000e+00 3.4699264999999997e+01 0.0000000000000000e+00
ITEM: ATOMS id type x y z
1 1 3.57418 2.19137 31.1694
2 1 2.09729 0.213328 31.0096
3 1 5.796 2.3621 31.1251
4 1 3.01528 4.07636 28.9993
5 1 7.07968 4.37776 31.1678
6 1 4.33657 1.84511 28.9151
7 1 5.64067 3.54213 29.0956
8 1 1.86483 1.57362 28.9967
9 1 4.5525 4.28407 27.0101
10 1 3.29013 2.19882 26.6359
11 1 5.90392 1.88882 26.7999
12 1 7.15373 4.25185 26.8795
13 1 4.57366 3.52953 24.6573
14 1 4.32521 0.980128 24.4653
15 1 2.2919 2.22724 24.6296
16 2 4.25875 3.22549 14.6597
17 2 4.96444 2.48293 17.3284
18 2 2.38847 0.619351 17.3858
19 2 2.42135 3.37464 17.2048
20 2 2.99835 1.93697 12.3242
21 2 4.1237 0.515157 15.2645
22 2 1.83828 2.01547 14.9759
23 2 0.499201 0.215981 12.0493
24 2 1.89963 2.89848 10.0195
25 2 5.52633 3.49737 7.43593
26 2 4.51568 1.74997 9.8018
27 2 5.3225 3.51473 11.9358
28 2 1.75075 0.265781 9.44445
29 2 3.28767 2.08362 7.19002
30 2 3.47399 3.56157 4.40045
31 2 3.57922 0.814055 4.75694
32 2 4.05084 1.33769 2.28073
33 2 6.16531 2.53577 4.66246
34 2 4.55533 4.25244 2.29556
35 2 0.214753 0.295445 6.78204
ITEM: TIMESTEP
8700
ITEM: NUMBER OF ATOMS
35
ITEM: BOX BOUNDS xy xz yz pp pp pp
0.0000000000000000e+00 7.6685730000000003e+00 2.5561910000000001e+00
0.0000000000000000e+00 4.4274529999999999e+00 0.0000000000000000e+00
0.0000000000000000e+00 3.4699264999999997e+01 0.0000000000000000e+00
ITEM: ATOMS id type x y z
1 1 3.16771 2.61687 31.2042
2 1 2.28214 0.151916 31.1635
3 1 5.97595 2.3296 31.1112
4 1 3.05258 3.60944 29.1009
5 1 4.72677 0.467165 31.5364
6 1 4.27134 1.32153 28.7541
7 1 5.49747 3.56367 28.9204
8 1 1.57172 1.5219 28.8898
9 1 4.36671 4.49833 27.0374
10 1 3.30992 2.29622 26.5569
11 1 5.94013 2.2677 26.5991
12 1 6.88337 4.23755 26.7889
13 1 5.20062 3.72749 24.7999
14 1 4.82629 1.02933 24.9286
15 1 1.74026 1.62382 24.4362
16 2 4.86814 3.1443 14.2903
17 2 5.00643 2.09388 17.2512
18 2 2.17931 0.748259 17.266
19 2 2.6709 3.48598 17.0766
20 2 2.72802 1.78743 12.5843
21 2 4.17508 0.401236 15.2109
22 2 1.64634 1.50681 14.866
23 2 0.127256 0.571853 12.6359
24 2 2.20308 3.28565 9.68374
25 2 5.80506 3.45728 6.9504
26 2 4.42487 1.32299 9.64005
27 2 5.49645 3.05574 11.8802
28 2 1.89762 -0.107194 9.33097
29 2 2.88098 2.12232 7.47332
30 2 3.30473 3.93678 4.62053
31 2 3.05392 1.17985 5.0089
32 2 4.47668 1.40874 2.65807
33 2 5.87993 2.7206 4.4692
34 2 4.41284 4.41781 2.25672
35 2 0.641279 0.600686 6.94985
ITEM: TIMESTEP
8800
ITEM: NUMBER OF ATOMS
35
ITEM: BOX BOUNDS xy xz yz pp pp pp
0.0000000000000000e+00 7.6685730000000003e+00 2.5561910000000001e+00
0.0000000000000000e+00 4.4274529999999999e+00 0.0000000000000000e+00
0.0000000000000000e+00 3.4699264999999997e+01 0.0000000000000000e+00
ITEM: ATOMS id type x y z
1 1 3.5167 2.58976 31.2028
2 1 1.8397 0.465203 31.3124
3 1 6.1895 2.67302 31.2354
4 1 2.97206 3.34727 28.8316
5 1 4.74778 0.250393 31.2926
6 1 4.20554 1.25068 29.3685
7 1 5.57116 3.68634 28.9395
8 1 1.80596 1.26128 29.1447
9 1 1.71845 0.194772 26.3217
10 1 2.98646 2.16906 26.6493
11 1 5.1375 2.52848 27.0253
12 1 4.19649 0.105776 26.9938
13 1 5.67232 3.44233 24.8218
14 1 4.72369 0.890553 24.4447
15 1 2.28135 1.71167 24.5352
16 2 4.33281 3.28422 14.4484
17 2 5.18391 1.93769 17.0171
18 2 2.67979 0.252587 17.4719
19 2 2.64864 3.31816 16.9502
20 2 2.71628 1.45812 12.0679
21 2 4.08273 0.359893 15.0241
22 2 1.62302 1.54556 14.9127
23 2 5.21894 0.174978 12.4357
24 2 2.11364 2.87696 9.78817
25 2 5.69098 3.73831 6.89301
26 2 4.57804 1.44591 9.67918
27 2 5.41542 3.25806 11.6785
28 2 4.85656 4.40435 9.5446
29 2 3.32978 2.2016 7.38317
30 2 2.97398 4.18098 4.88834
31 2 2.73992 1.28324 4.98713
32 2 4.39302 0.956092 2.67346
33 2 5.9145 2.97703 4.1181
34 2 2.00406 0.389222 2.61178
35 2 0.543017 1.04223 7.42738
ITEM: TIMESTEP
8900
ITEM: NUMBER OF ATOMS
35
ITEM: BOX BOUNDS xy xz yz pp pp pp
0.0000000000000000e+00 7.6685730000000003e+00 2.5561910000000001e+00
0.0000000000000000e+00 4.4274529999999999e+00 0.0000000000000000e+00
0.0000000000000000e+00 3.4699264999999997e+01 0.0000000000000000e+00
ITEM: ATOMS id type x y z
1 1 3.51592 2.60806 31.1957
2 1 2.511 0.486447 31.3871
3 1 5.90155 2.29769 31.3653
4 1 2.9586 3.76139 29.133
5 1 4.7447 0.255285 31.2756
6 1 4.22526 1.49889 29.1025
7 1 5.56972 3.82303 29.3862
8 1 1.8952 1.27225 28.7585
9 1 1.32003 -0.107122 26.1877
10 1 2.43688 2.54219 26.7418
11 1 5.22556 2.03283 27.0039
12 1 3.55234 0.325168 26.7713
13 1 5.7902 3.25771 24.9785
14 1 4.86962 0.765053 24.733
15 1 2.91422 1.90422 24.3865
16 2 3.84835 3.05897 14.4891
17 2 5.22957 1.81239 16.9216
18 2 5.77065 4.40728 17.4814
19 2 2.84066 2.89116 16.9051
20 2 2.7113 1.36971 12.1032
21 2 3.6504 0.216518 14.8437
22 2 1.43454 2.13203 14.3994
23 2 3.01524 4.09752 11.7971
24 2 2.14008 2.91535 9.63516
25 2 5.96202 4.07615 7.0132
26 2 4.88551 1.64194 10.2068
27 2 5.32443 2.98269 12.4742
28 2 2.11168 0.107911 9.37796
29 2 3.53582 2.74915 7.2582
30 2 2.95607 4.40943 5.18234
31 2 3.09318 1.58287 4.94535
32 2 4.32428 0.594603 2.46978
33 2 5.50708 2.95875 4.22018
34 2 1.50387 0.502329 2.74044
35 2 5.79753 0.950933 7.43558
ITEM: TIMESTEP
9000
ITEM: NUMBER OF ATOMS
35
ITEM: BOX BOUNDS xy xz yz pp pp pp
0.0000000000000000e+00 7.6685730000000003e+00 2.5561910000000001e+00
0.0000000000000000e+00 4.4274529999999999e+00 0.0000000000000000e+00
0.0000000000000000e+00 3.4699264999999997e+01 0.0000000000000000e+00
ITEM: ATOMS id type x y z
1 1 3.5776 2.44952 31.2848
2 1 2.27559 -0.010186 31.2371
3 1 6.22776 2.53986 31.1563
4 1 3.15698 3.89801 28.6967
5 1 4.78624 0.372631 31.1904
6 1 4.26496 1.58623 29.297
7 1 5.5866 3.62006 29.1293
8 1 1.54276 1.50259 28.9595
9 1 3.81602 4.42439 26.5227
10 1 1.97554 2.56416 26.9385
11 1 4.91599 2.11465 26.6809
12 1 3.64076 0.262267 27.3605
13 1 5.69329 3.30942 24.7809
14 1 5.23427 0.515762 24.653
15 1 3.16979 2.1448 24.7825
16 2 3.74653 3.5549 14.7906
17 2 5.68769 1.10184 16.8467
18 2 5.4958 4.37114 17.0459
19 2 2.87557 2.6552 17.1281
20 2 2.78702 1.1596 12.1943
21 2 3.74862 0.491598 14.5848
22 2 1.24071 1.46702 14.5745
23 2 2.87322 4.03001 12.199
24 2 2.03868 3.34941 9.3988
25 2 6.25526 4.2623 6.94214
26 2 4.61225 1.71945 9.93426
27 2 5.54519 2.88461 12.0579
28 2 2.374 0.0822459 9.76398
29 2 3.67877 2.63001 7.3651
30 2 0.44907 0.119121 4.87033
31 2 2.91596 1.55755 4.94459
32 2 3.8987 0.405426 2.56015
33 2 5.36369 2.82742 4.53799
34 2 1.43695 0.616177 2.67444
35 2 0.993121 1.69476 7.39375
ITEM: TIMESTEP
9100
ITEM: NUMBER OF ATOMS
35
ITEM: BOX BOUNDS xy xz yz pp pp pp
0.0000000000000000e+00 7.6685730000000003e+00 2.5561910000000001e+00
0.0000000000000000e+00 4.4274529999999999e+00 0.0000000000000000e+00
0.0000000000000000e+00 3.4699264999999997e+01 0.0000000000000000e+00
ITEM: ATOMS id type x y z
1 1 3.6361 2.29497 31.5086
2 1 2.14872 0.302583 31.4612
3 1 6.09256 2.4825 31.3053
4 1 2.7637 3.4981 29.0956
5 1 4.86065 0.0642892 31.0448
6 1 4.3678 1.38902 28.9344
7 1 5.55718 3.50997 28.9472
8 1 1.62267 1.38101 29.1354
9 1 3.91451 4.75286 26.7157
10 1 2.09324 2.44191 26.9117
11 1 4.67039 2.6927 27.0547
12 1 3.97063 0.156881 26.4742
13 1 5.62531 3.48399 24.8121
14 1 5.32219 0.689637 24.7324
15 1 3.10214 2.28982 24.7866
16 2 3.94789 3.02126 14.6705
17 2 5.31932 0.742932 17.4586
18 2 5.40857 3.72769 16.6213
19 2 2.77539 2.42069 17.1682
20 2 2.95809 1.35169 12.1134
21 2 4.27956 0.511979 14.6461
22 2 1.51643 2.24739 14.3916
23 2 2.78177 4.29683 12.3371
24 2 2.26085 3.33369 9.89772
25 2 6.17274 4.5562 7.02087
26 2 4.44175 1.61934 9.42169
27 2 5.46217 2.61021 11.904
28 2 1.87581 0.378905 9.68574
29 2 3.90918 2.98702 7.18571
30 2 0.342823 -0.210491 5.19854
31 2 2.40855 1.50446 4.75809
32 2 3.93589 0.143685 2.95277
33 2 5.39987 3.06787 4.55368
34 2 1.37156 1.04158 2.31857
35 2 1.48947 1.57909 7.41535
ITEM: TIMESTEP
9200
ITEM: NUMBER OF ATOMS
35
ITEM: BOX BOUNDS xy xz yz pp pp pp
0.0000000000000000e+00 7.6685730000000003e+00 2.5561910000000001e+00
0.0000000000000000e+00 4.4274529999999999e+00 0.0000000000000000e+00
0.0000000000000000e+00 3.4699264999999997e+01 0.0000000000000000e+00
ITEM: ATOMS id type x y z
1 1 3.2438 2.47867 31.107
2 1 2.27841 0.181884 31.4703
3 1 6.04202 2.23558 31.307
4 1 3.2721 3.2572 28.984
5 1 4.80995 0.220624 31.4107
6 1 4.21686 1.08831 29.0043
7 1 5.67779 3.35545 29.4027
8 1 1.71329 1.26179 29.2976
9 1 1.00484 0.341338 26.9626
10 1 2.35365 2.71787 26.9714
11 1 5.09944 2.54987 26.6782
12 1 3.28156 0.519538 26.6727
13 1 5.42456 3.45133 24.5925
14 1 5.56439 1.08835 24.5599
15 1 3.10325 2.37856 24.7259
16 2 4.29408 3.35983 14.2301
17 2 5.07425 0.765993 17.2635
18 2 5.38129 3.28523 16.9141
19 2 2.72518 1.95713 16.8432
20 2 2.99125 1.19951 12.0966
21 2 4.53337 0.489649 14.9798
22 2 1.62405 2.00028 14.5663
23 2 3.10527 4.49661 12.2675
24 2 1.9678 3.03136 10.0237
25 2 3.91449 0.0599049 7.4008
26 2 4.43532 1.72582 9.35172
27 2 5.24953 2.80123 11.8411
28 2 1.71344 0.32581 9.83265
29 2 3.98317 3.311 7.24327
30 2 2.63278 4.47431 4.98705
31 2 2.61053 1.57716 4.78188
32 2 4.06856 -0.0324609 2.82533
33 2 4.79985 2.65551 4.54138
34 2 1.55848 1.49797 2.50136
35 2 1.43209 1.90676 7.14851
ITEM: TIMESTEP
9300
ITEM: NUMBER OF ATOMS
35
ITEM: BOX BOUNDS xy xz yz pp pp pp
0.0000000000000000e+00 7.6685730000000003e+00 2.5561910000000001e+00
0.0000000000000000e+00 4.4274529999999999e+00 0.0000000000000000e+00
0.0000000000000000e+00 3.4699264999999997e+01 0.0000000000000000e+00
ITEM: ATOMS id type x y z
1 1 3.5386 2.07473 31.1476
2 1 2.13562 -0.228546 31.1539
3 1 5.95243 2.2866 31.9167
4 1 3.3775 3.39421 29.1198
5 1 4.54121 -0.0197327 31.1859
6 1 4.57211 1.23575 29.0178
7 1 5.88286 3.44801 28.9441
8 1 2.20218 1.18028 29.0699
9 1 0.707443 0.40994 26.9968
10 1 1.82825 2.67619 26.87
11 1 4.28282 2.65505 26.9203
12 1 3.32798 0.53004 26.8196
13 1 5.42956 4.21647 24.5938
14 1 5.88217 1.09171 24.8153
15 1 3.31647 2.30274 24.8084
16 2 4.5046 3.55807 14.716
17 2 5.6419 0.254305 17.4145
18 2 5.11715 3.36906 17.0576
19 2 2.85045 1.74783 16.713
20 2 3.05865 1.26938 12.1738
21 2 4.21106 0.439862 14.5676
22 2 1.68654 1.76926 14.2747
23 2 2.7041 4.41033 12.0795
24 2 1.83878 3.176 9.65242
25 2 4.1635 0.441094 7.5989
26 2 4.3639 1.82757 9.81749
27 2 5.38178 2.87082 12.0546
28 2 1.84023 0.120391 9.56912
29 2 3.94307 3.43581 7.18846
30 2 2.46425 4.42381 4.93876
31 2 2.60407 1.13615 5.19265
32 2 4.06017 -0.165548 2.3117
33 2 5.08695 3.07662 4.20722
34 2 1.51782 1.63931 2.82758
35 2 1.094 2.04386 7.20227
ITEM: TIMESTEP
9400
ITEM: NUMBER OF ATOMS
35
ITEM: BOX BOUNDS xy xz yz pp pp pp
0.0000000000000000e+00 7.6685730000000003e+00 2.5561910000000001e+00
0.0000000000000000e+00 4.4274529999999999e+00 0.0000000000000000e+00
0.0000000000000000e+00 3.4699264999999997e+01 0.0000000000000000e+00
ITEM: ATOMS id type x y z
1 1 3.45606 1.69221 31.3236
2 1 4.49546 4.31518 31.0144
3 1 5.9257 1.84096 31.441
4 1 3.55657 3.46546 28.9803
5 1 7.1091 3.88464 31.1745
6 1 5.00023 1.45079 29.5907
7 1 6.03723 3.65968 29.0269
8 1 2.28391 1.38027 28.9804
9 1 0.41995 0.547918 27.1277
10 1 6.53669 2.8014 26.4519
11 1 4.0931 2.65908 26.9747
12 1 3.24961 0.524385 27.0633
13 1 5.44069 4.21279 24.9796
14 1 5.85409 1.41208 24.7074
15 1 3.61736 2.4091 24.8144
16 2 3.78915 3.23511 14.7498
17 2 0.515331 0.0783101 16.8598
18 2 6.07661 2.90132 17.3232
19 2 3.05011 1.57951 16.791
20 2 2.59481 1.49919 12.1371
21 2 4.19309 0.441792 14.5393
22 2 1.43363 2.15521 14.8484
23 2 2.97109 4.05766 11.9096
24 2 7.02211 3.29297 9.4554
25 2 3.67949 0.923843 7.63912
26 2 4.53118 1.90485 10.0219
27 2 5.39093 2.86573 12.4449
28 2 1.87552 0.372878 9.39444
29 2 3.85983 3.51568 6.84364
30 2 2.51162 3.85812 4.65064
31 2 2.7494 1.22684 5.34473
32 2 4.10579 0.338207 2.40724
33 2 4.8963 3.04034 3.91663
34 2 1.79769 1.31069 2.98079
35 2 6.246 2.19391 7.20525
ITEM: TIMESTEP
9500
ITEM: NUMBER OF ATOMS
35
ITEM: BOX BOUNDS xy xz yz pp pp pp
0.0000000000000000e+00 7.6685730000000003e+00 2.5561910000000001e+00
0.0000000000000000e+00 4.4274529999999999e+00 0.0000000000000000e+00
0.0000000000000000e+00 3.4699264999999997e+01 0.0000000000000000e+00
ITEM: ATOMS id type x y z
1 1 3.24612 1.81109 31.6022
2 1 4.81702 3.69854 31.247
3 1 6.01811 1.59616 31.6824
4 1 3.62088 3.84302 28.9929
5 1 7.17603 4.11326 31.6657
6 1 4.55309 1.40139 28.8578
7 1 6.03889 3.55897 29.1275
8 1 2.04122 1.65105 29.6069
9 1 0.440512 0.597402 26.6842
10 1 2.18374 2.98206 26.7541
11 1 4.93303 2.83005 26.9073
12 1 2.78497 0.794011 26.9958
13 1 5.23849 4.02324 24.6918
14 1 5.63981 1.10691 24.5181
15 1 3.10212 2.40003 24.5948
16 2 3.72624 3.26615 14.3159
17 2 3.34638 4.38879 16.7615
18 2 6.36463 2.83864 17.728
19 2 3.66886 1.08345 17.2026
20 2 2.49178 1.32529 12.3873
21 2 3.8012 0.489725 14.3078
22 2 6.18095 1.92346 15.0369
23 2 2.59877 4.37077 12.007
24 2 2.12627 3.27171 9.63195
25 2 3.85589 0.855909 7.72315
26 2 4.83144 2.14706 9.86209
27 2 5.32291 2.97179 12.263
28 2 1.73428 0.383643 9.63908
29 2 3.69552 3.88261 7.06367
30 2 7.40196 4.01326 4.68932
31 2 2.87108 1.13281 5.14772
32 2 4.34296 0.540452 2.25099
33 2 4.87651 2.50428 4.03561
34 2 1.762 1.30834 2.63309
35 2 6.00404 2.46836 6.67858
ITEM: TIMESTEP
9600
ITEM: NUMBER OF ATOMS
35
ITEM: BOX BOUNDS xy xz yz pp pp pp
0.0000000000000000e+00 7.6685730000000003e+00 2.5561910000000001e+00
0.0000000000000000e+00 4.4274529999999999e+00 0.0000000000000000e+00
0.0000000000000000e+00 3.4699264999999997e+01 0.0000000000000000e+00
ITEM: ATOMS id type x y z
1 1 3.56846 1.648 31.6348
2 1 4.65961 3.82377 31.2527
3 1 6.03928 1.67234 31.6852
4 1 3.05502 3.95514 29.1491
5 1 7.30691 3.59167 31.1146
6 1 4.55153 1.90174 29.2112
7 1 5.93507 3.82753 29.0558
8 1 2.12353 1.41633 29.4262
9 1 0.948777 0.79698 26.7311
10 1 2.11195 2.72539 27.2905
11 1 4.46465 3.06282 26.7864
12 1 3.54034 0.700905 26.7916
13 1 5.34317 4.07718 24.6596
14 1 5.40671 1.28029 24.4358
15 1 2.65044 2.07746 24.9804
16 2 3.57035 3.37398 14.2701
17 2 4.35103 3.70568 16.9575
18 2 6.31802 2.77735 17.6849
19 2 3.75164 1.32782 17.1635
20 2 2.63751 1.92779 12.0226
21 2 3.49301 0.138886 14.9851
22 2 6.03266 1.84072 14.8852
23 2 4.70832 0.283646 12.049
24 2 2.14079 3.17563 9.4776
25 2 3.75501 0.763426 7.51785
26 2 4.56833 2.05399 9.60637
27 2 5.24657 2.7632 12.1798
28 2 2.094 0.571997 9.9186
29 2 3.64987 3.92323 7.32852
30 2 2.68058 4.21315 4.63544
31 2 2.4519 0.997078 5.10679
32 2 4.16037 -0.0797971 2.08077
33 2 5.06757 3.02434 4.06231
34 2 1.91927 1.50196 2.59199
35 2 5.89584 2.40216 6.74449
ITEM: TIMESTEP
9700
ITEM: NUMBER OF ATOMS
35
ITEM: BOX BOUNDS xy xz yz pp pp pp
0.0000000000000000e+00 7.6685730000000003e+00 2.5561910000000001e+00
0.0000000000000000e+00 4.4274529999999999e+00 0.0000000000000000e+00
0.0000000000000000e+00 3.4699264999999997e+01 0.0000000000000000e+00
ITEM: ATOMS id type x y z
1 1 3.40892 1.09246 31.5364
2 1 4.55828 3.76385 31.0985
3 1 5.85751 1.4021 31.5534
4 1 3.26784 4.14805 28.7888
5 1 2.1443 3.66794 30.9552
6 1 4.65518 1.82252 29.3175
7 1 5.76396 4.34402 28.9874
8 1 2.14538 2.05347 29.3559
9 1 1.61638 0.479174 26.6936
10 1 6.74427 2.77596 27.3217
11 1 4.43418 2.6371 27.1223
12 1 4.09446 0.523479 26.6446
13 1 5.46626 3.90704 24.8949
14 1 4.96061 1.63866 25.0439
15 1 2.45226 2.46028 25.1827
16 2 3.12477 3.07773 14.6238
17 2 3.90956 4.34681 16.9438
18 2 1.95873 2.36244 17.2412
19 2 4.23945 1.26736 17.1902
20 2 2.45911 2.06924 12.1615
21 2 6.01412 4.3131 14.8128
22 2 0.90692 1.45909 14.9706
23 2 5.07546 0.423788 12.1565
24 2 6.88333 3.53679 9.34667
25 2 3.26587 0.744505 7.28625
26 2 4.8563 1.68298 9.44507
27 2 5.08276 3.52668 12.1738
28 2 2.09233 0.258629 9.9489
29 2 3.65752 3.65528 7.2391
30 2 2.73132 4.39295 4.75063
31 2 2.67249 1.55982 5.0234
32 2 6.64176 4.31307 2.50833
33 2 4.68484 2.62221 3.65432
34 2 2.11015 1.66361 2.55677
35 2 6.17348 2.20938 7.13216
ITEM: TIMESTEP
9800
ITEM: NUMBER OF ATOMS
35
ITEM: BOX BOUNDS xy xz yz pp pp pp
0.0000000000000000e+00 7.6685730000000003e+00 2.5561910000000001e+00
0.0000000000000000e+00 4.4274529999999999e+00 0.0000000000000000e+00
0.0000000000000000e+00 3.4699264999999997e+01 0.0000000000000000e+00
ITEM: ATOMS id type x y z
1 1 2.99474 1.33704 31.7964
2 1 4.30976 3.32992 31.1062
3 1 5.85281 1.35899 31.6169
4 1 3.35961 4.16572 28.9832
5 1 1.89324 3.91777 31.3923
6 1 4.96738 1.79695 29.1631
7 1 5.65552 4.12704 29.2005
8 1 2.15882 1.98516 29.5812
9 1 1.26803 0.527022 26.0487
10 1 6.80034 2.57199 27.4366
11 1 4.06253 2.73444 26.9817
12 1 4.33232 0.429952 27.0123
13 1 5.81964 4.09678 24.8115
14 1 5.048 1.45832 24.7434
15 1 2.90203 3.0485 24.9351
16 2 3.47084 2.50683 14.7749
17 2 4.60087 3.90138 17.1921
18 2 1.78741 2.79517 16.8915
19 2 4.39359 1.34002 17.1206
20 2 2.32156 2.14927 12.1426
21 2 5.91415 4.47169 14.6779
22 2 0.659513 1.31135 14.3672
23 2 5.07522 0.657445 12.1671
24 2 7.17898 3.12025 9.68372
25 2 3.56656 0.599534 7.58094
26 2 4.63484 1.86623 9.89559
27 2 5.01851 3.74947 12.315
28 2 1.79881 0.240276 9.53481
29 2 3.66039 3.281 7.25638
30 2 2.54214 4.81411 5.24711
31 2 2.34554 1.80289 4.85507
32 2 7.07677 4.51068 2.65802
33 2 4.75516 2.76173 3.46658
34 2 1.79565 1.44455 2.25751
35 2 5.99471 2.10204 6.97154
ITEM: TIMESTEP
9900
ITEM: NUMBER OF ATOMS
35
ITEM: BOX BOUNDS xy xz yz pp pp pp
0.0000000000000000e+00 7.6685730000000003e+00 2.5561910000000001e+00
0.0000000000000000e+00 4.4274529999999999e+00 0.0000000000000000e+00
0.0000000000000000e+00 3.4699264999999997e+01 0.0000000000000000e+00
ITEM: ATOMS id type x y z
1 1 3.25668 1.50832 32.06
2 1 4.13272 3.93275 31.6637
3 1 5.37753 1.49041 31.3234
4 1 3.41488 4.00905 28.9332
5 1 6.63278 3.3845 31.6253
6 1 4.70435 1.68029 29.182
7 1 6.03508 3.92199 29.3522
8 1 2.29173 1.61037 29.8867
9 1 1.94966 0.806038 25.9709
10 1 1.49058 2.43138 27.3381
11 1 4.35288 2.98094 26.8101
12 1 3.95463 0.416539 27.0262
13 1 5.91445 3.83542 24.8065
14 1 4.80556 1.73126 24.5151
15 1 2.97494 3.30565 24.6092
16 2 3.79101 3.0161 14.406
17 2 4.57355 4.20186 17.3368
18 2 2.29471 2.44784 16.5913
19 2 4.3271 1.22484 16.9832
20 2 2.28743 2.17095 12.4468
21 2 6.0261 4.20512 14.7612
22 2 6.26672 1.20703 14.6948
23 2 4.58704 0.393879 12.0548
24 2 1.87884 3.0449 9.66254
25 2 3.92595 0.383382 7.81435
26 2 4.45963 2.0302 9.87746
27 2 4.77555 3.48451 12.0312
28 2 1.68022 0.379033 9.43833
29 2 3.47026 3.1923 7.09397
30 2 4.59505 0.649731 5.24724
31 2 2.19697 1.69757 4.60979
32 2 4.73979 -0.225528 2.81857
33 2 4.9614 3.5589 3.68554
34 2 1.65493 1.22913 2.17227
35 2 6.14682 2.22333 7.22672
ITEM: TIMESTEP
10000
ITEM: NUMBER OF ATOMS
35
ITEM: BOX BOUNDS xy xz yz pp pp pp
0.0000000000000000e+00 7.6685730000000003e+00 2.5561910000000001e+00
0.0000000000000000e+00 4.4274529999999999e+00 0.0000000000000000e+00
0.0000000000000000e+00 3.4699264999999997e+01 0.0000000000000000e+00
ITEM: ATOMS id type x y z
1 1 2.69501 1.49571 32.1681
2 1 4.38627 3.69343 31.2617
3 1 5.09724 1.35193 31.2249
4 1 3.3358 4.08079 28.9535
5 1 6.89922 3.67674 31.7849
6 1 4.43244 1.91278 28.8035
7 1 6.0968 3.90891 29.6224
8 1 2.20951 1.57909 29.8452
9 1 2.02936 1.37073 25.4361
10 1 1.91576 2.30726 27.5398
11 1 4.28723 3.24169 26.8178
12 1 4.28692 0.386661 27.0197
13 1 5.78921 3.56379 24.9306
14 1 4.50538 1.15588 25.0208
15 1 3.1975 3.46267 24.9454
16 2 3.77089 2.79376 14.4078
17 2 4.457 4.21903 17.3302
18 2 2.49354 2.62591 16.7552
19 2 4.75829 1.09639 16.8316
20 2 1.89801 1.58463 12.2644
21 2 6.49833 4.28159 14.6011
22 2 1.19601 1.08583 14.7844
23 2 4.64726 0.508853 12.1813
24 2 6.88675 3.46513 10.0063
25 2 3.46757 0.549515 7.49128
26 2 4.45721 1.98296 9.66583
27 2 4.55364 3.50459 11.9167
28 2 1.68333 0.395228 9.69988
29 2 3.77178 3.50676 6.6416
30 2 4.64759 0.578919 5.16741
31 2 2.18243 1.95705 4.69903
32 2 7.21657 3.93706 2.68729
33 2 4.60828 3.49378 4.42117
34 2 1.82648 1.33714 2.1342
35 2 6.21813 1.98815 7.1707
ITEM: TIMESTEP
10100
ITEM: NUMBER OF ATOMS
35
ITEM: BOX BOUNDS xy xz yz pp pp pp
0.0000000000000000e+00 7.6685730000000003e+00 2.5561910000000001e+00
0.0000000000000000e+00 4.4274529999999999e+00 0.0000000000000000e+00
0.0000000000000000e+00 3.4699264999999997e+01 0.0000000000000000e+00
ITEM: ATOMS id type x y z
1 1 2.48398 0.956914 32.1265
2 1 3.98164 3.41915 31.162
3 1 5.39828 1.26024 31.2173
4 1 3.42038 4.59377 29.0551
5 1 6.77041 3.62029 31.8012
6 1 4.52537 1.97872 28.9323
7 1 5.77605 4.11221 29.4009
8 1 2.18646 2.18631 29.9041
9 1 1.77968 1.16155 25.1849
10 1 2.27133 1.78683 27.5886
11 1 4.63363 3.68198 27.3318
12 1 4.33724 0.0574508 27.0253
13 1 5.75308 3.31439 25.178
14 1 4.45483 1.36444 24.8163
15 1 3.26021 3.83915 24.9447
16 2 3.88185 2.3178 14.5397
17 2 5.36057 3.83751 17.067
18 2 2.33928 2.85719 17.0503
19 2 4.42225 1.47085 16.9542
20 2 2.06894 2.04787 11.9774
21 2 6.14029 3.9022 14.6057
22 2 1.41007 1.02273 14.7123
23 2 4.52809 0.567579 12.2425
24 2 7.02078 3.58353 9.78078
25 2 3.412 0.636362 6.97447
26 2 4.22828 2.04284 9.55718
27 2 4.50988 3.25757 12.1922
28 2 1.83925 0.609986 9.58201
29 2 3.43868 3.50994 7.33968
30 2 4.90111 0.597826 4.73655
31 2 2.16704 2.17498 4.9984
32 2 6.99692 3.92625 2.42767
33 2 4.89376 3.25916 4.12032
34 2 1.82801 1.03449 2.69657
35 2 5.89808 2.18456 7.19914
ITEM: TIMESTEP
10200
ITEM: NUMBER OF ATOMS
35
ITEM: BOX BOUNDS xy xz yz pp pp pp
0.0000000000000000e+00 7.6685730000000003e+00 2.5561910000000001e+00
0.0000000000000000e+00 4.4274529999999999e+00 0.0000000000000000e+00
0.0000000000000000e+00 3.4699264999999997e+01 0.0000000000000000e+00
ITEM: ATOMS id type x y z
1 1 2.64082 1.09836 31.6699
2 1 3.84521 3.0412 31.5276
3 1 5.22766 0.970416 31.4297
4 1 0.756574 0.149876 29.3492
5 1 6.37239 3.11022 31.8535
6 1 4.52468 2.43086 29.0663
7 1 5.83075 4.64145 29.6594
8 1 2.06739 2.48078 29.5606
9 1 1.77905 1.02841 25.147
10 1 2.68383 1.75862 27.4301
11 1 4.35224 3.46185 26.9601
12 1 5.00356 0.583336 27.176
13 1 5.81323 3.63782 25.0645
14 1 4.52011 1.44164 24.9453
15 1 2.92239 3.22239 25.137
16 2 3.6296 2.03548 14.6869
17 2 4.67945 4.50168 16.902
18 2 2.60983 2.83018 17.0508
19 2 5.24248 1.02671 17.0571
20 2 2.14481 2.22158 12.1511
21 2 6.298 3.32056 14.5279
22 2 1.17496 0.676674 14.7292
23 2 4.5297 0.555417 12.1593
24 2 6.52609 3.72867 9.72555
25 2 3.51025 0.53826 6.78729
26 2 4.42101 1.94417 9.75061
27 2 4.67373 3.85745 12.1269
28 2 1.92092 0.746504 9.45148
29 2 3.04093 3.49874 7.45969
30 2 5.03461 0.584793 4.45771
31 2 2.56631 2.46454 5.18917
32 2 6.96705 3.75897 2.19866
33 2 5.07392 3.14278 4.132
34 2 1.89392 0.891539 2.78494
35 2 5.39548 2.46342 7.31794
ITEM: TIMESTEP
10300
ITEM: NUMBER OF ATOMS
35
ITEM: BOX BOUNDS xy xz yz pp pp pp
0.0000000000000000e+00 7.6685730000000003e+00 2.5561910000000001e+00
0.0000000000000000e+00 4.4274529999999999e+00 0.0000000000000000e+00
0.0000000000000000e+00 3.4699264999999997e+01 0.0000000000000000e+00
ITEM: ATOMS id type x y z
1 1 2.33697 0.987545 31.3556
2 1 3.79345 3.33907 31.7613
3 1 4.60843 0.78104 31.7677
4 1 1.03432 0.151131 29.4064
5 1 6.14253 3.0176 31.6937
6 1 4.68119 2.3764 29.7937
7 1 3.58675 0.501616 29.0543
8 1 2.13171 2.454 29.2773
9 1 1.71467 1.05846 25.2381
10 1 2.66762 1.67579 27.0751
11 1 4.98519 3.48264 27.2959
12 1 5.23705 1.04222 27.3494
13 1 5.69473 3.3777 24.9223
14 1 4.11283 1.34498 25.0398
15 1 2.91537 3.19587 25.2639
16 2 3.63853 1.63106 14.5622
17 2 3.11653 -0.137548 16.9975
18 2 2.34919 2.65974 17.0724
19 2 4.97446 1.48387 17.0884
20 2 2.16094 2.26495 12.1615
21 2 6.18968 3.23294 14.784
22 2 0.818517 -0.0899472 14.2599
23 2 4.90345 1.12502 12.2809
24 2 6.60953 3.63618 10.1176
25 2 2.86327 0.609633 6.95236
26 2 4.13034 2.1773 9.89916
27 2 4.57948 3.94534 11.9705
28 2 1.49597 0.961263 9.36289
29 2 3.13343 3.83977 7.45112
30 2 5.00269 0.64437 4.54264
31 2 2.65264 2.1817 4.72499
32 2 7.2599 3.54603 2.38913
33 2 5.11985 3.52437 4.53604
34 2 2.27548 1.0414 2.53292
35 2 5.55247 2.02833 6.84834
ITEM: TIMESTEP
10400
ITEM: NUMBER OF ATOMS
35
ITEM: BOX BOUNDS xy xz yz pp pp pp
0.0000000000000000e+00 7.6685730000000003e+00 2.5561910000000001e+00
0.0000000000000000e+00 4.4274529999999999e+00 0.0000000000000000e+00
0.0000000000000000e+00 3.4699264999999997e+01 0.0000000000000000e+00
ITEM: ATOMS id type x y z
1 1 2.18903 0.800697 31.2211
2 1 3.14116 3.17892 32.1002
3 1 4.65285 1.1315 31.8267
4 1 1.22637 0.291692 29.0274
5 1 6.01114 3.32152 31.3725
6 1 4.84961 2.30561 29.5102
7 1 3.74353 0.186553 29.3801
8 1 2.5014 2.6009 29.615
9 1 1.56687 1.04603 24.6784
10 1 3.02237 1.87895 27.2586
11 1 5.13249 3.55865 27.2736
12 1 5.64107 1.20373 27.1322
13 1 5.18141 3.03951 25.093
14 1 3.76509 0.811234 25.1834
15 1 2.88846 3.57472 25.9157
16 2 3.37566 1.08887 14.6451
17 2 5.16539 4.36192 17.1313
18 2 2.87115 2.56678 17.1323
19 2 5.36865 1.66311 16.732
20 2 2.43581 2.56446 12.4223
21 2 5.73132 2.71623 14.2767
22 2 3.54513 4.08264 14.9994
23 2 4.87898 1.2176 12.1682
24 2 6.74084 4.08106 9.68685
25 2 2.92852 0.607785 7.37966
26 2 3.72119 2.37658 9.20293
27 2 4.80336 3.97778 11.8935
28 2 1.23108 1.17056 9.66841
29 2 2.59955 3.43688 7.10969
30 2 5.15137 0.760385 4.6074
31 2 2.65948 2.16608 4.84836
32 2 2.54849 3.78494 2.58126
33 2 4.96722 3.95903 4.7289
34 2 2.57088 0.402907 2.23077
35 2 5.57793 2.12446 6.98634
ITEM: TIMESTEP
10500
ITEM: NUMBER OF ATOMS
35
ITEM: BOX BOUNDS xy xz yz pp pp pp
0.0000000000000000e+00 7.6685730000000003e+00 2.5561910000000001e+00
0.0000000000000000e+00 4.4274529999999999e+00 0.0000000000000000e+00
0.0000000000000000e+00 3.4699264999999997e+01 0.0000000000000000e+00
ITEM: ATOMS id type x y z
1 1 1.83245 1.05653 31.8453
2 1 3.31719 3.23518 31.6454
3 1 4.52939 1.08699 31.3554
4 1 1.20397 0.113488 29.4188
5 1 5.81562 3.30269 31.6932
6 1 5.34106 2.46752 29.1753
7 1 4.00929 0.103898 29.5111
8 1 2.44579 2.43327 29.6859
9 1 1.29941 1.05454 24.6897
10 1 3.41725 1.70217 27.7211
11 1 5.26381 3.92853 26.9547
12 1 5.88184 1.59573 26.7552
13 1 4.67304 2.8882 24.8489
14 1 3.73596 0.73324 25.3582
15 1 2.63076 3.35691 26.1926
16 2 3.09862 0.718168 14.7465
17 2 5.29157 4.32893 17.3399
18 2 2.75218 2.90777 17.1829
19 2 5.53593 1.5391 16.7576
20 2 2.79465 2.74584 12.1717
21 2 5.71699 2.31824 14.1708
22 2 3.18903 3.78962 14.571
23 2 4.86092 0.809799 11.9934
24 2 6.39705 4.2225 9.59643
25 2 2.65879 0.549095 7.2286
26 2 3.93278 2.92434 9.59936
27 2 5.00907 4.28774 11.8715
28 2 1.29117 1.47962 9.81465
29 2 2.72908 3.73734 6.92489
30 2 5.06925 1.00904 4.65289
31 2 2.60018 2.20362 4.54683
32 2 2.86728 3.54659 2.43131
33 2 5.19276 3.68455 4.92876
34 2 2.83086 0.241633 2.59361
35 2 5.09457 2.02131 7.21659
ITEM: TIMESTEP
10600
ITEM: NUMBER OF ATOMS
35
ITEM: BOX BOUNDS xy xz yz pp pp pp
0.0000000000000000e+00 7.6685730000000003e+00 2.5561910000000001e+00
0.0000000000000000e+00 4.4274529999999999e+00 0.0000000000000000e+00
0.0000000000000000e+00 3.4699264999999997e+01 0.0000000000000000e+00
ITEM: ATOMS id type x y z
1 1 2.00894 1.35202 31.9775
2 1 3.31051 3.66 31.816
3 1 4.40111 1.22321 31.4256
4 1 1.42626 -0.0243664 29.5857
5 1 5.88689 3.38292 31.4001
6 1 5.12607 2.07568 29.6374
7 1 6.49137 4.24358 28.7282
8 1 2.69079 2.04634 29.7059
9 1 1.08252 0.947868 24.8345
10 1 3.89142 1.78315 27.1722
11 1 4.81684 3.94343 27.0649
12 1 6.31021 1.34771 27.4259
13 1 4.47585 3.14264 24.747
14 1 3.73373 0.842338 25.156
15 1 2.18086 3.65255 26.4446
16 2 3.14059 0.743078 14.8893
17 2 5.55621 4.19632 17.2138
18 2 2.66141 2.96666 16.8639
19 2 5.10737 1.44484 16.8248
20 2 2.52446 2.06143 11.8475
21 2 5.76555 2.23457 14.3549
22 2 2.97229 3.53043 14.1957
23 2 5.18727 1.13196 11.9695
24 2 6.41087 4.58595 9.37769
25 2 2.26058 1.13188 6.92908
26 2 3.86909 3.56755 9.8725
27 2 5.13004 4.0276 12.4857
28 2 1.52937 1.73458 9.44288
29 2 2.67605 3.63355 7.27272
30 2 5.15429 0.595613 4.42714
31 2 2.43219 2.1647 4.73401
32 2 3.17298 3.32015 2.49086
33 2 5.38234 3.43105 5.03981
34 2 3.1495 0.380796 2.7464
35 2 4.87228 2.13554 7.26572
ITEM: TIMESTEP
10700
ITEM: NUMBER OF ATOMS
35
ITEM: BOX BOUNDS xy xz yz pp pp pp
0.0000000000000000e+00 7.6685730000000003e+00 2.5561910000000001e+00
0.0000000000000000e+00 4.4274529999999999e+00 0.0000000000000000e+00
0.0000000000000000e+00 3.4699264999999997e+01 0.0000000000000000e+00
ITEM: ATOMS id type x y z
1 1 1.7879 1.44715 31.5711
2 1 3.30052 3.39806 31.8332
3 1 4.52903 1.36854 32.0759
4 1 4.18583 4.20553 29.4575
5 1 5.8023 3.8642 31.0062
6 1 5.13197 1.81235 29.5375
7 1 6.83046 4.15596 28.9166
8 1 2.91243 1.81356 29.6867
9 1 0.870992 1.39232 25.7672
10 1 3.62531 1.43908 26.9677
11 1 4.82933 3.84072 27.3244
12 1 1.5765 2.00763 27.7063
13 1 4.45861 3.00113 24.9633
14 1 2.99264 0.638772 24.3518
15 1 7.42069 3.81128 26.2622
16 2 3.22826 0.86834 14.5607
17 2 4.82323 4.16451 17.084
18 2 2.88918 2.65905 16.5156
19 2 5.1075 0.831248 17.0518
20 2 2.49923 2.08601 11.7697
21 2 5.84433 2.0887 14.8927
22 2 3.16714 3.99922 14.1313
23 2 4.84858 0.875652 11.8291
24 2 3.81695 0.943026 9.57025
25 2 2.22788 0.568524 7.00767
26 2 4.14274 3.72901 9.81815
27 2 5.3757 3.48304 12.5579
28 2 1.38258 2.24015 9.18703
29 2 2.18963 3.97855 7.2775
30 2 5.36576 0.588949 4.59167
31 2 2.71224 2.1204 4.80807
32 2 3.89926 2.95984 2.51646
33 2 5.02569 3.52608 4.94296
34 2 3.29799 0.315766 2.57828
35 2 4.6021 2.51214 7.44571
ITEM: TIMESTEP
10800
ITEM: NUMBER OF ATOMS
35
ITEM: BOX BOUNDS xy xz yz pp pp pp
0.0000000000000000e+00 7.6685730000000003e+00 2.5561910000000001e+00
0.0000000000000000e+00 4.4274529999999999e+00 0.0000000000000000e+00
0.0000000000000000e+00 3.4699264999999997e+01 0.0000000000000000e+00
ITEM: ATOMS id type x y z
1 1 1.8469 1.24061 31.9456
2 1 3.11551 3.52782 31.4075
3 1 4.23536 1.53706 32.2145
4 1 4.11134 4.1349 29.3073
5 1 5.96709 3.84446 31.5153
6 1 5.51357 2.24436 29.9856
7 1 6.87315 4.42345 28.8281
8 1 3.10542 1.76024 29.7417
9 1 0.92436 1.54709 25.6596
10 1 4.00522 1.32741 26.8575
11 1 4.65539 3.82893 26.9883
12 1 1.52096 2.01819 27.7397
13 1 4.2129 2.76136 24.7828
14 1 2.88813 0.671664 24.7679
15 1 2.02756 3.48332 26.0019
16 2 3.54502 0.910789 14.1301
17 2 4.95976 3.96065 16.6208
18 2 2.59055 2.0724 16.8365
19 2 4.7044 0.553781 17.4876
20 2 2.56404 2.11437 12.1503
21 2 5.8172 2.45576 14.9458
22 2 3.57789 4.10642 14.1561
23 2 4.98873 0.421062 11.8165
24 2 3.77919 1.23955 9.60582
25 2 1.92781 0.797256 7.49872
26 2 3.95344 4.15336 10.0321
27 2 5.18864 3.15488 12.0241
28 2 6.42173 2.82039 9.56885
29 2 7.15251 4.12438 6.85357
30 2 5.3487 0.966381 4.6286
31 2 2.75867 1.96042 4.8768
32 2 4.45096 2.56542 2.24582
33 2 5.13568 3.58039 4.73097
34 2 3.75078 0.212769 2.70555
35 2 4.10396 2.31347 7.11094
ITEM: TIMESTEP
10900
ITEM: NUMBER OF ATOMS
35
ITEM: BOX BOUNDS xy xz yz pp pp pp
0.0000000000000000e+00 7.6685730000000003e+00 2.5561910000000001e+00
0.0000000000000000e+00 4.4274529999999999e+00 0.0000000000000000e+00
0.0000000000000000e+00 3.4699264999999997e+01 0.0000000000000000e+00
ITEM: ATOMS id type x y z
1 1 1.73068 1.59382 32.2385
2 1 2.96685 4.07988 31.3931
3 1 4.50749 1.71762 31.9055
4 1 4.52538 4.06971 29.2274
5 1 5.58334 3.75612 31.8102
6 1 5.62396 1.90817 29.9212
7 1 7.09533 4.05525 28.9802
8 1 3.1338 2.00429 30.0097
9 1 5.69187 1.01097 25.1739
10 1 3.81028 1.80449 27.5424
11 1 4.49246 3.88533 26.5575
12 1 1.32458 1.65717 27.5993
13 1 4.01157 2.94777 24.3961
14 1 3.21765 0.657073 24.9018
15 1 2.26455 3.3549 26.4
16 2 3.85993 0.899109 14.6987
17 2 4.84982 3.49874 16.9791
18 2 2.27904 2.10815 16.9208
19 2 4.83497 0.528949 16.8157
20 2 2.33078 1.69833 12.1994
21 2 6.31418 2.2586 14.3512
22 2 3.63329 3.94332 14.6946
23 2 5.0719 0.352911 12.1965
24 2 3.84888 1.47547 9.56811
25 2 1.4202 1.39376 7.29542
26 2 3.57925 4.40731 9.57425
27 2 4.8604 3.19331 12.0939
28 2 6.33012 3.14376 9.55546
29 2 6.8722 3.72137 6.81154
30 2 5.54819 0.769736 4.55456
31 2 2.78577 2.27082 4.37564
32 2 4.62231 2.68676 2.50244
33 2 5.09121 3.88093 5.0346
34 2 6.89572 4.02304 2.46695
35 2 4.29524 2.60373 7.22666
ITEM: TIMESTEP
11000
ITEM: NUMBER OF ATOMS
35
ITEM: BOX BOUNDS xy xz yz pp pp pp
0.0000000000000000e+00 7.6685730000000003e+00 2.5561910000000001e+00
0.0000000000000000e+00 4.4274529999999999e+00 0.0000000000000000e+00
0.0000000000000000e+00 3.4699264999999997e+01 0.0000000000000000e+00
ITEM: ATOMS id type x y z
1 1 1.72069 2.19029 31.9145
2 1 3.0573 4.04839 31.2713
3 1 4.2258 1.80876 32.2745
4 1 4.77671 3.87745 29.2891
5 1 5.44296 4.24851 31.4866
6 1 5.76812 1.60341 29.7028
7 1 7.1782 3.79885 28.7906
8 1 3.01845 1.70748 29.9544
9 1 5.60107 1.10208 25.0305
10 1 3.62805 1.65698 27.737
11 1 5.24561 3.80894 27.0718
12 1 0.919685 1.15669 27.2497
13 1 3.87065 3.24334 24.8622
14 1 3.06293 0.949638 25.2156
15 1 2.35309 3.42584 26.464
16 2 3.4212 0.930112 14.6272
17 2 4.81994 3.04479 17.3368
18 2 2.20235 2.04796 16.8401
19 2 5.3011 0.387015 16.9324
20 2 2.42466 1.53251 11.6931
21 2 6.40257 2.55591 14.3735
22 2 3.87711 3.72168 14.6216
23 2 4.71041 0.0826282 12.3976
24 2 3.66869 1.54243 9.60675
25 2 1.71509 1.23482 6.71094
26 2 3.6194 4.37906 9.67598
27 2 4.77565 3.28031 12.2123
28 2 6.13959 3.0214 9.65738
29 2 6.98624 4.5346 7.19678
30 2 5.17316 0.90599 4.50697
31 2 2.57747 2.21417 4.4232
32 2 4.80924 2.83047 2.66203
33 2 5.37342 3.91028 4.93329
34 2 7.26459 3.79118 2.23059
35 2 4.10033 2.86718 7.18647
ITEM: TIMESTEP
11100
ITEM: NUMBER OF ATOMS
35
ITEM: BOX BOUNDS xy xz yz pp pp pp
0.0000000000000000e+00 7.6685730000000003e+00 2.5561910000000001e+00
0.0000000000000000e+00 4.4274529999999999e+00 0.0000000000000000e+00
0.0000000000000000e+00 3.4699264999999997e+01 0.0000000000000000e+00
ITEM: ATOMS id type x y z
1 1 1.58079 2.09064 31.6666
2 1 2.83236 4.27865 31.371
3 1 4.12304 2.21445 31.9709
4 1 4.387 3.82668 29.5003
5 1 5.53958 4.39199 31.6785
6 1 5.71375 1.62318 29.5598
7 1 6.99574 3.65942 29.0045
8 1 3.18364 1.55687 29.8931
9 1 5.57718 1.42012 25.0482
10 1 3.66401 1.63607 27.7282
11 1 5.32498 2.95015 27.2854
12 1 1.22296 0.778176 27.4568
13 1 4.52077 3.53639 24.9781
14 1 2.79869 1.11746 25.3592
15 1 2.29476 3.67031 26.072
16 2 3.71828 0.998217 14.6438
17 2 5.1038 3.11078 16.873
18 2 2.67277 1.58021 17.0092
19 2 4.93717 0.0992066 16.9199
20 2 2.07693 1.74085 12.0779
21 2 6.05782 2.38825 14.66
22 2 3.55091 4.0108 14.7086
23 2 4.64202 0.0745916 12.1089
24 2 3.60568 1.43783 9.51519
25 2 1.90044 1.54581 7.32464
26 2 3.61067 4.43171 9.82339
27 2 4.6985 2.71582 12.0004
28 2 6.09568 2.87751 9.48746
29 2 4.45238 0.315894 7.22499
30 2 5.06035 0.916765 4.49409
31 2 2.61688 2.3736 4.52169
32 2 4.91582 2.74756 2.33953
33 2 5.50539 3.62822 4.90443
34 2 7.57926 4.09626 2.23013
35 2 4.04391 3.25368 6.86718
ITEM: TIMESTEP
11200
ITEM: NUMBER OF ATOMS
35
ITEM: BOX BOUNDS xy xz yz pp pp pp
0.0000000000000000e+00 7.6685730000000003e+00 2.5561910000000001e+00
0.0000000000000000e+00 4.4274529999999999e+00 0.0000000000000000e+00
0.0000000000000000e+00 3.4699264999999997e+01 0.0000000000000000e+00
ITEM: ATOMS id type x y z
1 1 1.49329 2.17109 31.8854
2 1 0.0462848 0.268221 31.5195
3 1 4.15844 2.38773 31.6713
4 1 4.18468 3.6939 29.7011
5 1 5.41206 4.33804 32.125
6 1 5.41111 1.57877 29.392
7 1 6.99743 3.92322 29.3612
8 1 2.91969 1.61471 29.7337
9 1 5.82553 1.472 25.4387
10 1 3.74317 0.991706 27.373
11 1 5.64623 2.66688 27.2958
12 1 1.4104 -0.165498 27.2823
13 1 4.62488 3.80694 24.9419
14 1 3.35613 1.93374 25.3533
15 1 6.95947 3.78439 25.7964
16 2 3.63217 1.1945 14.4223
17 2 4.99892 3.14103 16.695
18 2 2.41638 1.40917 17.0959
19 2 7.61681 4.36866 17.0999
20 2 1.94542 1.42687 12.4094
21 2 6.41295 2.21451 14.786
22 2 3.36853 3.75795 14.3067
23 2 7.0769 4.23057 12.015
24 2 3.40251 1.56032 9.82407
25 2 1.57775 1.77645 7.14154
26 2 3.49055 4.44291 9.76589
27 2 4.49958 2.82612 11.9186
28 2 5.87713 3.16214 9.63362
29 2 4.17279 0.147074 6.83514
30 2 5.79794 1.05749 4.89446
31 2 3.08075 2.42882 4.29467
32 2 5.21282 2.48108 2.32513
33 2 5.32649 3.97482 4.42029
34 2 2.65971 4.29214 2.53095
35 2 4.32305 3.2557 7.21511
ITEM: TIMESTEP
11300
ITEM: NUMBER OF ATOMS
35
ITEM: BOX BOUNDS xy xz yz pp pp pp
0.0000000000000000e+00 7.6685730000000003e+00 2.5561910000000001e+00
0.0000000000000000e+00 4.4274529999999999e+00 0.0000000000000000e+00
0.0000000000000000e+00 3.4699264999999997e+01 0.0000000000000000e+00
ITEM: ATOMS id type x y z
1 1 6.42405 2.66323 31.7229
2 1 0.405764 -0.0647649 31.7464
3 1 3.89515 2.31645 31.7732
4 1 4.25879 3.70178 29.6849
5 1 2.57555 0.368373 31.9036
6 1 5.09097 1.38842 30.1264
7 1 6.61473 3.64485 29.6906
8 1 2.7277 1.54552 29.5379
9 1 0.890877 1.86681 25.1667
10 1 3.69954 0.611636 27.5292
11 1 6.15188 2.52184 27.3427
12 1 3.24112 3.68899 27.3267
13 1 4.93094 4.21551 25.3263
14 1 3.65133 2.05407 25.2434
15 1 7.49479 4.09588 25.0695
16 2 3.72182 0.507279 14.6535
17 2 4.60978 2.80471 16.9328
18 2 2.23176 1.65903 16.98
19 2 -0.112934 0.142992 16.923
20 2 1.76934 0.978485 11.756
21 2 6.16894 2.50907 14.6637
22 2 3.82644 3.75144 14.6007
23 2 6.96826 3.90098 12.2293
24 2 3.06806 1.76317 9.59725
25 2 1.93614 1.94902 7.20136
26 2 0.48031 0.481249 9.23766
27 2 4.48783 2.71924 12.1942
28 2 5.83924 3.35431 9.77327
29 2 3.85106 0.241159 6.86973
30 2 0.685014 1.27927 4.6877
31 2 3.47199 2.49365 4.49315
32 2 5.70959 2.44545 2.36051
33 2 5.87759 4.18367 4.24029
34 2 2.71506 4.17274 2.69234
35 2 4.29433 2.90285 7.43097
ITEM: TIMESTEP
11400
ITEM: NUMBER OF ATOMS
35
ITEM: BOX BOUNDS xy xz yz pp pp pp
0.0000000000000000e+00 7.6685730000000003e+00 2.5561910000000001e+00
0.0000000000000000e+00 4.4274529999999999e+00 0.0000000000000000e+00
0.0000000000000000e+00 3.4699264999999997e+01 0.0000000000000000e+00
ITEM: ATOMS id type x y z
1 1 6.35913 2.25201 31.8575
2 1 4.96518 0.243218 32.348
3 1 3.80668 2.42038 32.0864
4 1 3.9512 3.62977 29.7693
5 1 2.6965 0.270053 31.3437
6 1 5.37455 1.40148 29.4833
7 1 6.37031 3.70641 29.456
8 1 2.4983 1.55096 29.3618
9 1 6.53804 2.41437 24.8301
10 1 3.85352 0.729978 27.6939
11 1 6.0243 2.06419 27.4325
12 1 3.30761 3.46707 27.426
13 1 4.86825 4.21478 25.9557
14 1 3.71281 1.96717 25.5445
15 1 2.71061 4.43156 24.9069
16 2 3.52402 0.819347 14.4763
17 2 4.97514 2.93289 17.3105
18 2 2.21784 1.68083 16.7597
19 2 4.39581 0.0243332 17.0435
20 2 1.70299 0.830528 11.7494
21 2 6.18777 1.86651 14.1685
22 2 3.65435 3.91572 15.0221
23 2 7.20628 3.80856 12.1903
24 2 3.11968 2.23129 9.77195
25 2 1.65998 2.01683 7.23562
26 2 5.29596 0.638032 9.14664
27 2 4.26104 1.88654 12.1658
28 2 5.56547 3.42842 9.58397
29 2 4.29241 0.261527 6.80351
30 2 0.832591 1.24042 4.98286
31 2 3.34175 2.92744 4.81506
32 2 5.98346 2.48825 2.32716
33 2 5.89749 4.03144 4.59749
34 2 3.31315 3.87764 2.20726
35 2 4.44236 3.28238 7.05258
ITEM: TIMESTEP
11500
ITEM: NUMBER OF ATOMS
35
ITEM: BOX BOUNDS xy xz yz pp pp pp
0.0000000000000000e+00 7.6685730000000003e+00 2.5561910000000001e+00
0.0000000000000000e+00 4.4274529999999999e+00 0.0000000000000000e+00
0.0000000000000000e+00 3.4699264999999997e+01 0.0000000000000000e+00
ITEM: ATOMS id type x y z
1 1 6.49217 2.18142 31.4584
2 1 5.00396 0.336556 31.9503
3 1 3.66005 2.6072 32.0336
4 1 3.6184 3.78894 29.8126
5 1 2.5714 -0.0561155 31.7788
6 1 4.77222 1.37018 30.0346
7 1 6.26557 3.59568 29.5926
8 1 2.4586 1.28406 29.2986
9 1 6.71244 2.70557 24.8725
10 1 4.00048 0.722883 27.4718
11 1 6.17693 1.91129 27.1992
12 1 3.13778 3.22072 27.5015
13 1 5.23045 4.27463 25.9287
14 1 3.92865 2.29762 25.39
15 1 2.8919 4.6542 25.465
16 2 3.48239 0.814315 14.5021
17 2 4.64232 2.99804 17.0624
18 2 2.04632 1.49859 16.7109
19 2 4.75586 0.0760854 17.0936
20 2 1.90964 0.307603 11.8853
21 2 5.95014 2.13001 14.2179
22 2 3.41526 3.37103 14.8593
23 2 7.01463 3.29365 12.1408
24 2 2.92681 2.4452 9.58745
25 2 1.93854 1.98414 7.39935
26 2 5.48478 0.707841 9.75994
27 2 4.30591 2.02809 11.9894
28 2 5.51359 3.87795 9.69873
29 2 4.38495 0.703359 7.04641
30 2 0.925361 1.06463 4.63298
31 2 3.0353 2.60814 4.42645
32 2 6.10563 2.31897 2.5549
33 2 5.6967 4.20066 4.3235
34 2 3.9881 3.9103 2.38835
35 2 4.38805 3.80416 7.02771
ITEM: TIMESTEP
11600
ITEM: NUMBER OF ATOMS
35
ITEM: BOX BOUNDS xy xz yz pp pp pp
0.0000000000000000e+00 7.6685730000000003e+00 2.5561910000000001e+00
0.0000000000000000e+00 4.4274529999999999e+00 0.0000000000000000e+00
0.0000000000000000e+00 3.4699264999999997e+01 0.0000000000000000e+00
ITEM: ATOMS id type x y z
1 1 1.28464 2.43682 31.5646
2 1 5.29314 -0.0641461 31.9528
3 1 4.01729 1.96468 32.1249
4 1 3.00765 3.67723 29.855
5 1 2.59659 0.0783455 31.6436
6 1 4.53379 1.7842 29.8337
7 1 5.83974 3.60771 29.3263
8 1 2.05276 1.33818 29.6572
9 1 6.64468 2.60208 24.8415
10 1 4.27105 0.619536 27.6912
11 1 0.942303 2.13708 27.2697
12 1 3.62478 3.17284 27.4434
13 1 5.46841 4.63075 25.9804
14 1 4.0909 2.17454 25.1977
15 1 0.35551 0.440156 25.7034
16 2 3.34759 0.27556 14.7323
17 2 4.42929 2.85491 16.761
18 2 2.15038 1.40967 16.8345
19 2 4.7905 0.107291 16.7817
20 2 1.9675 0.214857 12.5289
21 2 5.63007 2.12069 14.7978
22 2 3.09182 3.56869 14.1634
23 2 6.84144 3.08378 11.9643
24 2 3.10163 2.54321 9.71111
25 2 1.75217 2.38049 6.77299
26 2 5.85331 1.16499 9.76787
27 2 4.42906 1.72797 11.9663
28 2 5.75665 4.23459 9.36376
29 2 4.3759 1.03272 7.42069
30 2 5.44075 0.937809 4.98641
31 2 3.37038 2.35546 4.38008
32 2 6.46134 2.19978 2.31844
33 2 5.91041 4.06772 4.48179
34 2 4.07794 4.13372 2.46559
35 2 4.28556 3.68228 7.00418
ITEM: TIMESTEP
11700
ITEM: NUMBER OF ATOMS
35
ITEM: BOX BOUNDS xy xz yz pp pp pp
0.0000000000000000e+00 7.6685730000000003e+00 2.5561910000000001e+00
0.0000000000000000e+00 4.4274529999999999e+00 0.0000000000000000e+00
0.0000000000000000e+00 3.4699264999999997e+01 0.0000000000000000e+00
ITEM: ATOMS id type x y z
1 1 1.49756 2.18833 31.9319
2 1 2.8362 4.33241 32.3049
3 1 3.84977 2.20051 32.2534
4 1 2.7961 3.49865 29.8738
5 1 2.69249 0.128839 31.4926
6 1 4.4104 1.40167 30.1586
7 1 5.06981 3.77052 29.2523
8 1 1.70642 1.60682 29.1754
9 1 1.71748 2.52713 24.8143
10 1 4.71472 0.449604 27.6436
11 1 6.26351 2.59441 27.5003
12 1 3.77632 3.14938 27.4355
13 1 2.87346 0.436781 26.0506
14 1 4.248 2.42615 25.1637
15 1 0.330885 0.0338923 25.3605
16 2 2.85955 0.571159 14.543
17 2 4.51517 3.13787 16.908
18 2 2.17649 1.51528 17.1349
19 2 6.93686 4.0261 16.8689
20 2 1.82397 0.558508 11.8078
21 2 5.70634 1.49086 14.5488
22 2 2.80381 3.11348 14.3514
23 2 6.6958 3.18223 11.7205
24 2 3.65638 3.08663 9.71949
25 2 1.86376 2.89829 6.80624
26 2 1.24122 1.37095 9.26564
27 2 4.44622 1.25024 12.3882
28 2 5.91863 3.99152 9.53144
29 2 4.23549 1.13025 7.4336
30 2 0.743045 0.736606 4.95127
31 2 3.35957 2.20265 4.37459
32 2 1.56266 2.55789 2.57813
33 2 5.60745 3.56619 4.53783
34 2 3.90977 4.22699 2.60006
35 2 4.26537 3.859 7.01886
ITEM: TIMESTEP
11800
ITEM: NUMBER OF ATOMS
35
ITEM: BOX BOUNDS xy xz yz pp pp pp
0.0000000000000000e+00 7.6685730000000003e+00 2.5561910000000001e+00
0.0000000000000000e+00 4.4274529999999999e+00 0.0000000000000000e+00
0.0000000000000000e+00 3.4699264999999997e+01 0.0000000000000000e+00
ITEM: ATOMS id type x y z
1 1 6.36458 2.21832 31.5504
2 1 5.01413 0.419345 32.3003
3 1 3.93982 2.52481 32.3894
4 1 2.93037 3.47905 30.2495
5 1 5.26256 4.24927 31.9455
6 1 4.06366 1.28344 29.879
7 1 5.62608 3.19093 29.3088
8 1 1.59803 1.02924 29.6079
9 1 2.12196 2.0936 24.6849
10 1 5.2598 1.11022 27.7027
11 1 6.19512 3.23054 26.8289
12 1 3.29009 2.59878 27.4953
13 1 2.53284 0.660952 26.3327
14 1 4.49013 2.66025 25.2961
15 1 0.178459 0.155932 25.1997
16 2 5.53335 4.20253 14.2624
17 2 4.32652 3.0127 16.6418
18 2 1.72707 1.26228 17.3349
19 2 7.02212 4.34564 16.8297
20 2 1.55636 0.195664 11.3911
21 2 5.42676 1.50059 15.0059
22 2 2.9068 3.00103 14.4095
23 2 6.54224 2.97015 12.262
24 2 3.71397 2.63742 9.70028
25 2 2.1487 3.07904 7.18357
26 2 1.17027 1.45312 9.04789
27 2 4.24194 1.70667 11.9785
28 2 4.21937 0.154272 9.51684
29 2 4.2366 1.46781 6.94454
30 2 0.555435 0.579106 4.80176
31 2 3.198 1.75888 4.65333
32 2 6.67851 2.88299 2.50914
33 2 5.73715 3.57323 4.9016
34 2 3.8537 4.38253 2.30916
35 2 4.69434 4.251 7.27836
ITEM: TIMESTEP
11900
ITEM: NUMBER OF ATOMS
35
ITEM: BOX BOUNDS xy xz yz pp pp pp
0.0000000000000000e+00 7.6685730000000003e+00 2.5561910000000001e+00
0.0000000000000000e+00 4.4274529999999999e+00 0.0000000000000000e+00
0.0000000000000000e+00 3.4699264999999997e+01 0.0000000000000000e+00
ITEM: ATOMS id type x y z
1 1 6.08491 2.4859 31.5531
2 1 4.96419 0.240721 32.0778
3 1 3.49761 2.44504 32.2183
4 1 2.94671 3.30583 30.2338
5 1 4.86437 4.82781 31.7333
6 1 4.40908 0.961477 29.9744
7 1 5.9416 2.99056 29.1857
8 1 2.02176 0.583482 29.2821
9 1 2.30774 1.85074 24.5054
10 1 4.91267 1.10194 27.7555
11 1 6.44044 3.37874 26.8728
12 1 3.50538 2.82452 27.9941
13 1 2.37173 0.837598 26.7465
14 1 4.52726 2.91266 25.6256
15 1 -0.0618297 0.311199 25.3626
16 2 5.36834 4.12262 14.3406
17 2 3.99445 2.92293 17.033
18 2 1.76508 1.32392 16.9999
19 2 6.62866 4.40316 16.8487
20 2 1.61528 0.00856074 11.8728
21 2 5.74779 1.24777 14.5491
22 2 2.96236 2.79558 14.4415
23 2 6.59398 2.70713 11.8709
24 2 3.66189 2.75169 9.21423
25 2 2.43 3.3671 6.93172
26 2 1.26609 1.83277 9.4506
27 2 3.87559 1.68677 12.2209
28 2 4.0728 -0.309026 9.86135
29 2 4.93045 1.75165 6.95951
30 2 0.458843 0.357236 4.55293
31 2 2.93852 2.03718 4.28256
32 2 6.59931 3.23053 2.48896
33 2 5.5309 3.15178 4.91832
34 2 4.19833 4.35738 2.47051
35 2 4.8976 4.61601 7.53135
ITEM: TIMESTEP
12000
ITEM: NUMBER OF ATOMS
35
ITEM: BOX BOUNDS xy xz yz pp pp pp
0.0000000000000000e+00 7.6685730000000003e+00 2.5561910000000001e+00
0.0000000000000000e+00 4.4274529999999999e+00 0.0000000000000000e+00
0.0000000000000000e+00 3.4699264999999997e+01 0.0000000000000000e+00
ITEM: ATOMS id type x y z
1 1 5.87057 2.73022 31.548
2 1 4.80465 -0.0622518 32.5633
3 1 3.45432 2.13518 32.5995
4 1 3.16091 2.9885 30.2096
5 1 1.96968 0.575879 31.2217
6 1 4.48575 1.00229 30.1037
7 1 5.81373 2.95576 29.0691
8 1 2.10963 0.939372 29.1552
9 1 2.06774 1.88302 24.8525
10 1 4.88822 0.846522 27.6571
11 1 6.66073 2.9821 26.7707
12 1 3.77122 3.53402 27.9172
13 1 2.68317 0.644197 26.8466
14 1 4.36556 2.96423 25.6417
15 1 5.0672 0.644957 25.2726
16 2 5.56738 4.1046 14.4641
17 2 4.1588 2.90437 17.1559
18 2 1.51497 1.58789 16.6638
19 2 6.49509 4.29788 16.8177
20 2 3.94063 4.13686 12.0534
21 2 5.50358 1.0672 14.1897
22 2 2.85364 2.51706 14.6791
23 2 6.50461 2.81465 12.1106
24 2 4.05976 3.14294 9.458
25 2 2.63271 3.31896 6.87635
26 2 1.10215 1.12854 9.733
27 2 4.00519 1.15924 12.122
28 2 3.62389 0.408043 9.71144
29 2 5.25596 1.6552 7.24564
30 2 0.19987 0.442424 4.60761
31 2 3.09538 1.53892 4.24484
32 2 6.85421 3.36075 2.32638
33 2 5.09797 3.49934 4.80043
34 2 4.35006 4.50431 2.31561
35 2 2.76142 0.726778 7.15575
ITEM: TIMESTEP
12100
ITEM: NUMBER OF ATOMS
35
ITEM: BOX BOUNDS xy xz yz pp pp pp
0.0000000000000000e+00 7.6685730000000003e+00 2.5561910000000001e+00
0.0000000000000000e+00 4.4274529999999999e+00 0.0000000000000000e+00
0.0000000000000000e+00 3.4699264999999997e+01 0.0000000000000000e+00
ITEM: ATOMS id type x y z
1 1 5.67336 2.71857 31.5003
2 1 7.31615 4.35293 32.7026
3 1 3.39118 1.88363 32.4548
4 1 3.31457 3.05636 30.4349
5 1 1.7835 0.261756 31.7374
6 1 4.41017 0.817219 30.4444
7 1 5.87114 3.58928 29.2237
8 1 2.39345 1.41114 28.7673
9 1 1.9859 1.91309 24.5933
10 1 5.20917 1.34625 27.933
11 1 1.66948 2.7145 26.7522
12 1 3.56399 3.18758 27.9016
13 1 2.82356 0.575253 26.385
14 1 4.03435 3.03305 25.3341
15 1 5.06459 0.453341 25.5908
16 2 5.37552 3.69571 14.4926
17 2 4.13714 3.06206 16.8411
18 2 1.32378 1.49974 16.7219
19 2 4.31883 0.148682 17.0408
20 2 3.84178 3.90635 12.2187
21 2 5.1111 0.83294 14.4963
22 2 3.06056 2.45495 14.6154
23 2 6.5196 2.78207 12.0832
24 2 3.91334 2.8531 9.70303
25 2 2.73767 3.4574 7.26491
26 2 1.22321 1.59756 9.89126
27 2 3.70183 1.21002 11.9061
28 2 3.74616 0.0829679 9.07139
29 2 5.4751 2.08649 7.16005
30 2 5.43857 0.50878 4.7105
31 2 2.76873 1.84747 4.27433
32 2 2.03782 3.39848 2.63668
33 2 5.2621 3.10251 4.69058
34 2 1.60091 0.316948 2.27069
35 2 2.91059 0.5738 6.52711
ITEM: TIMESTEP
12200
ITEM: NUMBER OF ATOMS
35
ITEM: BOX BOUNDS xy xz yz pp pp pp
0.0000000000000000e+00 7.6685730000000003e+00 2.5561910000000001e+00
0.0000000000000000e+00 4.4274529999999999e+00 0.0000000000000000e+00
0.0000000000000000e+00 3.4699264999999997e+01 0.0000000000000000e+00
ITEM: ATOMS id type x y z
1 1 6.10608 2.51354 31.6179
2 1 7.11018 4.10318 32.747
3 1 3.46746 2.2973 32.5398
4 1 3.15711 3.35187 30.0159
5 1 2.01587 0.389418 31.5043
6 1 4.5013 0.698347 30.603
7 1 5.99282 3.28574 29.0322
8 1 2.23329 1.38243 28.8333
9 1 1.65621 1.72529 24.4777
10 1 4.69839 1.19338 28.2712
11 1 6.37896 2.87288 26.7221
12 1 3.83735 3.74955 27.6791
13 1 2.75385 0.645264 26.4571
14 1 4.21614 2.6367 25.6759
15 1 5.37331 0.597139 25.9907
16 2 5.32818 3.62192 14.7509
17 2 3.97559 3.34184 16.9691
18 2 2.04554 1.65965 16.9088
19 2 4.02634 0.165682 16.9314
20 2 3.94655 4.3837 12.271
21 2 5.21369 0.520936 14.4562
22 2 2.41412 1.99263 14.3217
23 2 6.16952 2.74101 12.1162
24 2 3.7856 2.80344 9.81032
25 2 3.45043 3.53758 7.14513
26 2 1.48944 1.31647 9.28964
27 2 3.70732 1.12158 11.9127
28 2 6.1691 4.11967 9.15554
29 2 5.5255 2.1853 6.97583
30 2 0.449136 0.065669 4.91195
31 2 2.89842 1.97123 4.58796
32 2 6.57361 4.07786 2.31774
33 2 5.2674 2.94935 4.16033
34 2 1.77381 0.682021 2.64899
35 2 2.89289 0.542967 6.83062
ITEM: TIMESTEP
12300
ITEM: NUMBER OF ATOMS
35
ITEM: BOX BOUNDS xy xz yz pp pp pp
0.0000000000000000e+00 7.6685730000000003e+00 2.5561910000000001e+00
0.0000000000000000e+00 4.4274529999999999e+00 0.0000000000000000e+00
0.0000000000000000e+00 3.4699264999999997e+01 0.0000000000000000e+00
ITEM: ATOMS id type x y z
1 1 6.2955 2.35646 31.398
2 1 7.25928 4.73039 33.0485
3 1 3.90649 2.67949 32.2876
4 1 3.16074 3.01705 30.0269
5 1 2.17465 0.108806 31.3555
6 1 4.42965 0.929173 30.3743
7 1 5.69564 3.46331 29.2473
8 1 1.85701 1.02505 29.0393
9 1 1.61426 2.00365 24.9062
10 1 4.55444 1.27372 28.2453
11 1 6.44299 2.89224 27.0922
12 1 3.65902 3.51788 27.8167
13 1 2.73194 0.684874 26.6199
14 1 4.24501 2.73141 25.3713
15 1 5.32007 0.164083 25.9943
16 2 5.11424 3.38836 14.5131
17 2 4.15598 3.30293 17.096
18 2 1.40502 1.90013 16.9758
19 2 4.11234 0.140734 16.876
20 2 3.72648 4.35056 11.7961
21 2 5.13922 0.553351 14.5853
22 2 2.60108 1.82785 14.3088
23 2 6.20207 2.74826 11.8803
24 2 3.87015 2.51471 9.81717
25 2 3.23651 3.30537 7.40797
26 2 1.15052 0.831629 9.226
27 2 4.00344 1.15054 12.1148
28 2 6.55061 4.0895 9.89101
29 2 5.93035 1.85627 6.46979
30 2 -0.0735075 0.136173 4.68602
31 2 2.99832 1.73071 4.60948
32 2 6.80782 4.82426 2.20774
33 2 5.42228 3.13038 4.04861
34 2 1.30192 1.23602 2.55782
35 2 3.5006 0.735165 7.17397
ITEM: TIMESTEP
12400
ITEM: NUMBER OF ATOMS
35
ITEM: BOX BOUNDS xy xz yz pp pp pp
0.0000000000000000e+00 7.6685730000000003e+00 2.5561910000000001e+00
0.0000000000000000e+00 4.4274529999999999e+00 0.0000000000000000e+00
0.0000000000000000e+00 3.4699264999999997e+01 0.0000000000000000e+00
ITEM: ATOMS id type x y z
1 1 6.42259 2.5671 32.0588
2 1 4.9725 0.375214 32.7874
3 1 3.69482 2.71015 32.6305
4 1 3.08666 2.92863 29.9947
5 1 2.56187 0.286866 31.7833
6 1 4.84312 0.835376 30.6313
7 1 5.50766 3.795 29.6709
8 1 1.5044 1.11657 29.2673
9 1 2.01516 2.3999 25.2655
10 1 4.55208 0.791047 27.6077
11 1 6.21903 2.71489 27.5016
12 1 3.41728 3.00806 27.5066
13 1 2.43381 0.498119 26.7929
14 1 4.56098 2.89258 25.441
15 1 4.77043 0.384436 25.1822
16 2 5.11314 3.40109 14.154
17 2 3.8655 3.23541 16.7682
18 2 1.0255 1.61157 16.6692
19 2 3.81303 0.315567 17.0109
20 2 3.93068 3.92224 11.816
21 2 5.37894 0.394086 14.4271
22 2 2.71925 2.20329 14.9488
23 2 6.69189 2.33999 12.3172
24 2 3.82776 2.01169 9.727
25 2 3.36183 3.21977 7.27392
26 2 1.33885 1.36919 9.19201
27 2 3.77115 1.23069 12.3557
28 2 6.60672 3.69522 9.76127
29 2 6.11834 2.0926 6.39019
30 2 5.28741 -0.129114 4.54355
31 2 2.93919 1.64581 4.61608
32 2 3.74253 0.801467 2.09522
33 2 4.93919 3.47346 4.0707
34 2 1.62398 2.10895 2.31109
35 2 3.69687 0.328443 7.33758
ITEM: TIMESTEP
12500
ITEM: NUMBER OF ATOMS
35
ITEM: BOX BOUNDS xy xz yz pp pp pp
0.0000000000000000e+00 7.6685730000000003e+00 2.5561910000000001e+00
0.0000000000000000e+00 4.4274529999999999e+00 0.0000000000000000e+00
0.0000000000000000e+00 3.4699264999999997e+01 0.0000000000000000e+00
ITEM: ATOMS id type x y z
1 1 6.13506 2.62073 32.1717
2 1 5.22478 0.430097 32.9457
3 1 3.93063 2.55417 32.3512
4 1 3.15092 3.30698 30.0284
5 1 2.48738 0.657644 32.2638
6 1 4.50601 1.05166 30.3923
7 1 5.88238 3.35972 30.0702
8 1 1.87192 1.14822 29.3787
9 1 2.54255 2.50807 25.479
10 1 4.61843 0.299134 27.7911
11 1 5.61165 2.80701 27.5849
12 1 3.2943 2.523 27.8013
13 1 1.63978 0.626487 26.8853
14 1 5.06619 3.00475 25.3938
15 1 4.32826 0.556504 25.0876
16 2 5.46261 3.8021 14.4662
17 2 3.61356 3.43228 17.1232
18 2 0.75642 1.62533 16.8891
19 2 3.40353 0.115956 16.7116
20 2 4.09666 3.8309 11.7661
21 2 0.323968 0.388914 14.33
22 2 2.716 1.95353 14.6212
23 2 1.48338 2.17132 12.203
24 2 4.07509 2.20186 9.74535
25 2 3.85104 3.34164 7.1557
26 2 1.5207 0.670821 8.86999
27 2 4.11955 0.637191 12.1518
28 2 6.36305 3.74256 9.77528
29 2 5.91032 1.85489 6.4737
30 2 2.47047 4.76989 4.45617
31 2 2.82621 1.60883 4.79149
32 2 3.76599 1.01625 2.24542
33 2 5.04983 3.1438 4.02665
34 2 1.80651 2.96995 2.48287
35 2 3.49148 0.368096 6.97293
ITEM: TIMESTEP
12600
ITEM: NUMBER OF ATOMS
35
ITEM: BOX BOUNDS xy xz yz pp pp pp
0.0000000000000000e+00 7.6685730000000003e+00 2.5561910000000001e+00
0.0000000000000000e+00 4.4274529999999999e+00 0.0000000000000000e+00
0.0000000000000000e+00 3.4699264999999997e+01 0.0000000000000000e+00
ITEM: ATOMS id type x y z
1 1 6.62455 2.71397 32.2895
2 1 5.00484 0.465085 32.2019
3 1 3.82348 2.72573 32.3019
4 1 3.22113 3.59635 30.0937
5 1 2.55253 0.1958 31.908
6 1 4.38913 1.47798 30.2962
7 1 5.75523 3.26934 30.076
8 1 2.14531 1.11473 29.8764
9 1 2.66452 2.88723 25.7521
10 1 4.45211 0.125151 28.3478
11 1 5.47992 2.55873 27.6633
12 1 2.97922 2.16706 28.0219
13 1 1.52193 0.284967 26.7081
14 1 5.33814 3.13649 25.3774
15 1 4.06675 0.872999 26.1255
16 2 5.38315 3.22011 14.2932
17 2 3.1452 3.12039 17.1787
18 2 5.64244 2.04051 16.8785
19 2 3.44167 0.337499 16.8857
20 2 4.11459 3.69675 12.0021
21 2 0.531017 0.523351 14.7109
22 2 3.06869 2.08951 14.279
23 2 1.45211 2.10549 11.6257
24 2 4.18035 2.04511 9.39683
25 2 3.193 3.17124 6.85667
26 2 1.30547 0.555026 9.50267
27 2 4.18295 0.498178 11.7704
28 2 6.59857 3.58306 9.20375
29 2 6.07709 1.80924 7.08757
30 2 5.19556 0.313528 4.47051
31 2 2.39191 1.83666 4.5927
32 2 4.10743 1.45793 2.28421
33 2 4.84412 3.24632 4.46821
34 2 2.20383 3.12265 2.35877
35 2 3.81111 0.397837 6.91487
ITEM: TIMESTEP
12700
ITEM: NUMBER OF ATOMS
35
ITEM: BOX BOUNDS xy xz yz pp pp pp
0.0000000000000000e+00 7.6685730000000003e+00 2.5561910000000001e+00
0.0000000000000000e+00 4.4274529999999999e+00 0.0000000000000000e+00
0.0000000000000000e+00 3.4699264999999997e+01 0.0000000000000000e+00
ITEM: ATOMS id type x y z
1 1 1.47308 2.40018 32.1733
2 1 0.190338 0.197476 32.2719
3 1 4.01047 2.4268 32.527
4 1 3.32843 3.52448 30.3514
5 1 2.85834 0.4309 32.2622
6 1 4.20804 1.43649 29.9328
7 1 5.68459 3.82899 30.1333
8 1 1.49009 1.24279 29.8735
9 1 2.51283 3.32991 25.8316
10 1 7.04315 4.34922 27.9493
11 1 5.53126 2.39555 28.0079
12 1 2.96055 2.22699 28.0576
13 1 1.71668 0.320428 27.3844
14 1 5.24223 3.02879 25.5533
15 1 3.84331 1.00894 26.0845
16 2 5.85649 3.14164 14.2806
17 2 2.92426 3.31508 16.5901
18 2 5.59125 2.14911 16.7907
19 2 3.02523 0.589045 16.7075
20 2 4.08027 3.35677 11.9861
21 2 0.739823 0.235502 14.6637
22 2 3.02263 1.75326 14.3203
23 2 1.62152 2.26643 11.7275
24 2 3.76332 1.88553 9.24161
25 2 3.5721 3.21271 6.74957
26 2 1.64372 0.166022 9.63826
27 2 3.99631 0.704946 11.8559
28 2 6.89721 3.55017 9.28992
29 2 5.87732 1.63495 7.43015
30 2 5.0318 0.313859 4.69152
31 2 2.22145 1.80927 4.28945
32 2 4.83624 1.79819 2.51861
33 2 5.20846 3.38287 4.59972
34 2 1.97869 3.43561 2.16026
35 2 3.07236 0.424176 6.75406
ITEM: TIMESTEP
12800
ITEM: NUMBER OF ATOMS
35
ITEM: BOX BOUNDS xy xz yz pp pp pp
0.0000000000000000e+00 7.6685730000000003e+00 2.5561910000000001e+00
0.0000000000000000e+00 4.4274529999999999e+00 0.0000000000000000e+00
0.0000000000000000e+00 3.4699264999999997e+01 0.0000000000000000e+00
ITEM: ATOMS id type x y z
1 1 6.71797 2.61755 32.0441
2 1 0.446735 0.190231 32.7759
3 1 4.38581 2.45426 32.4718
4 1 2.69079 3.62273 30.0183
5 1 2.71682 0.336275 32.4371
6 1 4.43959 1.24211 30.6781
7 1 5.16357 3.49172 30.1694
8 1 1.74039 1.29984 30.1119
9 1 2.63492 3.55659 25.9014
10 1 4.47614 0.288552 27.9227
11 1 5.79906 2.12857 28.1524
12 1 3.2174 2.33277 27.8446
13 1 1.81802 0.118399 27.9944
14 1 5.0389 3.07479 26.0909
15 1 3.07905 1.10111 25.311
16 2 6.01044 3.34283 14.3783
17 2 2.89654 3.62128 16.5168
18 2 5.24918 1.87987 16.5305
19 2 2.58285 0.36068 16.6496
20 2 4.18221 3.44238 11.8674
21 2 0.768024 0.346936 13.7254
22 2 3.37963 1.58959 14.3101
23 2 1.49247 2.09251 11.9689
24 2 3.96182 1.81098 9.46655
25 2 3.15174 2.99604 6.83326
26 2 4.31314 4.43814 9.40503
27 2 4.13548 0.507478 11.9332
28 2 6.83297 3.43792 9.60017
29 2 5.55319 1.65347 7.28322
30 2 4.98468 0.577252 5.03798
31 2 2.6755 1.64331 4.08979
32 2 5.22264 1.94784 2.30587
33 2 5.25127 3.38136 4.56834
34 2 7.08564 3.9797 2.38441
35 2 2.9995 0.455602 6.89316
ITEM: TIMESTEP
12900
ITEM: NUMBER OF ATOMS
35
ITEM: BOX BOUNDS xy xz yz pp pp pp
0.0000000000000000e+00 7.6685730000000003e+00 2.5561910000000001e+00
0.0000000000000000e+00 4.4274529999999999e+00 0.0000000000000000e+00
0.0000000000000000e+00 3.4699264999999997e+01 0.0000000000000000e+00
ITEM: ATOMS id type x y z
1 1 1.81872 2.7648 32.4305
2 1 0.414417 0.713884 32.6304
3 1 4.25041 2.84859 33.0129
4 1 2.66187 3.24567 29.8521
5 1 3.04655 0.326422 32.6536
6 1 4.34766 0.939084 30.4884
7 1 5.22088 3.08848 30.4856
8 1 1.85324 1.18962 30.3481
9 1 2.42716 4.23484 25.805
10 1 4.26186 0.239699 27.9882
11 1 5.94879 2.30958 28.237
12 1 3.34391 2.35883 27.6319
13 1 4.41979 4.26399 28.0619
14 1 5.23445 2.84424 25.9562
15 1 2.25243 1.06053 26.1936
16 2 5.92743 3.39939 14.4175
17 2 2.46849 3.29159 16.3395
18 2 4.97844 1.57613 16.4538
19 2 2.50098 0.371323 16.6952
20 2 4.40151 3.29079 11.658
21 2 0.939135 0.524238 14.2446
22 2 3.55687 2.19837 14.1753
23 2 1.73744 1.656 11.7368
24 2 4.30277 1.73005 9.53875
25 2 2.53189 2.96892 6.72681
26 2 1.35401 0.456762 9.12423
27 2 4.01943 0.173321 11.6277
28 2 1.76615 2.92832 9.34236
29 2 5.27145 2.0776 7.35501
30 2 5.68106 0.72907 4.98731
31 2 2.96467 1.84828 3.82732
32 2 5.29915 2.33586 2.01068
33 2 5.05088 3.34973 4.7244
34 2 7.33249 3.97862 2.92123
35 2 3.08382 0.142316 7.19143
ITEM: TIMESTEP
13000
ITEM: NUMBER OF ATOMS
35
ITEM: BOX BOUNDS xy xz yz pp pp pp
0.0000000000000000e+00 7.6685730000000003e+00 2.5561910000000001e+00
0.0000000000000000e+00 4.4274529999999999e+00 0.0000000000000000e+00
0.0000000000000000e+00 3.4699264999999997e+01 0.0000000000000000e+00
ITEM: ATOMS id type x y z
1 1 2.2211 2.94756 32.3574
2 1 0.312048 0.795285 32.7533
3 1 4.32238 2.97687 33.2047
4 1 3.18172 2.76986 30.2567
5 1 3.12723 0.791212 32.7684
6 1 4.0439 0.82238 30.3861
7 1 5.4224 3.22931 30.929
8 1 1.4346 0.9122 30.7534
9 1 2.02162 4.49197 25.8123
10 1 4.45232 -0.169738 28.1242
11 1 5.70611 2.33955 28.5448
12 1 3.35308 2.4332 27.4788
13 1 4.70429 4.47434 28.601
14 1 5.17755 2.79102 25.9501
15 1 1.84491 0.92819 26.3944
16 2 6.0068 3.91719 13.988
17 2 2.2323 2.75883 16.6196
18 2 4.77424 1.57714 16.8058
19 2 2.39011 0.0919408 16.6057
20 2 4.19689 3.11562 11.6704
21 2 0.973538 0.764942 14.4668
22 2 3.21376 2.16356 14.0045
23 2 1.83241 1.41521 11.7391
24 2 3.8343 1.57457 9.54917
25 2 2.64976 3.25957 6.16732
26 2 1.42398 -0.102864 9.16332
27 2 4.61627 -0.0692254 11.8173
28 2 1.61482 3.21453 9.08757
29 2 4.89907 2.03926 6.82988
30 2 6.18725 0.856726 5.06339
31 2 3.24316 1.47809 3.90508
32 2 5.18804 2.79739 2.31378
33 2 5.53289 3.40966 4.55249
34 2 7.62603 4.17876 2.90224
35 2 2.79459 0.548934 6.95477
ITEM: TIMESTEP
13100
ITEM: NUMBER OF ATOMS
35
ITEM: BOX BOUNDS xy xz yz pp pp pp
0.0000000000000000e+00 7.6685730000000003e+00 2.5561910000000001e+00
0.0000000000000000e+00 4.4274529999999999e+00 0.0000000000000000e+00
0.0000000000000000e+00 3.4699264999999997e+01 0.0000000000000000e+00
ITEM: ATOMS id type x y z
1 1 2.0564 3.29652 32.6017
2 1 5.60852 0.955882 33.7308
3 1 4.88024 3.24042 33.7483
4 1 3.02132 3.0841 29.9611
5 1 2.9404 0.957111 32.7709
6 1 4.16461 0.590054 30.7796
7 1 4.9612 2.75232 31.086
8 1 1.69732 0.937951 30.7928
9 1 4.15508 0.257496 25.9618
10 1 7.36569 4.4193 28.0196
11 1 5.72422 1.90743 28.7658
12 1 3.30184 2.06934 27.8824
13 1 2.36529 0.0463999 28.7541
14 1 5.10106 2.74681 26.5463
15 1 1.60295 0.932024 26.3358
16 2 5.87359 3.69167 14.271
17 2 2.05598 2.88329 16.6964
18 2 4.58712 1.33598 16.6485
19 2 4.70812 3.96559 16.5578
20 2 4.94722 2.82929 11.601
21 2 5.50888 1.01163 14.2278
22 2 3.26828 2.27459 14.4805
23 2 1.93684 1.59698 11.6709
24 2 3.60671 1.25602 9.45646
25 2 2.73144 3.58115 6.4589
26 2 3.76541 4.26353 9.14833
27 2 7.25889 4.39574 11.6201
28 2 6.3141 2.93195 9.09303
29 2 5.08857 2.1225 7.11417
30 2 1.11477 0.989216 4.53285
31 2 3.66565 1.70358 3.81334
32 2 5.17591 2.95891 1.98773
33 2 5.70145 3.49759 4.47232
34 2 3.1309 4.1786 2.28864
35 2 2.4757 0.773678 6.86436
ITEM: TIMESTEP
13200
ITEM: NUMBER OF ATOMS
35
ITEM: BOX BOUNDS xy xz yz pp pp pp
0.0000000000000000e+00 7.6685730000000003e+00 2.5561910000000001e+00
0.0000000000000000e+00 4.4274529999999999e+00 0.0000000000000000e+00
0.0000000000000000e+00 3.4699264999999997e+01 0.0000000000000000e+00
ITEM: ATOMS id type x y z
1 1 2.1345 3.54357 32.8245
2 1 0.885939 1.15109 34.2327
3 1 4.61 3.51909 34.0461
4 1 2.82675 2.823 30.5296
5 1 3.46815 1.44273 33.4887
6 1 3.96325 0.520692 30.5403
7 1 5.10882 3.04684 31.7266
8 1 1.31692 0.760893 31.351
9 1 3.84216 0.79209 25.8948
10 1 7.56183 4.09141 28.3156
11 1 6.10754 1.89352 29.1594
12 1 3.23078 1.64779 27.9583
13 1 4.66249 4.04315 29.0005
14 1 4.98381 3.06307 26.7654
15 1 1.42671 0.702995 26.6705
16 2 5.68691 3.6384 14.194
17 2 1.79408 2.67085 16.7305
18 2 4.34942 0.928034 16.541
19 2 4.17049 4.31946 16.4591
20 2 4.79228 3.02724 11.744
21 2 0.662742 0.735037 14.0112
22 2 3.09806 2.50755 14.2579
23 2 2.75524 1.36941 12.0133
24 2 3.61792 1.16234 9.21494
25 2 2.8097 3.61872 6.84403
26 2 3.40858 4.39306 9.36596
27 2 7.38575 4.30435 11.7784
28 2 6.36552 2.56334 9.49507
29 2 5.00803 1.92336 6.63222
30 2 0.984997 0.913901 4.13055
31 2 3.59034 2.30496 3.88506
32 2 6.03474 2.7959 1.59357
33 2 5.89249 3.90961 4.20205
34 2 2.94287 4.1358 1.4138
35 2 2.54438 0.872217 6.82365
ITEM: TIMESTEP
13300
ITEM: NUMBER OF ATOMS
35
ITEM: BOX BOUNDS xy xz yz pp pp pp
0.0000000000000000e+00 7.6685730000000003e+00 2.5561910000000001e+00
0.0000000000000000e+00 4.4274529999999999e+00 0.0000000000000000e+00
0.0000000000000000e+00 3.4699264999999997e+01 0.0000000000000000e+00
ITEM: ATOMS id type x y z
1 1 2.32011 4.04419 33.7158
2 1 1.21045 2.08538 33.7507
3 1 4.88596 4.14642 34.1534
4 1 2.72248 2.67845 31.3607
5 1 3.72877 1.58552 34.3484
6 1 4.01097 0.547429 30.6526
7 1 5.52069 2.92809 31.5634
8 1 1.07747 0.517048 31.7858
9 1 3.75552 0.863614 26.4515
10 1 6.88009 3.63404 28.3444
11 1 5.87177 1.65157 29.3367
12 1 3.50216 1.9005 28.6657
13 1 4.46729 3.76108 29.6111
14 1 5.25728 3.02592 27.0458
15 1 1.04355 0.849929 27.1749
16 2 5.79349 3.76845 14.2861
17 2 1.32621 2.46399 16.6039
18 2 4.03468 1.19377 16.2172
19 2 4.15827 4.12072 16.5012
20 2 4.88411 2.86721 11.7282
21 2 0.791346 0.96865 14.0742
22 2 3.07337 2.44727 14.4554
23 2 2.46282 1.21105 11.8901
24 2 3.73296 1.23915 9.16767
25 2 2.31187 3.54054 6.75762
26 2 3.99364 4.10654 9.35298
27 2 2.41698 4.21981 11.7192
28 2 6.17402 2.56924 9.40124
29 2 5.23913 2.09209 6.25432
30 2 0.825415 1.04283 3.7365
31 2 3.4041 2.77845 3.83489
32 2 6.18514 2.18821 1.62755
33 2 6.34273 4.13974 4.12123
34 2 3.13247 4.23185 1.21733
35 2 2.45555 0.490579 6.46695
ITEM: TIMESTEP
13400
ITEM: NUMBER OF ATOMS
35
ITEM: BOX BOUNDS xy xz yz pp pp pp
0.0000000000000000e+00 7.6685730000000003e+00 2.5561910000000001e+00
0.0000000000000000e+00 4.4274529999999999e+00 0.0000000000000000e+00
0.0000000000000000e+00 3.4699264999999997e+01 0.0000000000000000e+00
ITEM: ATOMS id type x y z
1 1 7.59543 4.71972 33.4279
2 1 1.44938 2.17413 33.5967
3 1 5.42245 4.49315 34.2146
4 1 2.9737 2.30958 31.9887
5 1 3.88336 1.87958 0.455211
6 1 4.13363 0.347955 31.2697
7 1 5.10835 2.62454 31.8178
8 1 1.72319 0.317983 31.7269
9 1 3.54755 0.784114 27.2733
10 1 7.04877 3.93736 29.1489
11 1 5.80311 1.77682 29.7844
12 1 3.10438 1.65405 29.5563
13 1 4.55931 3.85071 29.3971
14 1 4.61105 2.82693 27.3756
15 1 1.05222 0.677723 27.5599
16 2 5.74464 4.07405 14.1136
17 2 6.38616 2.6025 16.6482
18 2 4.05854 0.856066 16.5298
19 2 3.83174 3.74882 16.6058
20 2 5.0213 2.44776 11.9259
21 2 0.626288 1.14379 14.2366
22 2 3.18971 2.82367 13.908
23 2 2.15457 1.2709 11.4282
24 2 3.94896 1.19843 8.89869
25 2 2.37931 3.51832 6.66084
26 2 4.13416 3.9344 8.76792
27 2 7.30625 4.1936 11.3895
28 2 6.62403 2.44745 8.83929
29 2 4.77788 2.02056 6.29307
30 2 1.29059 1.3745 4.13837
31 2 3.75344 2.56997 3.83789
32 2 6.10204 2.64463 1.37965
33 2 5.97714 4.20078 3.84274
34 2 3.21066 4.10965 1.76133
35 2 2.21776 0.445767 6.3362
ITEM: TIMESTEP
13500
ITEM: NUMBER OF ATOMS
35
ITEM: BOX BOUNDS xy xz yz pp pp pp
0.0000000000000000e+00 7.6685730000000003e+00 2.5561910000000001e+00
0.0000000000000000e+00 4.4274529999999999e+00 0.0000000000000000e+00
0.0000000000000000e+00 3.4699264999999997e+01 0.0000000000000000e+00
ITEM: ATOMS id type x y z
1 1 5.20834 0.355776 34.384
2 1 2.13176 2.2339 34.2864
3 1 4.71506 3.68361 34.1723
4 1 3.3284 2.70945 32.2004
5 1 3.75696 1.59209 1.21876
6 1 4.02939 0.0354747 31.8902
7 1 5.5595 2.26911 32.3451
8 1 1.8017 0.509064 31.9544
9 1 3.16818 0.0568049 27.9748
10 1 7.42927 3.69345 29.2403
11 1 5.66713 1.6347 29.834
12 1 3.15499 1.63638 29.9181
13 1 4.64457 3.9561 29.8974
14 1 4.15839 2.71954 27.7492
15 1 0.961642 0.873047 27.5256
16 2 5.69296 4.64994 13.9
17 2 6.59034 2.22369 16.4651
18 2 3.74154 0.808165 16.5646
19 2 3.76016 3.71436 16.3135
20 2 4.7206 2.52206 11.4017
21 2 5.61461 1.29939 14.3603
22 2 2.94986 2.89021 13.6986
23 2 2.28535 0.941135 11.1327
24 2 4.32116 0.811532 8.84902
25 2 2.31157 3.57685 5.90288
26 2 4.08681 3.84934 8.85801
27 2 7.25272 3.96109 11.0839
28 2 1.68906 2.29984 8.60988
29 2 4.52167 1.88793 6.40246
30 2 1.245 1.60062 4.26049
31 2 3.86103 2.50686 3.69472
32 2 6.19758 3.02398 1.63707
33 2 6.16822 4.35387 3.71699
34 2 3.30651 4.8563 2.13259
35 2 2.32868 0.546751 6.45083
ITEM: TIMESTEP
13600
ITEM: NUMBER OF ATOMS
35
ITEM: BOX BOUNDS xy xz yz pp pp pp
0.0000000000000000e+00 7.6685730000000003e+00 2.5561910000000001e+00
0.0000000000000000e+00 4.4274529999999999e+00 0.0000000000000000e+00
0.0000000000000000e+00 3.4699264999999997e+01 0.0000000000000000e+00
ITEM: ATOMS id type x y z
1 1 4.49146 0.559771 34.4765
2 1 2.41554 1.61378 34.2645
3 1 4.60704 3.04989 34.5797
4 1 3.09769 2.65712 31.9449
5 1 3.29758 1.66059 1.80239
6 1 4.5689 0.405462 32.0921
7 1 5.99184 2.75294 32.34
8 1 1.73342 0.172021 32.6526
9 1 3.16235 -0.0429147 27.7955
10 1 2.05986 3.62559 29.8949
11 1 6.11539 1.34558 30.2174
12 1 3.4406 1.15479 30.126
13 1 4.6875 3.53437 30.3609
14 1 3.63352 2.42216 27.9161
15 1 0.770486 0.865053 28.0241
16 2 2.89771 0.0959857 13.6718
17 2 1.29807 2.20027 16.2496
18 2 3.80043 0.834854 16.1678
19 2 4.16845 3.66862 15.7786
20 2 4.69417 2.24833 11.221
21 2 5.3851 1.5693 13.6081
22 2 2.67977 3.00376 13.7781
23 2 2.00089 0.876527 11.1956
24 2 4.48547 0.634538 8.77324
25 2 2.45651 3.59462 6.1755
26 2 4.31151 3.49719 8.91548
27 2 7.21546 3.63878 11.348
28 2 1.70341 2.32976 8.43255
29 2 4.75214 2.21644 6.39129
30 2 1.19439 1.65834 4.31864
31 2 3.8014 3.35312 3.8481
32 2 6.18422 3.29631 1.81949
33 2 6.04645 4.84811 4.035
34 2 1.22385 0.416141 1.74243
35 2 2.30728 0.254388 6.59649
ITEM: TIMESTEP
13700
ITEM: NUMBER OF ATOMS
35
ITEM: BOX BOUNDS xy xz yz pp pp pp
0.0000000000000000e+00 7.6685730000000003e+00 2.5561910000000001e+00
0.0000000000000000e+00 4.4274529999999999e+00 0.0000000000000000e+00
0.0000000000000000e+00 3.4699264999999997e+01 0.0000000000000000e+00
ITEM: ATOMS id type x y z
1 1 4.26506 -0.156808 34.1673
2 1 1.6279 2.17281 34.5886
3 1 4.23118 2.50432 34.3377
4 1 3.08278 2.29787 32.3362
5 1 4.24168 2.04637 2.13994
6 1 4.695 0.730441 32.259
7 1 5.98017 2.88305 32.3526
8 1 1.84747 0.316866 32.8368
9 1 5.6168 4.01204 28.1621
10 1 7.36092 3.25781 30.0014
11 1 1.3264 1.10189 30.6464
12 1 3.62812 0.9652 29.9893
13 1 4.81089 3.10596 30.0515
14 1 3.45105 2.6403 28.045
15 1 0.314915 0.758589 28.4773
16 2 2.66758 -0.0792194 13.3243
17 2 6.5138 2.28131 15.8004
18 2 4.2876 0.708523 15.6138
19 2 4.10595 3.81008 15.8992
20 2 4.21441 2.03223 11.0232
21 2 5.41195 1.42939 13.6089
22 2 2.68083 2.90178 13.7153
23 2 1.80282 0.745217 11.0013
24 2 4.48767 0.614665 8.87972
25 2 2.43665 3.66538 6.5802
26 2 4.47577 3.5003 8.96064
27 2 6.89832 3.63864 11.1648
28 2 1.80798 2.06911 8.88721
29 2 4.83511 1.92309 6.44656
30 2 1.04102 2.1248 4.00575
31 2 3.67935 3.76401 4.12452
32 2 6.434 3.54028 1.99354
33 2 3.82102 0.69777 4.23656
34 2 1.11804 0.305472 1.46527
35 2 2.49535 0.685381 6.66709
ITEM: TIMESTEP
13800
ITEM: NUMBER OF ATOMS
35
ITEM: BOX BOUNDS xy xz yz pp pp pp
0.0000000000000000e+00 7.6685730000000003e+00 2.5561910000000001e+00
0.0000000000000000e+00 4.4274529999999999e+00 0.0000000000000000e+00
0.0000000000000000e+00 3.4699264999999997e+01 0.0000000000000000e+00
ITEM: ATOMS id type x y z
1 1 3.48683 0.142119 34.3237
2 1 1.93059 2.31062 34.6189
3 1 4.44 2.55746 34.5901
4 1 3.36693 2.7603 32.2941
5 1 3.93012 2.1471 2.08499
6 1 4.73386 0.538449 32.2211
7 1 5.75818 2.81678 32.5554
8 1 1.61259 0.280177 33.2022
9 1 5.7647 3.67994 28.1654
10 1 2.32948 3.03925 29.9732
11 1 1.2945 0.615784 30.5006
12 1 3.53295 0.790165 29.8878
13 1 4.77103 2.78589 29.9634
14 1 3.08899 2.81365 27.8471
15 1 5.39511 0.940575 28.2415
16 2 5.3853 4.17912 13.6389
17 2 1.85113 2.20048 15.7817
18 2 3.95147 0.54201 15.7138
19 2 4.0963 3.86319 16.0257
20 2 3.83323 2.0823 11.0976
21 2 5.49802 1.34744 13.2218
22 2 3.04442 2.73797 13.3402
23 2 1.30461 0.288159 11.249
24 2 4.49391 0.557629 8.77963
25 2 2.25986 3.46126 6.56524
26 2 4.55567 3.64007 8.52489
27 2 6.43235 3.60547 11.2457
28 2 1.99314 2.11767 8.89869
29 2 5.17728 2.15953 6.49766
30 2 6.48837 2.44755 4.14827
31 2 3.80479 3.86891 4.27204
32 2 6.47221 3.90748 1.89016
33 2 3.78569 0.814893 4.21696
34 2 1.43256 0.320055 1.86213
35 2 2.2779 0.79142 6.4008
ITEM: TIMESTEP
13900
ITEM: NUMBER OF ATOMS
35
ITEM: BOX BOUNDS xy xz yz pp pp pp
0.0000000000000000e+00 7.6685730000000003e+00 2.5561910000000001e+00
0.0000000000000000e+00 4.4274529999999999e+00 0.0000000000000000e+00
0.0000000000000000e+00 3.4699264999999997e+01 0.0000000000000000e+00
ITEM: ATOMS id type x y z
1 1 3.95751 0.845635 34.602
2 1 2.62883 2.9097 34.5305
3 1 5.29455 3.0397 0.23587
4 1 3.15803 2.7042 32.0307
5 1 3.62219 2.51768 2.09339
6 1 3.94884 0.181473 31.6099
7 1 5.81945 2.62238 32.3709
8 1 1.14957 0.400088 33.3737
9 1 6.0186 3.51807 27.399
10 1 1.82749 2.79733 30.0695
11 1 0.933913 0.354753 30.5236
12 1 3.1575 0.622887 29.485
13 1 4.5731 2.65595 30.095
14 1 3.3256 2.60151 28.1026
15 1 5.58135 1.10544 27.9903
16 2 5.6381 4.18305 13.8125
17 2 1.53131 2.00564 15.9429
18 2 4.41762 0.81384 16.2591
19 2 4.05442 3.54179 15.9384
20 2 3.94122 1.59561 10.7729
21 2 5.30689 1.33904 13.7579
22 2 2.95472 2.85146 13.6951
23 2 0.912491 0.0861579 10.8814
24 2 4.69694 0.702325 8.48751
25 2 2.42571 3.6441 6.36051
26 2 4.59555 3.68869 8.7587
27 2 5.98692 3.27901 11.2672
28 2 2.03781 2.16963 8.86012
29 2 4.73708 2.07918 6.26038
30 2 1.52587 2.35279 4.11578
31 2 4.08595 3.79837 4.18626
32 2 6.57192 3.89236 2.00994
33 2 4.04077 0.977611 4.20969
34 2 1.37749 1.05317 1.79167
35 2 2.34132 0.647525 6.44479
ITEM: TIMESTEP
14000
ITEM: NUMBER OF ATOMS
35
ITEM: BOX BOUNDS xy xz yz pp pp pp
0.0000000000000000e+00 7.6685730000000003e+00 2.5561910000000001e+00
0.0000000000000000e+00 4.4274529999999999e+00 0.0000000000000000e+00
0.0000000000000000e+00 3.4699264999999997e+01 0.0000000000000000e+00
ITEM: ATOMS id type x y z
1 1 4.12151 1.11529 34.2334
2 1 2.66435 3.14974 34.5943
3 1 5.41978 3.70689 34.1183
4 1 2.63366 2.99356 32.0228
5 1 4.14092 2.6427 1.64611
6 1 3.15477 0.277665 31.4024
7 1 5.33701 1.83337 32.3058
8 1 1.89366 0.972272 33.5993
9 1 6.37181 3.23894 27.298
10 1 1.76639 2.71006 29.544
11 1 0.69962 0.422548 30.6963
12 1 2.64598 0.332807 28.7972
13 1 4.37276 2.35215 30.0907
14 1 3.83554 2.85282 27.6974
15 1 0.345603 0.806044 28.2248
16 2 2.79766 0.166786 13.8087
17 2 1.72579 2.18222 16.3452
18 2 4.14677 0.452617 16.6705
19 2 4.23721 3.41493 16.1113
20 2 3.17458 1.27667 11.3271
21 2 5.45247 1.25262 13.9396
22 2 2.95625 2.92925 13.3701
23 2 0.781503 -0.0296375 11.2981
24 2 4.86473 0.621866 8.66941
25 2 2.34747 3.6875 6.13206
26 2 4.94622 3.58319 8.9179
27 2 6.04215 2.66384 11.334
28 2 2.11557 2.27271 8.7737
29 2 4.72748 2.41385 6.4554
30 2 1.5498 2.07539 4.23557
31 2 4.34168 3.99697 3.72849
32 2 6.70584 4.02788 1.81803
33 2 4.26207 1.02701 3.99775
34 2 1.26973 1.37809 1.29977
35 2 2.34779 0.69402 6.61252
ITEM: TIMESTEP
14100
ITEM: NUMBER OF ATOMS
35
ITEM: BOX BOUNDS xy xz yz pp pp pp
0.0000000000000000e+00 7.6685730000000003e+00 2.5561910000000001e+00
0.0000000000000000e+00 4.4274529999999999e+00 0.0000000000000000e+00
0.0000000000000000e+00 3.4699264999999997e+01 0.0000000000000000e+00
ITEM: ATOMS id type x y z
1 1 4.46481 0.981949 34.1341
2 1 3.41634 3.86343 33.78
3 1 5.61016 3.24715 33.9184
4 1 6.93049 3.52702 31.8096
5 1 4.13844 2.2274 1.50548
6 1 2.66602 0.463436 31.3964
7 1 4.52801 2.07674 31.6361
8 1 1.97372 1.38161 33.4629
9 1 1.84678 2.41457 27.2531
10 1 6.62796 2.79303 29.3249
11 1 0.671319 0.127827 30.1022
12 1 2.55226 0.458352 28.8721
13 1 4.11539 2.21151 29.505
14 1 4.31428 3.12561 27.4993
15 1 4.72332 0.451432 28.0413
16 2 2.85 -0.0134542 14.0836
17 2 1.98229 2.0569 16.1888
18 2 3.92048 0.327266 16.5192
19 2 4.24711 3.38761 16.1673
20 2 3.14745 0.953012 11.4858
21 2 5.44095 1.59143 14.15
22 2 2.88747 2.89405 13.9628
23 2 3.14699 4.01716 11.399
24 2 4.89851 0.702239 9.20352
25 2 7.39595 4.03191 6.31826
26 2 4.85684 3.71929 9.05987
27 2 5.53098 2.5734 11.6361
28 2 2.64421 2.21035 8.83505
29 2 4.96274 2.40452 6.57218
30 2 1.79674 2.48013 3.80647
31 2 4.50181 3.93728 3.63182
32 2 6.53249 4.07273 1.51265
33 2 4.20583 1.23823 4.06952
34 2 1.6344 1.06081 1.27067
35 2 2.2464 0.889947 6.38777
ITEM: TIMESTEP
14200
ITEM: NUMBER OF ATOMS
35
ITEM: BOX BOUNDS xy xz yz pp pp pp
0.0000000000000000e+00 7.6685730000000003e+00 2.5561910000000001e+00
0.0000000000000000e+00 4.4274529999999999e+00 0.0000000000000000e+00
0.0000000000000000e+00 3.4699264999999997e+01 0.0000000000000000e+00
ITEM: ATOMS id type x y z
1 1 4.85471 1.35824 33.9048
2 1 3.61008 3.62684 33.5716
3 1 6.10997 3.45285 33.7784
4 1 6.83605 3.5976 31.5631
5 1 4.24282 2.63693 1.59299
6 1 1.84346 1.11829 31.1231
7 1 4.28295 2.2986 31.4074
8 1 2.15969 1.27486 33.7568
9 1 2.29206 1.53181 26.8396
10 1 5.93105 2.66932 29.6341
11 1 4.87252 0.347082 29.5724
12 1 2.35693 0.210928 28.9292
13 1 3.46146 2.52885 29.0294
14 1 4.92497 3.49244 26.6506
15 1 4.88154 -0.0411813 27.0619
16 2 5.61182 4.12823 13.9381
17 2 1.52095 1.57061 16.4778
18 2 4.50589 0.565219 16.376
19 2 4.15689 3.38359 16.6605
20 2 3.18738 0.967032 11.5451
21 2 5.14962 1.34438 14.0093
22 2 2.84821 2.86583 14.1454
23 2 2.76943 3.64955 11.731
24 2 5.11366 1.00927 9.02733
25 2 7.46581 3.96169 6.73502
26 2 5.08285 4 9.00705
27 2 5.40717 2.55687 11.5988
28 2 2.4442 2.37288 9.10146
29 2 5.06051 2.46547 6.55383
30 2 1.86255 2.82528 3.7114
31 2 4.2392 4.09247 3.99539
32 2 6.75825 3.9592 1.38674
33 2 4.56979 1.05361 3.82612
34 2 1.72582 0.796718 1.6148
35 2 2.26806 1.13011 6.16281
ITEM: TIMESTEP
14300
ITEM: NUMBER OF ATOMS
35
ITEM: BOX BOUNDS xy xz yz pp pp pp
0.0000000000000000e+00 7.6685730000000003e+00 2.5561910000000001e+00
0.0000000000000000e+00 4.4274529999999999e+00 0.0000000000000000e+00
0.0000000000000000e+00 3.4699264999999997e+01 0.0000000000000000e+00
ITEM: ATOMS id type x y z
1 1 5.36855 1.52794 34.1942
2 1 3.56744 3.57774 34.056
3 1 5.90072 3.65833 33.4185
4 1 6.81306 4.04255 30.8665
5 1 4.50541 2.55746 1.63871
6 1 1.31508 1.00199 31.5879
7 1 4.06526 2.34846 30.9521
8 1 2.84754 1.42449 34.0001
9 1 2.51226 1.39313 26.9111
10 1 5.67581 2.16358 28.6041
11 1 3.90895 0.813992 28.4772
12 1 1.61512 0.156161 28.9935
13 1 2.78578 2.91023 28.7581
14 1 5.42803 3.26314 26.8009
15 1 2.75937 3.94402 26.5623
16 2 5.02638 3.92131 14.1716
17 2 1.86328 1.93069 16.6119
18 2 3.89536 0.123674 16.5265
19 2 4.31494 3.1294 16.8162
20 2 2.58764 0.979751 11.4727
21 2 5.51427 0.97007 13.689
22 2 2.94613 2.32489 14.4215
23 2 2.84121 4.04875 11.5049
24 2 5.31481 1.25184 8.89255
25 2 2.51137 3.95265 6.74094
26 2 5.19062 4.20573 8.92959
27 2 5.47305 2.38975 11.234
28 2 2.51795 2.80304 9.21493
29 2 4.84217 2.74177 6.56449
30 2 1.78771 2.46698 4.23646
31 2 4.28915 3.86739 4.29047
32 2 7.17502 4.00866 1.26221
33 2 4.4874 1.14638 3.74167
34 2 1.78857 1.13537 1.73834
35 2 2.63236 1.21132 6.45496
ITEM: TIMESTEP
14400
ITEM: NUMBER OF ATOMS
35
ITEM: BOX BOUNDS xy xz yz pp pp pp
0.0000000000000000e+00 7.6685730000000003e+00 2.5561910000000001e+00
0.0000000000000000e+00 4.4274529999999999e+00 0.0000000000000000e+00
0.0000000000000000e+00 3.4699264999999997e+01 0.0000000000000000e+00
ITEM: ATOMS id type x y z
1 1 5.43075 1.92648 34.3996
2 1 4.02214 3.872 33.9009
3 1 7.05166 3.53171 32.6095
4 1 4.11695 0.208341 30.4462
5 1 4.69356 2.83382 1.78233
6 1 0.89349 0.90049 31.9148
7 1 3.8367 2.52953 31.0585
8 1 3.21809 1.54906 34.0823
9 1 1.83536 1.71203 26.2776
10 1 4.8868 2.16294 28.9878
11 1 3.5471 -0.0262951 27.9831
12 1 1.69393 0.280548 29.7944
13 1 2.35807 2.38344 28.6734
14 1 5.49869 3.37411 26.1044
15 1 3.25534 4.05397 26.8225
16 2 5.33568 3.56614 14.2459
17 2 1.45348 1.61601 16.701
18 2 4.13484 0.174261 16.3621
19 2 4.09906 2.73949 16.6037
20 2 2.71859 1.16238 11.5605
21 2 5.33071 0.889142 14.2839
22 2 2.8444 2.02446 13.9709
23 2 2.65766 4.15354 11.3784
24 2 5.21126 1.23416 8.88558
25 2 7.67622 4.44195 6.20838
26 2 5.27925 4.36901 9.16075
27 2 5.00903 2.77878 11.3348
28 2 3.03476 2.80563 8.8582
29 2 5.25487 2.73285 6.59433
30 2 1.73658 2.37211 4.37654
31 2 4.28744 3.82104 3.88401
32 2 7.12685 3.99332 1.68487
33 2 4.02107 0.774555 3.98838
34 2 2.2329 1.41434 1.89933
35 2 2.72807 1.21741 6.87881
ITEM: TIMESTEP
14500
ITEM: NUMBER OF ATOMS
35
ITEM: BOX BOUNDS xy xz yz pp pp pp
0.0000000000000000e+00 7.6685730000000003e+00 2.5561910000000001e+00
0.0000000000000000e+00 4.4274529999999999e+00 0.0000000000000000e+00
0.0000000000000000e+00 3.4699264999999997e+01 0.0000000000000000e+00
ITEM: ATOMS id type x y z
1 1 6.34053 2.03752 34.5275
2 1 4.47637 4.14979 34.3057
3 1 1.75428 3.62314 32.8431
4 1 4.07606 0.200055 30.3934
5 1 4.81421 2.61849 1.55559
6 1 0.935072 1.51663 32.1874
7 1 4.33646 2.54504 31.4861
8 1 3.50326 1.52751 33.8894
9 1 1.85458 1.70203 26.2519
10 1 4.58154 2.32035 28.8517
11 1 5.78145 4.25428 27.8394
12 1 1.42627 0.100778 30.1582
13 1 1.92727 1.80907 28.7266
14 1 4.94784 3.62807 25.3147
15 1 3.35582 4.08707 28.0282
16 2 5.61345 3.65623 14.1186
17 2 1.48745 1.03653 16.4476
18 2 6.52706 4.11996 16.6789
19 2 3.69036 2.89657 16.1639
20 2 2.60119 1.3387 11.407
21 2 5.40372 0.643634 13.8887
22 2 2.71981 2.41432 14.031
23 2 7.40366 4.17281 11.686
24 2 5.51774 1.22604 9.26542
25 2 0.449701 -0.0392341 6.31022
26 2 5.56381 4.12016 9.30324
27 2 4.92658 2.80106 11.8647
28 2 2.95407 2.94318 8.6801
29 2 5.53639 3.10887 6.58516
30 2 1.48105 2.28866 4.09657
31 2 3.91094 3.86212 3.80085
32 2 7.21186 4.21862 1.53053
33 2 3.91884 0.794471 4.20119
34 2 2.52155 1.27562 1.79932
35 2 2.6181 1.26173 6.46694
ITEM: TIMESTEP
14600
ITEM: NUMBER OF ATOMS
35
ITEM: BOX BOUNDS xy xz yz pp pp pp
0.0000000000000000e+00 7.6685730000000003e+00 2.5561910000000001e+00
0.0000000000000000e+00 4.4274529999999999e+00 0.0000000000000000e+00
0.0000000000000000e+00 3.4699264999999997e+01 0.0000000000000000e+00
ITEM: ATOMS id type x y z
1 1 6.64751 2.40495 34.6279
2 1 4.45344 4.21068 34.3951
3 1 6.66857 4.14445 32.8666
4 1 3.61366 -0.140704 30.2368
5 1 4.7901 2.39592 1.74934
6 1 2.18445 1.24887 32.6292
7 1 4.18128 2.12401 31.4526
8 1 4.37743 2.05995 33.8722
9 1 1.74081 1.74092 26.9878
10 1 4.36522 1.8824 28.6748
11 1 5.80322 4.22944 27.8951
12 1 1.17107 0.0928443 30.373
13 1 1.9699 2.34486 29.3241
14 1 4.2595 3.76657 26.246
15 1 3.0337 4.29089 28.0306
16 2 5.51955 4.22462 14.4124
17 2 1.50725 1.27818 16.1033
18 2 6.17828 3.6667 16.9927
19 2 3.982 2.47951 16.2774
20 2 2.1298 1.22691 11.3345
21 2 0.508197 0.907568 13.7846
22 2 2.70175 2.33187 13.6665
23 2 7.24879 3.97483 11.2387
24 2 5.70284 1.42161 9.25966
25 2 2.84382 4.29699 6.71131
26 2 5.65876 4.1073 9.01455
27 2 4.77126 2.68998 11.7777
28 2 3.12371 2.75415 9.1205
29 2 5.39881 2.90886 6.55693
30 2 6.28124 2.42811 3.70054
31 2 3.63233 3.66574 3.81938
32 2 7.68638 4.19914 1.13717
33 2 4.0824 0.948333 4.11885
34 2 2.61357 1.13367 1.70749
35 2 3.02996 1.68591 6.53772
ITEM: TIMESTEP
14700
ITEM: NUMBER OF ATOMS
35
ITEM: BOX BOUNDS xy xz yz pp pp pp
0.0000000000000000e+00 7.6685730000000003e+00 2.5561910000000001e+00
0.0000000000000000e+00 4.4274529999999999e+00 0.0000000000000000e+00
0.0000000000000000e+00 3.4699264999999997e+01 0.0000000000000000e+00
ITEM: ATOMS id type x y z
1 1 1.63967 2.51995 34.5024
2 1 4.97938 4.29217 33.8617
3 1 7.44595 3.93288 32.5742
4 1 5.54518 4.06913 30.7775
5 1 4.98957 2.81184 1.49723
6 1 2.23136 1.60562 32.0874
7 1 4.74602 2.02786 30.8189
8 1 4.22427 1.59876 33.976
9 1 1.65607 2.2401 27.9237
10 1 4.241 2.20812 28.6388
11 1 5.31895 4.35965 28.2819
12 1 0.723189 0.131259 30.7392
13 1 2.27524 2.40054 30.2807
14 1 3.85113 2.70745 26.5212
15 1 0.193124 0.0668899 28.3288
16 2 5.58836 3.99533 14.2135
17 2 1.30508 1.18229 16.2774
18 2 6.65738 3.99799 17.0067
19 2 3.91129 1.99751 16.1707
20 2 1.98201 0.739991 11.4802
21 2 5.26144 0.973184 13.647
22 2 2.79598 2.83593 13.6251
23 2 6.95829 4.15199 11.1668
24 2 5.74492 1.4948 8.79101
25 2 0.181584 0.122254 6.6675
26 2 2.97353 0.00110581 8.62907
27 2 4.70072 2.67386 11.6593
28 2 3.44873 2.59485 9.3695
29 2 5.47076 2.86292 6.15462
30 2 6.47159 2.49793 3.65327
31 2 3.87588 3.68767 4.01172
32 2 0.164549 0.0592248 1.52642
33 2 3.92619 0.74862 4.16341
34 2 2.74328 0.755014 1.92139
35 2 2.80127 1.61332 6.62841
ITEM: TIMESTEP
14800
ITEM: NUMBER OF ATOMS
35
ITEM: BOX BOUNDS xy xz yz pp pp pp
0.0000000000000000e+00 7.6685730000000003e+00 2.5561910000000001e+00
0.0000000000000000e+00 4.4274529999999999e+00 0.0000000000000000e+00
0.0000000000000000e+00 3.4699264999999997e+01 0.0000000000000000e+00
ITEM: ATOMS id type x y z
1 1 1.55223 2.41497 0.464557
2 1 5.37543 3.58266 33.7983
3 1 3.06976 3.73536 33.6793
4 1 3.73004 0.424034 31.1681
5 1 4.64965 2.63727 1.79938
6 1 1.59619 1.58301 32.7185
7 1 4.73141 2.28497 31.7129
8 1 4.31799 1.44901 34.0832
9 1 1.01046 2.42385 27.4465
10 1 4.26324 2.34054 28.9981
11 1 2.4802 0.329882 28.7663
12 1 1.12383 0.152477 30.605
13 1 1.9338 2.47054 30.3046
14 1 3.36014 1.83474 26.7163
15 1 5.01711 -0.00393229 28.1889
16 2 5.16272 3.83993 14.2865
17 2 1.55144 0.759291 16.0761
18 2 6.90598 3.91024 16.2116
19 2 3.86148 2.41163 16.0717
20 2 1.82019 0.961629 11.5675
21 2 5.13835 1.18116 13.981
22 2 2.62302 2.74485 13.784
23 2 6.92669 4.18053 11.0458
24 2 6.02314 1.61974 8.9438
25 2 2.86818 4.235 6.38196
26 2 5.66065 4.19744 8.64969
27 2 4.78514 2.44903 11.3951
28 2 3.20276 2.98144 9.09886
29 2 5.31459 3.07696 6.25271
30 2 1.64641 2.26246 3.64342
31 2 4.06809 3.81296 3.97752
32 2 0.203919 -0.0941685 1.66255
33 2 4.07231 0.806702 4.29263
34 2 2.88743 1.0254 1.63104
35 2 2.4989 1.63926 6.28584
ITEM: TIMESTEP
14900
ITEM: NUMBER OF ATOMS
35
ITEM: BOX BOUNDS xy xz yz pp pp pp
0.0000000000000000e+00 7.6685730000000003e+00 2.5561910000000001e+00
0.0000000000000000e+00 4.4274529999999999e+00 0.0000000000000000e+00
0.0000000000000000e+00 3.4699264999999997e+01 0.0000000000000000e+00
ITEM: ATOMS id type x y z
1 1 6.52661 1.97853 0.541595
2 1 5.79844 4.16183 33.7307
3 1 3.21169 3.60933 33.9629
4 1 3.93031 0.519693 31.4802
5 1 4.74258 2.50183 2.02732
6 1 1.80638 1.50296 33.1335
7 1 4.47534 2.99697 32.1456
8 1 4.6525 1.79421 34.071
9 1 5.22356 2.69859 27.3398
10 1 4.26179 2.401 29.7946
11 1 2.74577 0.238293 29.4842
12 1 0.878602 0.257416 30.826
13 1 1.43317 2.68109 30.4821
14 1 3.08519 1.50168 27.2663
15 1 7.57081 3.99839 28.3856
16 2 4.88133 4.11967 13.3775
17 2 1.92981 1.02827 16.2273
18 2 6.56561 3.51595 15.7703
19 2 4.34917 2.4517 16.4825
20 2 2.08822 0.989541 11.3078
21 2 4.90079 1.05379 14.0145
22 2 2.30016 2.55651 13.3706
23 2 7.09206 3.99876 11.3546
24 2 0.727123 1.3389 9.0695
25 2 2.72887 4.46584 6.52312
26 2 5.8869 4.67475 8.7836
27 2 4.38977 2.69338 11.1823
28 2 3.22068 3.048 8.72398
29 2 5.22047 2.82182 6.55263
30 2 1.6909 2.41255 3.77128
31 2 4.1511 3.94521 4.03543
32 2 2.86288 4.21547 1.57537
33 2 4.3572 0.925557 3.88292
34 2 2.97635 0.539533 1.51385
35 2 2.57397 1.3686 6.23752
ITEM: TIMESTEP
15000
ITEM: NUMBER OF ATOMS
35
ITEM: BOX BOUNDS xy xz yz pp pp pp
0.0000000000000000e+00 7.6685730000000003e+00 2.5561910000000001e+00
0.0000000000000000e+00 4.4274529999999999e+00 0.0000000000000000e+00
0.0000000000000000e+00 3.4699264999999997e+01 0.0000000000000000e+00
ITEM: ATOMS id type x y z
1 1 2.1878 2.30003 0.65509
2 1 5.68584 3.97737 34.1368
3 1 3.27153 4.18135 33.4158
4 1 3.78953 0.541416 32.1025
5 1 4.71265 2.08683 1.74113
6 1 1.32192 1.85111 32.6285
7 1 4.7006 3.2182 31.668
8 1 4.39119 1.84329 34.1584
9 1 5.10376 3.15963 28.1784
10 1 3.80073 1.80131 29.9332
11 1 2.61566 -0.00175375 29.9266
12 1 0.458492 0.671145 30.5983
13 1 7.03957 2.79141 30.6875
14 1 2.57272 1.43296 28.0297
15 1 2.61983 3.93073 28.5923
16 2 4.48854 3.9302 13.5043
17 2 2.08822 0.86523 16.05
18 2 6.75747 3.82553 15.6561
19 2 4.3704 2.2538 16.2681
20 2 2.10677 1.23923 10.891
21 2 4.66254 1.28141 13.8057
22 2 2.24782 2.20212 13.7107
23 2 7.19525 4.14654 11.2356
24 2 5.65011 1.64011 8.72303
25 2 4.95602 -0.0978821 6.30654
26 2 3.34684 0.144615 8.71392
27 2 4.56383 2.49858 11.0155
28 2 3.14113 3.08013 8.51609
29 2 5.37127 2.74765 6.65027
30 2 1.69999 2.58507 3.57299
31 2 4.45686 3.94824 4.58473
32 2 3.15221 4.17402 1.80561
33 2 4.30539 0.991979 4.05787
34 2 3.01231 0.0502122 1.78211
35 2 2.76937 1.47088 6.28094
ITEM: TIMESTEP
15100
ITEM: NUMBER OF ATOMS
35
ITEM: BOX BOUNDS xy xz yz pp pp pp
0.0000000000000000e+00 7.6685730000000003e+00 2.5561910000000001e+00
0.0000000000000000e+00 4.4274529999999999e+00 0.0000000000000000e+00
0.0000000000000000e+00 3.4699264999999997e+01 0.0000000000000000e+00
ITEM: ATOMS id type x y z
1 1 1.56483 1.73235 0.744418
2 1 5.31704 3.92346 34.7145
3 1 2.77 4.33816 34.0345
4 1 3.68399 0.518167 31.9277
5 1 4.59761 2.34482 1.57193
6 1 6.59391 2.20565 32.8978
7 1 4.04973 2.97853 32.0789
8 1 3.93545 1.63504 34.198
9 1 5.5831 2.93513 27.8937
10 1 4.08358 2.34296 29.5289
11 1 5.6324 4.31322 29.7543
12 1 0.910967 1.03584 30.9126
13 1 2.06076 3.02673 30.6741
14 1 1.59584 1.10625 28.5211
15 1 2.23903 4.35871 28.3353
16 2 4.38532 3.78321 13.6544
17 2 1.69864 0.748509 15.9452
18 2 7.22383 4.00594 15.8074
19 2 4.41788 2.34599 15.7739
20 2 2.09914 1.13876 11.3287
21 2 4.68515 0.888773 13.2331
22 2 1.93139 2.37176 13.5927
23 2 7.12831 4.0676 11.1132
24 2 5.78745 1.45593 8.7057
25 2 7.78248 4.27173 6.08333
26 2 5.62966 4.29363 8.66713
27 2 4.86439 2.66568 11.2257
28 2 3.24377 3.24659 8.94463
29 2 5.26481 2.81999 6.18698
30 2 1.95057 2.20827 3.4742
31 2 4.41332 4.0952 4.04301
32 2 3.308 4.33997 1.91282
33 2 4.32148 1.40318 4.28357
34 2 3.45866 -0.00624964 2.19207
35 2 2.63651 1.48353 6.49444
ITEM: TIMESTEP
15200
ITEM: NUMBER OF ATOMS
35
ITEM: BOX BOUNDS xy xz yz pp pp pp
0.0000000000000000e+00 7.6685730000000003e+00 2.5561910000000001e+00
0.0000000000000000e+00 4.4274529999999999e+00 0.0000000000000000e+00
0.0000000000000000e+00 3.4699264999999997e+01 0.0000000000000000e+00
ITEM: ATOMS id type x y z
1 1 1.7773 2.46051 0.987214
2 1 4.6562 4.07115 -0.645322
3 1 2.10505 4.28753 33.7432
4 1 3.25198 0.540097 32.3566
5 1 4.83912 2.27873 1.98445
6 1 1.47905 2.13036 32.8456
7 1 4.41147 3.07603 31.9973
8 1 3.79939 1.88334 34.4339
9 1 5.19187 3.23859 27.0105
10 1 4.34681 2.31442 28.9326
11 1 5.55481 4.23554 30.0586
12 1 0.512465 0.705067 31.1416
13 1 2.34592 2.9214 30.2965
14 1 1.60456 1.5296 28.6161
15 1 7.55145 4.33036 28.06
16 2 4.55186 4.0788 13.5423
17 2 2.05032 1.18578 15.9674
18 2 6.78961 3.73484 16.022
19 2 4.52179 2.33035 15.6007
20 2 2.20072 0.926779 11.109
21 2 4.32887 0.802939 13.5267
22 2 1.85077 2.46206 13.5453
23 2 7.17074 3.77875 10.9447
24 2 5.73835 1.38033 8.89192
25 2 2.97507 4.31278 6.47726
26 2 5.76047 4.39813 8.82247
27 2 4.63334 2.49133 11.2372
28 2 3.4191 2.51776 8.84808
29 2 5.37932 2.93459 6.59795
30 2 1.87405 2.61356 3.70874
31 2 4.14768 4.18259 4.08012
32 2 3.52798 4.31617 1.38355
33 2 4.51742 1.46359 4.20299
34 2 3.3243 0.0281578 2.09168
35 2 2.7748 1.26459 6.50814
ITEM: TIMESTEP
15300
ITEM: NUMBER OF ATOMS
35
ITEM: BOX BOUNDS xy xz yz pp pp pp
0.0000000000000000e+00 7.6685730000000003e+00 2.5561910000000001e+00
0.0000000000000000e+00 4.4274529999999999e+00 0.0000000000000000e+00
0.0000000000000000e+00 3.4699264999999997e+01 0.0000000000000000e+00
ITEM: ATOMS id type x y z
1 1 1.99163 2.54573 0.452922
2 1 5.25377 4.16594 33.3898
3 1 7.44764 3.9422 33.1057
4 1 2.87429 1.1091 31.723
5 1 4.83735 2.71481 2.43917
6 1 0.947805 1.93125 33.1374
7 1 4.70112 3.06589 31.1038
8 1 4.23779 1.69179 34.3877
9 1 5.15488 3.80167 27.3571
10 1 4.21067 1.81 28.9461
11 1 5.07279 4.4852 29.2204
12 1 0.218784 0.498832 30.5038
13 1 2.02245 2.72098 30.27
14 1 1.73671 1.89915 28.0415
15 1 7.81784 3.99222 28.3247
16 2 4.11385 3.97075 13.6921
17 2 1.97288 1.01956 15.9122
18 2 6.91316 4.0562 16.0247
19 2 4.5099 2.54657 16.0567
20 2 2.02266 0.836632 11.1944
21 2 4.48439 1.01023 13.6898
22 2 1.95606 2.40361 13.4592
23 2 7.37165 3.72949 11.3482
24 2 5.918 1.23442 8.96552
25 2 2.80695 4.32892 6.89537
26 2 5.94033 3.96523 9.04279
27 2 4.52525 1.95549 11.2706
28 2 3.25111 2.38437 8.57806
29 2 5.72379 2.76029 6.53328
30 2 1.78211 3.02346 4.01277
31 2 4.31316 4.20086 4.30387
32 2 3.18155 4.59763 1.35756
33 2 4.59862 1.08632 4.32948
34 2 3.28589 0.457215 1.90855
35 2 2.87026 1.50596 5.97815
ITEM: TIMESTEP
15400
ITEM: NUMBER OF ATOMS
35
ITEM: BOX BOUNDS xy xz yz pp pp pp
0.0000000000000000e+00 7.6685730000000003e+00 2.5561910000000001e+00
0.0000000000000000e+00 4.4274529999999999e+00 0.0000000000000000e+00
0.0000000000000000e+00 3.4699264999999997e+01 0.0000000000000000e+00
ITEM: ATOMS id type x y z
1 1 6.47733 2.68009 0.741388
2 1 5.18514 4.11109 34.2877
3 1 2.81838 3.39721 32.5704
4 1 3.38163 1.26766 31.5572
5 1 4.74301 2.78309 1.83598
6 1 1.22818 1.22672 32.8372
7 1 4.70421 3.00128 31.29
8 1 3.89191 1.93719 34.1458
9 1 5.28145 3.68584 27.1622
10 1 4.14957 2.137 28.5275
11 1 2.45469 0.488513 29.3359
12 1 5.36335 0.709635 30.7705
13 1 6.44807 2.80971 29.4723
14 1 1.50703 1.70924 27.2445
15 1 2.92086 4.25636 28.2238
16 2 4.45829 3.53928 13.7968
17 2 1.73484 1.06809 16.1117
18 2 7.19139 4.06898 16.0105
19 2 4.47398 2.72528 16.3871
20 2 2.18562 0.576222 11.6855
21 2 4.3471 0.938706 13.7119
22 2 1.58989 2.4278 14.0201
23 2 2.19717 3.51914 11.2763
24 2 0.972749 1.03972 9.04182
25 2 0.0994852 0.0508828 6.48503
26 2 5.76004 3.97162 9.06656
27 2 4.70363 2.23331 11.1929
28 2 3.45475 2.32725 8.88613
29 2 5.41764 2.79652 6.3186
30 2 2.02088 2.63398 3.46473
31 2 4.58888 4.18413 4.40899
32 2 0.536231 0.251941 1.30671
33 2 4.8531 1.17574 3.98219
34 2 2.99198 1.11176 1.78291
35 2 2.81184 1.489 6.45993
ITEM: TIMESTEP
15500
ITEM: NUMBER OF ATOMS
35
ITEM: BOX BOUNDS xy xz yz pp pp pp
0.0000000000000000e+00 7.6685730000000003e+00 2.5561910000000001e+00
0.0000000000000000e+00 4.4274529999999999e+00 0.0000000000000000e+00
0.0000000000000000e+00 3.4699264999999997e+01 0.0000000000000000e+00
ITEM: ATOMS id type x y z
1 1 1.83365 2.47483 0.247695
2 1 4.88644 4.09106 34.0909
3 1 1.65053 4.00958 32.9855
4 1 3.07565 1.19748 31.8943
5 1 4.84808 2.8592 1.67144
6 1 0.708627 1.28495 33.1382
7 1 5.85438 3.18047 31.084
8 1 4.07457 2.01596 34.0399
9 1 5.65126 3.97967 27.011
10 1 4.10807 2.33684 28.6814
11 1 2.63191 0.540535 29.367
12 1 0.438643 0.322235 30.247
13 1 6.77045 2.64191 29.0315
14 1 1.7888 1.62811 26.8889
15 1 0.0219812 0.158514 27.7242
16 2 4.27159 3.87523 14.165
17 2 2.04729 1.04551 16.5268
18 2 6.93612 3.98663 16.3744
19 2 4.39584 2.39353 16.4029
20 2 2.35872 0.760057 11.6085
21 2 4.25475 0.639297 13.7705
22 2 1.8322 2.15874 13.9253
23 2 2.2036 3.43279 11.3884
24 2 0.823423 0.901549 9.11224
25 2 2.44454 4.12303 6.23807
26 2 6.08453 4.12201 8.81216
27 2 4.92504 2.19004 11.5164
28 2 3.57242 2.63496 9.0582
29 2 5.17861 2.78266 6.69185
30 2 2.05631 3.03906 3.5017
31 2 4.7437 4.32659 3.97906
32 2 0.185089 0.280411 1.12207
33 2 4.77507 1.25208 3.66173
34 2 2.94285 0.870098 1.64147
35 2 2.7141 1.40955 6.56657
ITEM: TIMESTEP
15600
ITEM: NUMBER OF ATOMS
35
ITEM: BOX BOUNDS xy xz yz pp pp pp
0.0000000000000000e+00 7.6685730000000003e+00 2.5561910000000001e+00
0.0000000000000000e+00 4.4274529999999999e+00 0.0000000000000000e+00
0.0000000000000000e+00 3.4699264999999997e+01 0.0000000000000000e+00
ITEM: ATOMS id type x y z
1 1 6.2902 2.63516 34.5676
2 1 4.61374 4.28621 33.5826
3 1 7.14215 3.94075 32.9741
4 1 3.13829 2.5848 31.0945
5 1 4.62545 2.77232 1.73917
6 1 5.93192 1.45457 32.5118
7 1 5.22693 2.83818 30.7206
8 1 3.41554 1.65368 33.762
9 1 5.39202 3.68574 27.1428
10 1 4.26559 2.95768 28.8621
11 1 3.35416 0.384306 29.4199
12 1 2.85626 4.44871 30.3198
13 1 1.8226 2.49661 28.8156
14 1 2.59582 1.94291 26.678
15 1 0.426885 0.500821 27.5765
16 2 4.11817 3.88512 14.3404
17 2 1.95855 0.83688 16.6679
18 2 6.80906 3.60197 16.5357
19 2 4.63314 2.01601 16.1851
20 2 2.37706 0.528531 11.122
21 2 4.23788 0.657681 14.1718
22 2 2.06337 2.22484 14.0618
23 2 2.56003 3.82882 11.6275
24 2 1.05794 1.4395 8.97033
25 2 2.49925 4.11465 6.15786
26 2 6.37247 4.1835 8.89222
27 2 4.83069 2.05552 11.8665
28 2 3.58807 2.76121 9.23291
29 2 4.86851 2.51979 6.55814
30 2 2.02095 3.05348 3.67526
31 2 2.09659 0.0235831 4.07722
32 2 2.88599 4.28014 0.979232
33 2 4.77178 1.68613 4.05081
34 2 2.76671 0.849685 1.69531
35 2 2.23884 1.17332 6.26108
ITEM: TIMESTEP
15700
ITEM: NUMBER OF ATOMS
35
ITEM: BOX BOUNDS xy xz yz pp pp pp
0.0000000000000000e+00 7.6685730000000003e+00 2.5561910000000001e+00
0.0000000000000000e+00 4.4274529999999999e+00 0.0000000000000000e+00
0.0000000000000000e+00 3.4699264999999997e+01 0.0000000000000000e+00
ITEM: ATOMS id type x y z
1 1 5.64688 2.21388 0.118954
2 1 4.61156 3.83839 32.842
3 1 7.25216 3.7543 32.615
4 1 2.7107 1.6679 31.1189
5 1 4.93233 2.59532 2.25705
6 1 5.91117 1.54788 32.6308
7 1 6.00671 3.95251 30.7854
8 1 3.46033 1.57936 33.548
9 1 5.88886 3.966 26.9292
10 1 3.9931 3.23585 28.759
11 1 3.36728 0.672115 28.8763
12 1 0.735496 1.08216 30.3746
13 1 1.41944 2.81449 28.7478
14 1 3.72791 1.85586 26.6074
15 1 0.405265 0.728936 27.7125
16 2 4.42281 3.68817 14.1513
17 2 1.78504 0.318334 16.5997
18 2 7.21303 3.31673 16.569
19 2 4.64127 1.9928 16.4278
20 2 2.63372 0.536746 11.3977
21 2 4.1141 0.54735 14.0886
22 2 1.71293 2.21499 13.99
23 2 2.48784 3.71177 11.6478
24 2 1.27228 1.8413 8.93688
25 2 2.29978 4.00366 6.54285
26 2 3.71191 0.244247 8.75002
27 2 4.92818 2.27422 11.9365
28 2 3.81819 2.90078 9.08711
29 2 4.69618 2.58142 6.78763
30 2 2.03249 2.87248 3.36944
31 2 4.29718 4.40305 3.90847
32 2 2.62143 3.99454 1.05149
33 2 4.54528 1.36022 4.32999
34 2 2.75014 1.08982 1.43583
35 2 2.23475 1.35367 6.52309
ITEM: TIMESTEP
15800
ITEM: NUMBER OF ATOMS
35
ITEM: BOX BOUNDS xy xz yz pp pp pp
0.0000000000000000e+00 7.6685730000000003e+00 2.5561910000000001e+00
0.0000000000000000e+00 4.4274529999999999e+00 0.0000000000000000e+00
0.0000000000000000e+00 3.4699264999999997e+01 0.0000000000000000e+00
ITEM: ATOMS id type x y z
1 1 5.79603 2.35436 0.331584
2 1 4.78954 3.69779 32.662
3 1 2.31651 3.52415 33.4533
4 1 3.04906 2.32514 31.2451
5 1 4.54707 2.41655 2.35282
6 1 5.8378 1.49053 32.4631
7 1 6.46966 3.56902 30.8828
8 1 3.48151 1.29787 33.4356
9 1 6.07396 3.83866 26.0421
10 1 4.31769 3.70405 29.8834
11 1 3.06609 1.49369 28.3914
12 1 5.21167 1.27732 29.9907
13 1 6.72689 3.1885 28.4073
14 1 4.16355 2.5305 26.556
15 1 0.982938 0.476297 27.5877
16 2 4.08844 3.29627 13.9448
17 2 2.18657 0.250591 16.3462
18 2 2.0727 3.27009 16.2844
19 2 4.3547 1.7101 16.5516
20 2 2.59843 0.973922 11.7729
21 2 4.48089 0.518519 14.1127
22 2 1.69588 1.81675 14.0959
23 2 2.35711 3.56162 11.4298
24 2 1.15058 1.79588 9.39074
25 2 7.40684 4.00271 6.67954
26 2 3.67678 0.752132 9.06041
27 2 5.12544 2.20623 11.476
28 2 3.84028 3.71907 9.42802
29 2 4.97424 2.92591 6.64604
30 2 1.90111 2.73478 3.51104
31 2 1.57446 0.0361035 3.9084
32 2 2.61255 4.01434 1.01138
33 2 3.98487 0.695695 4.29513
34 2 2.76336 0.825456 1.33381
35 2 2.2382 1.12286 6.33613
ITEM: TIMESTEP
15900
ITEM: NUMBER OF ATOMS
35
ITEM: BOX BOUNDS xy xz yz pp pp pp
0.0000000000000000e+00 7.6685730000000003e+00 2.5561910000000001e+00
0.0000000000000000e+00 4.4274529999999999e+00 0.0000000000000000e+00
0.0000000000000000e+00 3.4699264999999997e+01 0.0000000000000000e+00
ITEM: ATOMS id type x y z
1 1 5.57504 2.33279 0.277709
2 1 4.59962 3.84536 33.3578
3 1 2.11352 3.25943 33.2777
4 1 3.68289 1.79343 31.0732
5 1 4.55927 2.18849 2.05582
6 1 5.96566 0.928028 31.912
7 1 6.55034 3.53452 30.9851
8 1 3.82224 1.16072 33.8436
9 1 6.66974 4.13245 26.0712
10 1 4.44651 4.77256 30.1631
11 1 3.14635 1.76475 28.3966
12 1 5.52325 1.9787 29.4334
13 1 6.27514 3.6558 28.4668
14 1 4.43309 2.7943 26.9091
15 1 1.14478 0.551827 27.9269
16 2 4.22098 2.98949 13.8989
17 2 2.04321 0.110027 16.1649
18 2 1.78614 3.21406 16.3655
19 2 4.6992 1.66025 16.4194
20 2 2.39846 0.838138 11.8309
21 2 4.37992 0.220129 13.9498
22 2 1.65438 1.73647 14.1059
23 2 2.24948 3.90121 11.5652
24 2 1.2851 2.54179 8.6465
25 2 2.58116 4.14339 6.94525
26 2 3.82653 1.0731 9.28217
27 2 4.95038 2.12537 11.5461
28 2 4.02183 3.91783 9.1536
29 2 5.09968 2.69523 6.21464
30 2 1.38079 2.36675 3.66415
31 2 3.66371 4.03741 3.95061
32 2 2.86366 4.12931 1.48235
33 2 3.88766 0.846545 4.2745
34 2 2.77128 0.356925 1.47297
35 2 2.17462 1.22325 6.5181
ITEM: TIMESTEP
16000
ITEM: NUMBER OF ATOMS
35
ITEM: BOX BOUNDS xy xz yz pp pp pp
0.0000000000000000e+00 7.6685730000000003e+00 2.5561910000000001e+00
0.0000000000000000e+00 4.4274529999999999e+00 0.0000000000000000e+00
0.0000000000000000e+00 3.4699264999999997e+01 0.0000000000000000e+00
ITEM: ATOMS id type x y z
1 1 1.26804 1.60429 0.431786
2 1 4.38204 4.0481 34.1029
3 1 2.35847 3.27066 33.256
4 1 3.4487 1.8955 31.5205
5 1 4.2574 2.24476 2.11893
6 1 5.72634 1.16023 32.4691
7 1 7.30464 3.65072 30.9129
8 1 3.92274 1.34349 34.1044
9 1 4.34605 0.0809645 26.1827
10 1 2.07938 -0.0435107 29.9095
11 1 2.71331 2.63796 28.8714
12 1 5.30426 2.12038 29.5622
13 1 4.0749 0.489236 28.7415
14 1 5.25696 2.63952 27.2584
15 1 1.52767 0.6705 27.7376
16 2 4.2369 3.14723 14.0548
17 2 4.19086 4.41822 16.3661
18 2 2.03461 3.04953 16.5836
19 2 4.63864 1.61243 16.2168
20 2 2.09868 0.543991 11.382
21 2 4.09782 0.0468369 14.0183
22 2 1.60426 1.77172 13.8752
23 2 2.4365 3.41842 11.1915
24 2 6.41135 2.9908 8.63772
25 2 0.0515464 0.0959316 6.53963
26 2 4.00899 1.45993 8.98051
27 2 5.06312 2.36578 11.4164
28 2 4.07562 4.20545 9.03313
29 2 5.00826 2.54325 6.08653
30 2 6.28517 2.12478 3.55286
31 2 3.48374 3.62335 4.34316
32 2 2.6427 3.81794 1.46433
33 2 3.61085 0.647139 4.22267
34 2 2.65754 0.124493 1.75015
35 2 2.73759 1.27592 6.67221
ITEM: TIMESTEP
16100
ITEM: NUMBER OF ATOMS
35
ITEM: BOX BOUNDS xy xz yz pp pp pp
0.0000000000000000e+00 7.6685730000000003e+00 2.5561910000000001e+00
0.0000000000000000e+00 4.4274529999999999e+00 0.0000000000000000e+00
0.0000000000000000e+00 3.4699264999999997e+01 0.0000000000000000e+00
ITEM: ATOMS id type x y z
1 1 6.08978 1.74099 0.424448
2 1 4.99442 3.7307 33.929
3 1 7.19661 3.74065 33.5622
4 1 3.21099 1.52117 31.8697
5 1 4.23255 1.57669 2.0826
6 1 0.953642 1.53753 32.7041
7 1 6.98218 4.5097 31.1041
8 1 3.67157 1.47646 34.4516
9 1 4.12206 0.261728 26.7156
10 1 4.43144 4.2454 30.3801
11 1 2.84423 3.22335 28.4358
12 1 6.30779 2.2472 30.4813
13 1 4.43978 1.03728 28.9607
14 1 5.67709 2.78486 27.8291
15 1 1.98315 0.740433 27.6761
16 2 3.85616 3.31513 13.8504
17 2 1.91687 0.23301 16.4422
18 2 1.8512 2.87124 16.2826
19 2 4.20456 1.46602 16.1636
20 2 2.54373 0.569994 11.1808
21 2 4.01355 0.136557 13.7811
22 2 1.70475 1.55623 13.9798
23 2 2.59248 3.32068 11.12
24 2 6.42798 2.95798 8.84604
25 2 0.141201 0.0936444 6.40263
26 2 4.08933 1.57189 8.99844
27 2 5.08471 1.97807 11.496
28 2 1.25529 0.248928 8.66009
29 2 5.52689 3.08663 6.39346
30 2 1.26424 1.73038 3.63148
31 2 3.48482 3.40396 3.96522
32 2 2.27572 3.71329 1.40381
33 2 3.62204 0.215156 4.24338
34 2 4.73715 4.26142 1.82154
35 2 2.58749 1.37606 6.52147
ITEM: TIMESTEP
16200
ITEM: NUMBER OF ATOMS
35
ITEM: BOX BOUNDS xy xz yz pp pp pp
0.0000000000000000e+00 7.6685730000000003e+00 2.5561910000000001e+00
0.0000000000000000e+00 4.4274529999999999e+00 0.0000000000000000e+00
0.0000000000000000e+00 3.4699264999999997e+01 0.0000000000000000e+00
ITEM: ATOMS id type x y z
1 1 5.58804 1.53517 0.512238
2 1 5.02202 3.76844 33.2496
3 1 2.21489 3.95893 33.8294
4 1 3.35365 2.30392 32.304
5 1 3.99648 1.42145 1.94025
6 1 5.68282 1.82168 32.388
7 1 7.43877 4.19971 31.3882
8 1 3.02315 1.65561 34.6216
9 1 4.41959 0.725967 27.5659
10 1 4.79703 4.01614 30.6134
11 1 3.245 2.91927 28.5364
12 1 1.65898 2.21003 30.0641
13 1 4.42956 1.41121 29.8061
14 1 5.74072 3.48209 28.3721
15 1 1.72609 1.00961 28.1544
16 2 4.03803 3.09895 13.7568
17 2 4.34666 4.3582 16.1758
18 2 6.64693 3.27743 15.9705
19 2 4.33994 1.58774 15.9632
20 2 2.83422 0.381481 11.1956
21 2 3.87201 0.0173704 13.5448
22 2 1.41541 1.59684 13.8357
23 2 2.84608 3.62839 11.4259
24 2 6.567 3.17515 9.05987
25 2 0.343563 0.182822 6.35148
26 2 3.78352 1.58463 8.84179
27 2 5.39422 1.76699 11.6653
28 2 1.38005 0.281422 8.92971
29 2 5.20896 3.05821 6.56036
30 2 1.00097 1.57829 3.68055
31 2 3.70861 3.0568 4.11714
32 2 1.97398 3.32386 1.55893
33 2 3.65911 -0.0390893 4.12897
34 2 4.70084 4.01753 1.31245
35 2 2.67912 1.87551 6.14734
ITEM: TIMESTEP
16300
ITEM: NUMBER OF ATOMS
35
ITEM: BOX BOUNDS xy xz yz pp pp pp
0.0000000000000000e+00 7.6685730000000003e+00 2.5561910000000001e+00
0.0000000000000000e+00 4.4274529999999999e+00 0.0000000000000000e+00
0.0000000000000000e+00 3.4699264999999997e+01 0.0000000000000000e+00
ITEM: ATOMS id type x y z
1 1 5.46427 1.89541 -0.0726512
2 1 4.72585 4.3974 32.9054
3 1 7.24781 3.99086 34.3203
4 1 3.6429 2.06245 32.5202
5 1 3.83947 1.18429 1.97961
6 1 6.08069 1.8293 32.6209
7 1 2.40797 4.07147 31.6178
8 1 2.73991 1.78084 34.5708
9 1 4.77488 1.67804 28.2276
10 1 4.91537 3.95685 30.6975
11 1 3.30009 3.6158 28.5963
12 1 1.94555 1.94202 30.0917
13 1 4.26348 1.40401 30.1984
14 1 6.14675 3.61815 28.694
15 1 1.97893 1.02283 27.9123
16 2 4.14539 2.84709 13.5741
17 2 3.8656 4.52289 15.9818
18 2 6.79654 3.12482 16.0396
19 2 4.28184 1.62877 15.9542
20 2 2.8774 0.663814 11.2592
21 2 4.00628 0.063506 13.6737
22 2 1.59224 1.38028 13.7801
23 2 3.04761 3.28063 11.3713
24 2 6.67111 3.18639 9.04747
25 2 0.207832 0.44761 6.45294
26 2 3.89236 1.69968 8.64478
27 2 5.50415 2.20521 11.0299
28 2 1.33899 0.285825 8.90309
29 2 5.14443 3.15562 6.8459
30 2 0.819512 1.1418 3.46417
31 2 3.85215 3.01884 3.99881
32 2 1.96839 2.8881 2.04227
33 2 6.14773 4.11765 4.14407
34 2 4.34375 3.94329 1.19671
35 2 2.39276 1.92813 6.2792
ITEM: TIMESTEP
16400
ITEM: NUMBER OF ATOMS
35
ITEM: BOX BOUNDS xy xz yz pp pp pp
0.0000000000000000e+00 7.6685730000000003e+00 2.5561910000000001e+00
0.0000000000000000e+00 4.4274529999999999e+00 0.0000000000000000e+00
0.0000000000000000e+00 3.4699264999999997e+01 0.0000000000000000e+00
ITEM: ATOMS id type x y z
1 1 5.38111 2.16725 0.151774
2 1 4.50614 4.12102 33.6206
3 1 6.88404 4.22438 34.1325
4 1 3.81924 1.67508 32.7069
5 1 4.31179 0.809116 1.7804
6 1 6.44452 2.08632 32.373
7 1 2.54517 3.9577 31.7188
8 1 2.64519 1.62895 -0.00674627
9 1 4.94058 2.40175 27.5865
10 1 4.96749 3.48591 30.8924
11 1 3.62228 4.76288 28.7813
12 1 2.00065 1.8395 30.1781
13 1 4.52448 1.22101 30.3426
14 1 6.36195 3.90024 28.5425
15 1 2.95444 1.44346 27.4889
16 2 4.40961 2.84797 13.7257
17 2 1.59472 0.079433 16.0121
18 2 6.54554 2.66762 16.057
19 2 3.82648 1.55808 16.1902
20 2 3.03001 0.717661 11.1381
21 2 4.50668 -0.122852 13.5962
22 2 1.71223 1.45892 13.324
23 2 2.77869 3.83021 11.0962
24 2 6.90702 3.23439 8.62056
25 2 4.89511 0.568451 6.38561
26 2 4.02055 1.58465 8.74212
27 2 5.36417 2.27089 11.0617
28 2 1.51209 0.363382 8.92036
29 2 4.95054 3.73919 6.68568
30 2 1.02621 0.740065 3.7675
31 2 3.70833 2.26585 3.99743
32 2 1.50545 2.73353 2.27577
33 2 5.99094 4.08356 4.31707
34 2 4.01601 4.21243 1.47
35 2 2.29671 1.82135 6.26184
ITEM: TIMESTEP
16500
ITEM: NUMBER OF ATOMS
35
ITEM: BOX BOUNDS xy xz yz pp pp pp
0.0000000000000000e+00 7.6685730000000003e+00 2.5561910000000001e+00
0.0000000000000000e+00 4.4274529999999999e+00 0.0000000000000000e+00
0.0000000000000000e+00 3.4699264999999997e+01 0.0000000000000000e+00
ITEM: ATOMS id type x y z
1 1 5.16051 1.80988 34.4175
2 1 4.15395 3.8563 33.6556
3 1 6.60891 4.16413 34.5697
4 1 3.78435 1.21745 32.0435
5 1 3.66562 1.14398 1.63741
6 1 1.4465 1.49841 32.2409
7 1 3.06291 4.01629 31.2936
8 1 2.87847 2.23467 34.3624
9 1 5.42392 2.79553 27.6181
10 1 5.71781 3.69123 31.4146
11 1 1.21165 0.344105 28.2293
12 1 2.3063 2.19418 30.0752
13 1 4.8091 2.03678 29.7093
14 1 6.69458 4.05353 29.0494
15 1 3.02457 2.18071 27.8985
16 2 4.4593 2.87592 13.5995
17 2 4.04959 4.16253 15.9022
18 2 6.3508 2.75581 15.7387
19 2 3.83146 1.28891 15.9778
20 2 2.93275 0.838007 11.2311
21 2 7.08538 4.37101 13.8331
22 2 2.00898 1.49295 13.5149
23 2 2.9837 3.98705 11.1366
24 2 6.78682 3.13295 8.61799
25 2 4.80417 0.954392 6.62795
26 2 4.28614 1.83551 8.92121
27 2 5.45741 2.51441 11.36
28 2 1.75356 0.41493 8.86062
29 2 4.33398 3.38691 6.53904
30 2 0.942486 0.504152 4.46031
31 2 3.71064 2.10211 4.08967
32 2 6.36365 2.17647 1.83191
33 2 5.89968 3.62474 4.07072
34 2 4.02058 4.08573 1.69825
35 2 2.16073 2.32388 6.15079
ITEM: TIMESTEP
16600
ITEM: NUMBER OF ATOMS
35
ITEM: BOX BOUNDS xy xz yz pp pp pp
0.0000000000000000e+00 7.6685730000000003e+00 2.5561910000000001e+00
0.0000000000000000e+00 4.4274529999999999e+00 0.0000000000000000e+00
0.0000000000000000e+00 3.4699264999999997e+01 0.0000000000000000e+00
ITEM: ATOMS id type x y z
1 1 4.96203 1.53059 33.8396
2 1 3.82673 4.10228 33.6428
3 1 6.36103 3.8939 34.4777
4 1 4.31072 1.93766 31.6048
5 1 4.11697 0.379122 1.99761
6 1 1.4842 1.44753 31.8695
7 1 3.42717 3.83193 30.6533
8 1 2.72819 1.98002 34.0967
9 1 5.9 2.85956 27.3027
10 1 5.95642 4.01933 32.0051
11 1 1.52156 0.371082 28.1961
12 1 2.40343 1.28048 30.0999
13 1 5.20553 2.72857 29.5587
14 1 6.8488 4.90974 29.2084
15 1 3.06331 2.64982 28.1434
16 2 4.27845 3.00107 13.6127
17 2 3.50329 4.1828 15.9917
18 2 6.41775 2.60653 15.9326
19 2 3.89086 1.26501 16.0165
20 2 3.06778 1.04683 11.2755
21 2 4.57037 0.238535 13.434
22 2 1.9896 1.30866 13.8289
23 2 3.22413 3.83623 11.3374
24 2 6.74963 3.43821 9.01521
25 2 4.13852 0.620537 6.86429
26 2 4.18838 2.16904 9.30608
27 2 6.04506 2.54467 11.3069
28 2 1.82469 0.519846 8.77427
29 2 4.63725 3.75278 6.38609
30 2 0.739307 0.513051 4.04444
31 2 3.55563 2.13672 3.95782
32 2 6.31722 1.95556 1.55663
33 2 6.24144 3.43863 3.92888
34 2 3.824 3.36869 1.68634
35 2 1.70126 2.21717 6.43946
ITEM: TIMESTEP
16700
ITEM: NUMBER OF ATOMS
35
ITEM: BOX BOUNDS xy xz yz pp pp pp
0.0000000000000000e+00 7.6685730000000003e+00 2.5561910000000001e+00
0.0000000000000000e+00 4.4274529999999999e+00 0.0000000000000000e+00
0.0000000000000000e+00 3.4699264999999997e+01 0.0000000000000000e+00
ITEM: ATOMS id type x y z
1 1 4.99473 1.62168 34.2796
2 1 3.63014 3.78919 33.4616
3 1 6.1986 3.55872 34.3753
4 1 4.39917 2.34673 31.556
5 1 3.93686 0.531881 1.66951
6 1 1.44695 1.77417 32.2379
7 1 2.90766 4.03012 30.6067
8 1 2.53811 1.12591 34.281
9 1 6.10926 3.1737 27.0124
10 1 6.15599 4.50023 32.0977
11 1 1.94164 0.464249 27.3579
12 1 2.42519 1.0112 30.0137
13 1 5.93489 3.21444 29.7185
14 1 4.74118 0.749225 28.3579
15 1 3.42621 2.69489 28.0375
16 2 4.53652 2.98673 13.8927
17 2 3.51277 4.1171 16.1437
18 2 6.09808 2.84016 16.1855
19 2 3.65533 1.32076 16.0925
20 2 3.42144 0.771165 11.3351
21 2 4.48756 0.0744668 13.7124
22 2 1.84409 1.50984 13.9431
23 2 3.54419 4.09812 11.1669
24 2 6.97632 3.7792 9.00396
25 2 4.33065 0.700746 6.51852
26 2 4.28625 2.25066 8.77313
27 2 5.98648 2.37673 11.6516
28 2 1.59009 0.874837 9.01682
29 2 4.00357 3.64554 6.12929
30 2 1.02728 0.603987 3.917
31 2 3.39501 1.80932 4.16197
32 2 1.24416 1.5915 1.66216
33 2 5.99582 3.37492 3.82857
34 2 3.73625 3.02471 1.38663
35 2 1.6896 2.02651 6.74773
ITEM: TIMESTEP
16800
ITEM: NUMBER OF ATOMS
35
ITEM: BOX BOUNDS xy xz yz pp pp pp
0.0000000000000000e+00 7.6685730000000003e+00 2.5561910000000001e+00
0.0000000000000000e+00 4.4274529999999999e+00 0.0000000000000000e+00
0.0000000000000000e+00 3.4699264999999997e+01 0.0000000000000000e+00
ITEM: ATOMS id type x y z
1 1 4.74655 0.947201 33.9893
2 1 3.36087 3.35843 33.216
3 1 6.49255 2.81914 34.4277
4 1 4.41216 2.52613 31.1751
5 1 3.63852 0.15498 1.65908
6 1 2.0152 2.27702 31.7201
7 1 2.85533 4.70853 30.7003
8 1 2.15 0.704893 33.9548
9 1 6.49143 3.03158 27.4243
10 1 3.28268 0.167949 31.9966
11 1 2.53563 1.17845 27.368
12 1 2.35793 0.97272 29.4427
13 1 6.20647 2.97256 29.477
14 1 5.00243 0.893756 27.9294
15 1 3.89922 3.39984 28.2785
16 2 4.59487 3.01337 13.8637
17 2 3.48273 4.30091 16.3634
18 2 5.82527 2.93484 16.4765
19 2 3.37525 1.27484 16.2733
20 2 3.79211 0.960067 11.3868
21 2 4.56288 -0.166609 14.1949
22 2 2.04503 1.6185 14.0584
23 2 3.53505 3.69847 11.6617
24 2 6.78534 3.95071 8.82338
25 2 4.23179 0.669357 6.19466
26 2 4.46897 2.45016 8.59443
27 2 5.96987 2.37995 11.3743
28 2 1.78488 1.00903 9.00748
29 2 3.98842 3.45141 6.41532
30 2 0.81241 0.130168 4.04345
31 2 3.39189 1.78112 3.84906
32 2 1.25264 1.48967 1.7283
33 2 5.90296 3.20915 3.99766
34 2 3.63286 3.34371 1.47351
35 2 1.49899 2.29424 6.29826
ITEM: TIMESTEP
16900
ITEM: NUMBER OF ATOMS
35
ITEM: BOX BOUNDS xy xz yz pp pp pp
0.0000000000000000e+00 7.6685730000000003e+00 2.5561910000000001e+00
0.0000000000000000e+00 4.4274529999999999e+00 0.0000000000000000e+00
0.0000000000000000e+00 3.4699264999999997e+01 0.0000000000000000e+00
ITEM: ATOMS id type x y z
1 1 4.7201 0.78292 33.8692
2 1 3.6485 2.83195 33.1244
3 1 5.99861 3.08986 33.5873
4 1 4.09084 2.67626 30.9106
5 1 6.27169 4.38673 1.3943
6 1 1.7415 2.14666 31.7898
7 1 0.4986 0.278634 30.7236
8 1 2.01418 0.786298 34.3607
9 1 6.50016 3.61143 27.1012
10 1 5.52051 4.35109 31.6837
11 1 3.69588 1.47892 26.8143
12 1 3.30115 1.0125 29.3899
13 1 6.55998 3.25097 29.292
14 1 5.47352 1.35119 28.4733
15 1 4.00432 3.65551 28.7125
16 2 4.76598 3.0007 14.3227
17 2 0.735786 0.0353294 16.6055
18 2 5.87294 2.65689 16.627
19 2 3.2351 1.50503 16.6349
20 2 3.53741 0.774077 11.5984
21 2 7.19911 4.4373 14.0917
22 2 2.09557 1.31918 13.6614
23 2 3.47969 3.79884 11.6416
24 2 6.96087 3.95277 8.70746
25 2 3.8731 0.832271 6.31451
26 2 4.29878 2.38318 9.37553
27 2 6.46694 2.47799 11.0743
28 2 1.95114 0.876419 8.85454
29 2 4.324 3.85266 6.56088
30 2 2.94531 4.37882 4.0849
31 2 3.32381 1.61338 3.36689
32 2 0.921582 1.61686 1.77164
33 2 5.65772 3.05627 3.8011
34 2 3.55557 3.18403 1.17957
35 2 1.57483 2.06456 6.34229
ITEM: TIMESTEP
17000
ITEM: NUMBER OF ATOMS
35
ITEM: BOX BOUNDS xy xz yz pp pp pp
0.0000000000000000e+00 7.6685730000000003e+00 2.5561910000000001e+00
0.0000000000000000e+00 4.4274529999999999e+00 0.0000000000000000e+00
0.0000000000000000e+00 3.4699264999999997e+01 0.0000000000000000e+00
ITEM: ATOMS id type x y z
1 1 5.00967 0.777341 33.6958
2 1 3.40185 3.0138 32.8026
3 1 5.60141 2.98701 34.0661
4 1 4.27948 2.17684 30.7936
5 1 6.20085 4.09091 1.37304
6 1 1.59871 2.21573 31.6424
7 1 0.259934 0.159895 31.3306
8 1 2.71071 0.98465 33.9747
9 1 6.48171 3.92365 27.165
10 1 3.07915 0.054845 31.303
11 1 4.64465 2.04639 26.7804
12 1 3.19144 1.06836 28.7435
13 1 2.46542 3.24356 29.5059
14 1 5.97743 1.69488 28.8764
15 1 4.32838 3.97845 28.0867
16 2 4.72618 2.84195 14.1525
17 2 3.22582 4.36577 16.5291
18 2 6.03579 2.81064 16.6328
19 2 3.32397 1.42356 16.3235
20 2 3.73764 0.611671 11.676
21 2 4.63623 0.0145803 14.2008
22 2 1.90467 1.46815 14.0638
23 2 3.74682 4.21401 11.5763
24 2 7.24152 3.75262 8.71582
25 2 4.35545 1.17065 6.27823
26 2 4.23471 2.21976 9.57754
27 2 6.32617 2.3757 11.368
28 2 1.93524 0.748165 8.94235
29 2 4.12884 3.66271 6.63555
30 2 2.82038 4.41659 4.06499
31 2 2.69684 1.38394 3.53606
32 2 5.59651 1.48015 1.33793
33 2 5.08065 3.16252 4.02706
34 2 3.55568 2.92062 0.988727
35 2 1.57425 2.36794 6.37144
ITEM: TIMESTEP
17100
ITEM: NUMBER OF ATOMS
35
ITEM: BOX BOUNDS xy xz yz pp pp pp
0.0000000000000000e+00 7.6685730000000003e+00 2.5561910000000001e+00
0.0000000000000000e+00 4.4274529999999999e+00 0.0000000000000000e+00
0.0000000000000000e+00 3.4699264999999997e+01 0.0000000000000000e+00
ITEM: ATOMS id type x y z
1 1 5.21151 0.489676 33.7761
2 1 3.87689 2.55455 33.0213
3 1 6.39776 3.1905 33.9837
4 1 4.12494 2.50653 30.7754
5 1 5.55865 4.02064 1.99919
6 1 1.72681 2.79755 31.4815
7 1 0.357689 0.609501 31.0068
8 1 2.33444 1.04364 33.8804
9 1 7.0749 3.53656 27.1784
10 1 2.86751 0.267024 30.6787
11 1 5.59336 1.70775 26.8218
12 1 3.69246 1.14784 28.5551
13 1 2.48817 3.60542 29.535
14 1 6.31193 1.82392 28.9499
15 1 4.3823 4.23076 27.7106
16 2 4.38131 3.01232 13.6915
17 2 3.61763 4.17004 16.4023
18 2 5.92274 3.07509 16.4672
19 2 3.79692 1.30038 16.159
20 2 3.82848 1.10636 11.8074
21 2 7.07142 4.08937 14.073
22 2 1.76256 1.53242 14.3307
23 2 3.66896 3.85813 11.4377
24 2 6.81806 3.64529 8.97638
25 2 4.28713 0.75728 6.64866
26 2 4.69519 2.05691 9.06283
27 2 6.44461 2.51673 11.8978
28 2 1.99498 0.827368 9.02648
29 2 4.26363 4.02955 6.66541
30 2 -0.130954 0.0271781 3.78448
31 2 2.1649 1.76838 3.68648
32 2 5.59407 1.06873 1.55442
33 2 4.79555 2.6156 4.1176
34 2 3.17133 2.90677 1.42665
35 2 1.76257 2.65606 6.05839
ITEM: TIMESTEP
17200
ITEM: NUMBER OF ATOMS
35
ITEM: BOX BOUNDS xy xz yz pp pp pp
0.0000000000000000e+00 7.6685730000000003e+00 2.5561910000000001e+00
0.0000000000000000e+00 4.4274529999999999e+00 0.0000000000000000e+00
0.0000000000000000e+00 3.4699264999999997e+01 0.0000000000000000e+00
ITEM: ATOMS id type x y z
1 1 5.10711 0.463473 33.5391
2 1 4.12539 2.79639 34.028
3 1 6.23479 2.93296 34.6401
4 1 4.08067 3.48242 30.7437
5 1 5.20902 4.00569 1.88903
6 1 1.781 3.07312 32.1636
7 1 5.53268 1.19848 31.498
8 1 2.77268 0.390488 34.4604
9 1 2.45811 3.18159 26.6509
10 1 3.26407 0.641283 30.4878
11 1 5.96775 1.15074 26.9324
12 1 3.67505 1.68389 27.8257
13 1 2.73642 4.38158 28.8534
14 1 1.42249 1.77673 29.3043
15 1 5.06302 3.52803 27.542
16 2 4.33141 2.91085 13.8381
17 2 3.67578 4.13803 16.4181
18 2 6.46009 2.96028 16.2379
19 2 4.06683 1.44557 16.2512
20 2 3.55024 1.17293 11.6227
21 2 6.8468 4.35418 13.8525
22 2 1.61846 1.0599 14.1995
23 2 3.77942 4.01741 10.8317
24 2 6.91531 3.82937 9.33009
25 2 4.13322 0.997223 6.60692
26 2 4.74587 2.1372 8.83941
27 2 6.32345 2.49628 11.6856
28 2 2.19236 1.07108 9.05335
29 2 4.2862 4.171 6.47677
30 2 7.07167 4.2101 4.05355
31 2 2.02757 1.17443 3.84095
32 2 5.45372 1.30144 1.43782
33 2 4.31307 2.73392 4.27838
34 2 3.04616 2.4677 1.51915
35 2 1.84886 2.39291 6.47746
ITEM: TIMESTEP
17300
ITEM: NUMBER OF ATOMS
35
ITEM: BOX BOUNDS xy xz yz pp pp pp
0.0000000000000000e+00 7.6685730000000003e+00 2.5561910000000001e+00
0.0000000000000000e+00 4.4274529999999999e+00 0.0000000000000000e+00
0.0000000000000000e+00 3.4699264999999997e+01 0.0000000000000000e+00
ITEM: ATOMS id type x y z
1 1 5.25941 0.892834 33.958
2 1 4.05237 3.00835 33.5811
3 1 6.38068 2.76609 34.4744
4 1 4.16781 3.69433 30.6424
5 1 5.58136 3.6146 1.87017
6 1 1.99448 3.44 31.8556
7 1 5.70878 1.65036 31.4579
8 1 2.68645 0.688061 34.152
9 1 2.37027 3.41214 26.35
10 1 3.62922 0.794247 30.4615
11 1 1.67646 0.779992 26.9901
12 1 3.49495 1.52289 28.2989
13 1 2.75073 4.40726 28.6868
14 1 1.78431 2.50142 29.7019
15 1 5.53758 3.53678 27.8698
16 2 4.16015 2.59127 13.8735
17 2 4.07636 4.42734 16.522
18 2 1.74319 2.73746 15.9384
19 2 3.97268 1.24776 16.2377
20 2 3.58043 1.07392 11.2013
21 2 6.8331 4.29164 13.6869
22 2 1.75825 1.256 13.7327
23 2 3.82595 4.07647 11.3902
24 2 7.1527 4.14005 8.9784
25 2 4.36877 1.10762 6.24152
26 2 4.69358 2.69368 9.01414
27 2 5.92532 2.41668 11.4443
28 2 2.29986 1.27251 8.81584
29 2 4.04699 3.92974 6.73362
30 2 6.65133 3.88078 4.13783
31 2 1.49935 0.873164 4.18694
32 2 5.20288 0.724711 1.81946
33 2 4.2992 2.54203 4.11943
34 2 2.92756 2.3137 2.11379
35 2 1.58827 2.73501 6.73638
ITEM: TIMESTEP
17400
ITEM: NUMBER OF ATOMS
35
ITEM: BOX BOUNDS xy xz yz pp pp pp
0.0000000000000000e+00 7.6685730000000003e+00 2.5561910000000001e+00
0.0000000000000000e+00 4.4274529999999999e+00 0.0000000000000000e+00
0.0000000000000000e+00 3.4699264999999997e+01 0.0000000000000000e+00
ITEM: ATOMS id type x y z
1 1 5.18216 0.788794 34.1962
2 1 4.07691 2.9588 33.1597
3 1 6.89686 3.04561 34.3623
4 1 4.54844 3.24512 30.5107
5 1 4.82658 3.41082 1.78488
6 1 2.3048 3.77479 31.9761
7 1 5.86358 1.7683 31.7825
8 1 2.54727 1.06156 34.0463
9 1 2.40606 3.59181 27.1412
10 1 3.36075 0.969106 30.9673
11 1 1.90198 1.2851 26.8755
12 1 3.82483 1.85197 28.1866
13 1 3.25057 4.76751 29.0672
14 1 1.84691 2.50312 29.7109
15 1 5.53513 3.41207 28.3508
16 2 4.28521 2.74995 14.0219
17 2 4.37939 4.33758 15.9306
18 2 1.59073 2.77508 15.9981
19 2 4.40152 1.08118 16.0617
20 2 3.56356 1.03415 11.1097
21 2 6.77806 4.11925 13.6063
22 2 1.74521 1.22429 13.7166
23 2 3.46057 3.90703 11.6656
24 2 7.45772 4.47177 8.90863
25 2 4.16198 1.17693 6.72101
26 2 4.83235 3.09162 9.17717
27 2 6.17351 2.39985 11.2615
28 2 2.0185 1.3687 8.7062
29 2 4.05618 3.96138 6.57275
30 2 6.55565 3.88686 4.06458
31 2 1.43162 0.877572 4.43988
32 2 5.37662 0.239959 1.87268
33 2 4.11503 2.39531 4.14663
34 2 2.3599 1.89717 1.91416
35 2 1.4068 2.73006 6.40802
ITEM: TIMESTEP
17500
ITEM: NUMBER OF ATOMS
35
ITEM: BOX BOUNDS xy xz yz pp pp pp
0.0000000000000000e+00 7.6685730000000003e+00 2.5561910000000001e+00
0.0000000000000000e+00 4.4274529999999999e+00 0.0000000000000000e+00
0.0000000000000000e+00 3.4699264999999997e+01 0.0000000000000000e+00
ITEM: ATOMS id type x y z
1 1 5.36731 1.44082 34.2784
2 1 4.11107 3.18365 32.9643
3 1 6.93223 3.44626 34.3247
4 1 4.70997 2.98114 30.5813
5 1 5.15986 2.73975 1.61388
6 1 2.34183 3.86145 31.7486
7 1 1.15535 1.33399 32.3103
8 1 2.82692 0.503097 33.7423
9 1 2.98801 4.0815 27.9529
10 1 3.30435 1.05078 31.429
11 1 1.40257 1.6955 27.6193
12 1 4.32201 1.59441 28.5927
13 1 0.776799 0.814747 30.1792
14 1 2.31577 2.77547 29.5699
15 1 5.07317 4.20191 28.4611
16 2 4.35567 2.41728 13.4361
17 2 4.41503 4.0839 15.9876
18 2 1.85558 2.72758 16.2472
19 2 4.66327 1.1604 15.9805
20 2 3.47244 0.883343 11.3336
21 2 6.58858 4.17792 13.7358
22 2 1.88416 1.46873 13.6841
23 2 3.62272 3.73536 11.3353
24 2 4.86915 0.0658987 9.19829
25 2 3.753 1.10586 6.80787
26 2 4.85089 3.27147 8.93594
27 2 6.25258 2.35476 11.3085
28 2 2.17947 1.85719 8.92186
29 2 3.83107 3.94103 6.52422
30 2 6.40897 4.09869 4.00968
31 2 1.51145 1.00514 4.00775
32 2 4.88228 0.061561 1.74943
33 2 3.69759 2.46933 4.05785
34 2 2.39737 1.22651 1.54895
35 2 6.48352 2.59019 6.35203
ITEM: TIMESTEP
17600
ITEM: NUMBER OF ATOMS
35
ITEM: BOX BOUNDS xy xz yz pp pp pp
0.0000000000000000e+00 7.6685730000000003e+00 2.5561910000000001e+00
0.0000000000000000e+00 4.4274529999999999e+00 0.0000000000000000e+00
0.0000000000000000e+00 3.4699264999999997e+01 0.0000000000000000e+00
ITEM: ATOMS id type x y z
1 1 5.23493 1.53179 0.228096
2 1 4.57034 3.13048 33.13
3 1 2.375 2.85652 34.2967
4 1 5.03083 3.22185 30.8082
5 1 5.09109 2.99893 1.90288
6 1 6.96748 3.77535 32.255
7 1 0.943703 1.45543 32.5463
8 1 3.45399 0.676118 33.3342
9 1 2.98585 4.24345 27.8016
10 1 3.5699 1.30926 31.1077
11 1 6.26479 2.65188 27.8505
12 1 4.17444 2.10371 28.8686
13 1 1.04588 0.5851 30.0716
14 1 2.39542 3.06696 29.9815
15 1 3.08685 0.138539 29.0019
16 2 4.34414 2.58382 13.6105
17 2 4.55206 3.99968 16.0044
18 2 2.32993 2.53512 16.1837
19 2 4.50678 1.30038 16.0005
20 2 3.5746 0.641507 11.3863
21 2 7.00623 3.94102 13.9401
22 2 1.80633 1.06653 13.9555
23 2 3.64625 4.08718 11.2037
24 2 4.82971 0.474351 8.79478
25 2 3.56752 0.950373 6.3681
26 2 4.9855 3.25091 8.6599
27 2 5.96226 2.33236 11.2363
28 2 2.56999 1.82049 9.07491
29 2 3.44428 4.09851 6.42584
30 2 6.06682 4.02679 4.26693
31 2 0.903089 1.14237 3.56865
32 2 7.41862 3.89896 1.92416
33 2 3.66982 2.67791 3.91772
34 2 2.66654 1.063 1.28627
35 2 6.03185 2.37149 6.47047
ITEM: TIMESTEP
17700
ITEM: NUMBER OF ATOMS
35
ITEM: BOX BOUNDS xy xz yz pp pp pp
0.0000000000000000e+00 7.6685730000000003e+00 2.5561910000000001e+00
0.0000000000000000e+00 4.4274529999999999e+00 0.0000000000000000e+00
0.0000000000000000e+00 3.4699264999999997e+01 0.0000000000000000e+00
ITEM: ATOMS id type x y z
1 1 5.6072 0.884911 0.439198
2 1 4.70373 3.62685 34.3364
3 1 1.8062 3.3292 34.1411
4 1 4.97682 3.54049 31.0719
5 1 4.90786 2.76794 1.71875
6 1 3.11574 2.94631 32.003
7 1 1.48015 1.03423 32.6092
8 1 3.59004 1.33991 33.8615
9 1 0.563088 0.465658 27.895
10 1 3.60938 0.97132 31.0858
11 1 1.94962 2.38049 27.5537
12 1 4.18591 2.81203 28.3297
13 1 0.818076 1.35761 30.2058
14 1 1.97313 3.26901 29.7277
15 1 3.15331 0.704588 28.5458
16 2 4.61637 2.56542 13.9033
17 2 4.99118 4.06967 16.391
18 2 1.99742 2.48688 16.2461
19 2 4.85689 0.901115 16.1394
20 2 3.52384 0.872423 11.5752
21 2 7.12482 3.80469 13.7667
22 2 1.80765 0.935149 13.6371
23 2 3.38895 3.89441 10.9718
24 2 5.09806 0.424104 8.55855
25 2 3.19285 1.18823 6.41033
26 2 5.01352 3.54316 8.85301
27 2 6.02095 2.45665 11.13
28 2 2.48434 1.90608 8.78274
29 2 3.2784 3.89176 6.15901
30 2 5.62814 4.12994 3.84134
31 2 5.7485 1.32659 3.59611
32 2 2.45299 3.45939 1.9907
33 2 3.21877 2.36254 4.22325
34 2 2.81908 0.97504 1.55885
35 2 5.90645 2.32761 6.42501
ITEM: TIMESTEP
17800
ITEM: NUMBER OF ATOMS
35
ITEM: BOX BOUNDS xy xz yz pp pp pp
0.0000000000000000e+00 7.6685730000000003e+00 2.5561910000000001e+00
0.0000000000000000e+00 4.4274529999999999e+00 0.0000000000000000e+00
0.0000000000000000e+00 3.4699264999999997e+01 0.0000000000000000e+00
ITEM: ATOMS id type x y z
1 1 0.84754 1.24969 0.0659302
2 1 4.63513 3.50502 34.6613
3 1 6.59005 3.75175 33.4481
4 1 4.94646 3.32202 31.1617
5 1 5.25983 2.38409 2.01899
6 1 2.65344 2.96177 31.7016
7 1 1.47901 0.998786 32.6605
8 1 3.73122 1.50014 33.7235
9 1 5.43005 1.14194 27.8714
10 1 4.03267 0.971111 30.9915
11 1 2.49915 2.93407 27.123
12 1 4.88024 3.05191 28.8792
13 1 6.60085 1.49986 30.2041
14 1 2.65057 3.46684 29.4952
15 1 2.96088 0.823856 28.6747
16 2 4.61305 2.34898 14.014
17 2 4.96265 3.97682 16.4575
18 2 2.25331 2.31264 16.0102
19 2 5.09923 0.618471 16.192
20 2 3.49695 1.16717 11.2885
21 2 7.07238 3.83848 13.536
22 2 1.94119 1.00079 13.6402
23 2 3.51362 3.72667 11.2559
24 2 4.99171 0.521335 8.78612
25 2 3.16914 0.693627 6.64355
26 2 5.05745 3.68812 8.81297
27 2 6.03372 2.48487 11.2334
28 2 2.21273 2.20895 8.9172
29 2 3.18047 4.04314 6.2373
30 2 5.20991 3.79092 4.00605
31 2 5.52812 0.827566 4.09917
32 2 2.36916 3.63708 1.69106
33 2 2.92689 2.27085 3.93988
34 2 2.96964 0.924717 1.52934
35 2 5.67865 2.69081 6.1654
ITEM: TIMESTEP
17900
ITEM: NUMBER OF ATOMS
35
ITEM: BOX BOUNDS xy xz yz pp pp pp
0.0000000000000000e+00 7.6685730000000003e+00 2.5561910000000001e+00
0.0000000000000000e+00 4.4274529999999999e+00 0.0000000000000000e+00
0.0000000000000000e+00 3.4699264999999997e+01 0.0000000000000000e+00
ITEM: ATOMS id type x y z
1 1 5.81835 1.61014 34.3455
2 1 4.46738 3.55432 34.2205
3 1 6.8418 3.88923 33.8534
4 1 5.39625 3.06918 31.8916
5 1 5.21777 1.98214 1.92244
6 1 2.61328 3.07929 31.3467
7 1 1.07834 0.494509 32.4317
8 1 2.92607 1.87729 33.3851
9 1 1.0882 1.17137 27.5206
10 1 4.17791 1.15944 31.1125
11 1 2.67512 3.34402 27.0208
12 1 5.62642 3.14928 29.2728
13 1 1.8712 1.18568 29.8634
14 1 2.88664 4.16601 29.4081
15 1 3.83173 1.39864 28.0344
16 2 4.35047 2.37116 13.88
17 2 5.15455 3.60045 16.0206
18 2 2.70613 2.17318 15.9393
19 2 5.02143 0.626299 15.9953
20 2 3.52557 0.923417 11.0686
21 2 7.00203 4.0359 13.6581
22 2 2.07688 0.582712 13.8248
23 2 3.71807 4.33442 11.4988
24 2 4.99926 0.95201 8.97812
25 2 3.08747 1.21069 6.35638
26 2 4.67295 3.54646 8.9612
27 2 5.93417 2.52824 11.5629
28 2 2.27426 2.32124 8.90969
29 2 2.97027 3.69848 6.912
30 2 5.17756 3.91647 4.10954
31 2 4.97472 0.438928 3.96521
32 2 2.71681 3.84542 1.33156
33 2 2.58583 2.19524 4.03394
34 2 2.82857 0.983698 1.56302
35 2 5.64899 1.93705 6.50149
ITEM: TIMESTEP
18000
ITEM: NUMBER OF ATOMS
35
ITEM: BOX BOUNDS xy xz yz pp pp pp
0.0000000000000000e+00 7.6685730000000003e+00 2.5561910000000001e+00
0.0000000000000000e+00 4.4274529999999999e+00 0.0000000000000000e+00
0.0000000000000000e+00 3.4699264999999997e+01 0.0000000000000000e+00
ITEM: ATOMS id type x y z
1 1 5.76013 1.93378 34.7071
2 1 4.2353 3.99033 34.3632
3 1 6.79328 4.131 33.542
4 1 5.43834 2.87103 31.9015
5 1 5.37072 2.92638 2.12909
6 1 2.62023 2.86885 31.2636
7 1 1.46978 0.437298 31.2465
8 1 2.84701 1.97308 33.7675
9 1 2.33682 1.22334 27.0544
10 1 4.27541 0.774471 30.8907
11 1 2.54211 3.82869 27.0857
12 1 5.68481 3.25018 29.3917
13 1 2.50965 1.23272 29.2904
14 1 3.20733 4.32383 29.129
15 1 4.70854 1.92661 27.9351
16 2 4.20379 2.18962 13.3587
17 2 5.50314 3.2885 16.0065
18 2 2.74457 2.10836 16.2579
19 2 5.21328 0.704408 16.0262
20 2 3.45591 1.10833 11.3959
21 2 7.14287 3.71442 13.7952
22 2 1.85478 0.86782 13.9921
23 2 3.23435 4.21557 11.2171
24 2 4.84485 0.902711 8.92194
25 2 3.06425 0.501269 6.57657
26 2 4.90355 3.8673 8.94149
27 2 6.20454 2.77 11.5606
28 2 2.20757 2.19387 9.49013
29 2 2.87203 3.56726 6.5827
30 2 4.59504 3.62484 4.20147
31 2 4.8873 0.837861 3.8918
32 2 2.79113 3.73366 1.73112
33 2 2.17919 2.26498 3.88139
34 2 2.69386 0.78124 1.55047
35 2 5.67703 2.08007 6.36975
ITEM: TIMESTEP
18100
ITEM: NUMBER OF ATOMS
35
ITEM: BOX BOUNDS xy xz yz pp pp pp
0.0000000000000000e+00 7.6685730000000003e+00 2.5561910000000001e+00
0.0000000000000000e+00 4.4274529999999999e+00 0.0000000000000000e+00
0.0000000000000000e+00 3.4699264999999997e+01 0.0000000000000000e+00
ITEM: ATOMS id type x y z
1 1 5.35032 2.34336 0.00503822
2 1 3.93839 4.67583 33.6385
3 1 6.44679 4.22514 33.2305
4 1 5.08436 2.36402 32.2468
5 1 5.2712 2.72979 2.3775
6 1 2.9298 2.77888 31.3762
7 1 2.02617 0.571711 31.325
8 1 3.25023 1.87784 33.8393
9 1 2.87525 0.620721 26.5486
10 1 4.91464 0.510145 30.8601
11 1 7.39545 4.41389 27.2152
12 1 6.27262 3.02714 29.7376
13 1 3.24565 1.97571 28.3923
14 1 3.89948 4.19178 28.9543
15 1 5.32733 2.5027 27.2005
16 2 4.51344 2.27871 14.0651
17 2 5.36208 3.51689 16.0217
18 2 3.08263 1.96076 16.4868
19 2 5.47179 0.435389 16.4207
20 2 3.1733 1.14177 11.472
21 2 2.02198 3.66041 14.0046
22 2 1.71186 0.889177 13.9329
23 2 3.3722 4.19735 11.2241
24 2 4.7293 0.918154 8.86799
25 2 3.01472 0.329598 6.44919
26 2 5.02161 3.65514 9.14955
27 2 5.68234 2.67644 11.4651
28 2 2.21756 2.28589 8.50181
29 2 2.92238 3.27012 6.54614
30 2 4.15906 4.02146 4.24763
31 2 4.26395 1.04368 3.92863
32 2 2.9274 3.6182 1.67695
33 2 1.94648 2.13765 4.08413
34 2 2.76522 1.05496 1.62635
35 2 5.63693 1.83802 6.29786
ITEM: TIMESTEP
18200
ITEM: NUMBER OF ATOMS
35
ITEM: BOX BOUNDS xy xz yz pp pp pp
0.0000000000000000e+00 7.6685730000000003e+00 2.5561910000000001e+00
0.0000000000000000e+00 4.4274529999999999e+00 0.0000000000000000e+00
0.0000000000000000e+00 3.4699264999999997e+01 0.0000000000000000e+00
ITEM: ATOMS id type x y z
1 1 5.50336 2.62817 34.8094
2 1 1.11267 0.274148 33.898
3 1 6.58277 4.35252 33.3736
4 1 5.65353 2.05876 31.8861
5 1 5.34083 2.25656 2.45965
6 1 3.2285 2.87206 31.3301
7 1 2.71681 0.187321 31.2803
8 1 2.77374 2.42864 33.9173
9 1 1.81997 0.407714 26.4982
10 1 4.82584 0.879683 29.8563
11 1 7.89344 4.25256 28.0252
12 1 6.46392 2.6826 29.3838
13 1 3.96464 2.14315 27.999
14 1 2.53414 0.416972 29.0189
15 1 6.19232 2.7928 27.1304
16 2 4.46229 2.1685 14.2113
17 2 5.60948 3.72634 16.5349
18 2 3.11874 1.91302 16.4146
19 2 0.472389 0.238461 16.6029
20 2 3.0561 1.44698 11.5348
21 2 6.99594 3.91657 13.8657
22 2 1.9902 0.533034 13.8752
23 2 3.13715 4.1552 11.4859
24 2 4.77235 0.66636 8.93404
25 2 2.99949 0.32704 6.44166
26 2 4.50792 3.51733 8.99693
27 2 5.53135 2.42139 11.7281
28 2 1.99164 1.95166 8.94535
29 2 3.47578 3.37288 6.20015
30 2 3.97867 4.22082 3.69965
31 2 4.02822 0.742971 3.88623
32 2 2.81339 4.12494 1.34901
33 2 1.66258 2.84825 4.33133
34 2 2.80013 0.857188 1.3554
35 2 5.36639 1.5421 6.34992
ITEM: TIMESTEP
18300
ITEM: NUMBER OF ATOMS
35
ITEM: BOX BOUNDS xy xz yz pp pp pp
0.0000000000000000e+00 7.6685730000000003e+00 2.5561910000000001e+00
0.0000000000000000e+00 4.4274529999999999e+00 0.0000000000000000e+00
0.0000000000000000e+00 3.4699264999999997e+01 0.0000000000000000e+00
ITEM: ATOMS id type x y z
1 1 5.12795 2.6837 -0.488444
2 1 1.64421 0.244187 33.3121
3 1 4.29518 0.754549 33.4912
4 1 6.44111 1.67902 31.88
5 1 5.79693 2.55253 1.70342
6 1 3.3828 3.46209 30.9042
7 1 3.0857 -0.378247 31.2616
8 1 2.7246 2.80166 33.6015
9 1 1.63607 0.481953 26.6328
10 1 4.31303 1.49543 30.1739
11 1 2.81639 4.21556 28.8196
12 1 6.69962 2.31431 29.4123
13 1 4.71102 2.49711 27.7647
14 1 2.75114 0.225312 28.6192
15 1 7.19048 2.92724 26.8183
16 2 4.40928 2.22297 14.1101
17 2 5.86574 3.21206 16.6804
18 2 2.90706 1.98444 16.3352
19 2 0.594636 0.519711 16.2621
20 2 3.20688 1.14464 11.5807
21 2 7.04659 3.60969 14.1104
22 2 1.93997 0.572588 14.1209
23 2 2.93595 4.1742 11.5453
24 2 4.18462 0.112966 9.1562
25 2 3.10527 0.337792 6.69316
26 2 4.27847 3.45201 8.88184
27 2 5.75638 2.69893 11.7547
28 2 1.80194 1.92949 9.31181
29 2 3.19072 3.04529 6.22488
30 2 4.06024 4.17429 3.51572
31 2 3.91605 1.44737 3.9965
32 2 2.39764 4.09485 1.20022
33 2 6.5091 2.84424 4.25846
34 2 2.6786 0.943753 1.25044
35 2 5.80568 1.55512 6.54816
ITEM: TIMESTEP
18400
ITEM: NUMBER OF ATOMS
35
ITEM: BOX BOUNDS xy xz yz pp pp pp
0.0000000000000000e+00 7.6685730000000003e+00 2.5561910000000001e+00
0.0000000000000000e+00 4.4274529999999999e+00 0.0000000000000000e+00
0.0000000000000000e+00 3.4699264999999997e+01 0.0000000000000000e+00
ITEM: ATOMS id type x y z
1 1 5.53043 2.52207 34.152
2 1 1.96425 0.619341 33.542
3 1 4.16829 0.797882 33.0493
4 1 1.90264 1.71025 31.1293
5 1 4.53036 2.35866 1.61856
6 1 3.07998 4.38555 31.4681
7 1 5.78445 3.98173 31.008
8 1 2.64672 2.6929 33.4332
9 1 1.63652 0.764273 26.9164
10 1 4.09366 2.07495 30.6473
11 1 0.465203 -0.0264816 28.963
12 1 1.82422 2.17883 28.8959
13 1 4.74758 2.00033 27.8138
14 1 3.29298 -0.0443441 28.6917
15 1 2.83617 2.98971 27.1089
16 2 4.55588 2.18182 13.9059
17 2 5.35461 3.26539 16.4534
18 2 3.30528 1.63917 16.4273
19 2 0.494298 0.446757 16.2718
20 2 3.34122 1.12328 11.8302
21 2 6.99694 3.33228 14.3503
22 2 1.93386 0.729578 13.8854
23 2 3.45497 4.22118 11.6196
24 2 4.00694 0.243615 9.1882
25 2 3.30525 0.146063 6.446
26 2 4.05293 2.96326 9.05101
27 2 5.67275 2.7954 11.4754
28 2 1.57831 1.69224 9.26232
29 2 2.85293 3.05673 6.68065
30 2 1.49801 0.184192 3.76928
31 2 3.83472 1.66066 3.922
32 2 2.7643 4.09095 1.29544
33 2 6.42905 2.9197 3.61867
34 2 2.43767 1.32928 1.25653
35 2 5.73473 1.25892 6.88681
ITEM: TIMESTEP
18500
ITEM: NUMBER OF ATOMS
35
ITEM: BOX BOUNDS xy xz yz pp pp pp
0.0000000000000000e+00 7.6685730000000003e+00 2.5561910000000001e+00
0.0000000000000000e+00 4.4274529999999999e+00 0.0000000000000000e+00
0.0000000000000000e+00 3.4699264999999997e+01 0.0000000000000000e+00
ITEM: ATOMS id type x y z
1 1 5.82544 3.04438 34.3825
2 1 1.48096 0.9248 33.6228
3 1 3.93853 0.735079 33.3905
4 1 1.88403 2.00928 31.5935
5 1 4.95303 2.65798 1.93054
6 1 2.91832 4.14906 31.6278
7 1 5.79261 4.29204 31.1447
8 1 3.19613 2.8086 33.8737
9 1 1.79676 0.95458 26.9644
10 1 4.62254 1.95668 30.6525
11 1 3.88371 4.35266 29.4138
12 1 2.32871 2.37211 29.018
13 1 4.75202 1.59985 28.454
14 1 5.92342 4.06146 28.3337
15 1 3.08527 3.58652 26.4349
16 2 4.56857 2.04227 14.0566
17 2 5.33355 3.25298 16.2414
18 2 3.01352 1.50659 16.3655
19 2 0.474994 0.18932 16.4295
20 2 3.44193 1.52651 11.504
21 2 7.16979 3.61711 14.0178
22 2 1.95063 0.457189 14.003
23 2 3.29589 4.20681 11.5023
24 2 4.25012 0.0932247 9.12157
25 2 5.25539 4.16787 6.25393
26 2 4.1159 2.99984 9.12319
27 2 5.99843 2.69965 11.548
28 2 1.71327 1.22683 9.25555
29 2 2.87908 2.64055 6.57164
30 2 1.10637 0.468442 4.26088
31 2 3.8707 1.62798 4.01762
32 2 2.55758 4.36212 1.39423
33 2 6.61266 3.34331 3.39856
34 2 2.27788 1.23159 1.36406
35 2 5.30333 1.47021 6.32404
ITEM: TIMESTEP
18600
ITEM: NUMBER OF ATOMS
35
ITEM: BOX BOUNDS xy xz yz pp pp pp
0.0000000000000000e+00 7.6685730000000003e+00 2.5561910000000001e+00
0.0000000000000000e+00 4.4274529999999999e+00 0.0000000000000000e+00
0.0000000000000000e+00 3.4699264999999997e+01 0.0000000000000000e+00
ITEM: ATOMS id type x y z
1 1 5.44646 3.13364 34.5188
2 1 1.50655 0.747855 34.2454
3 1 4.1459 1.18546 33.2165
4 1 1.77178 2.55604 31.677
5 1 4.32781 3.05395 1.98836
6 1 3.78473 3.79516 31.9585
7 1 3.05888 0.0914338 31.0979
8 1 3.21203 3.00449 34.5292
9 1 2.11046 1.69826 27.3003
10 1 4.8326 1.62273 31.1604
11 1 1.56878 0.118563 29.17
12 1 3.05566 2.28335 29.629
13 1 4.96222 1.64617 28.2185
14 1 6.23878 3.64068 28.013
15 1 3.23424 3.79821 27.0711
16 2 4.46598 1.94202 13.9081
17 2 5.72239 2.7737 16.2112
18 2 2.79343 1.73933 16.1518
19 2 0.189208 0.0368565 16.4317
20 2 3.39275 1.37353 11.3994
21 2 2.1481 3.63469 13.8739
22 2 2.15479 0.482107 13.9008
23 2 0.743645 0.0884812 11.438
24 2 7.04644 3.97783 8.62631
25 2 4.80231 4.09208 6.46371
26 2 4.60089 2.76397 8.94652
27 2 5.97828 2.83295 11.6874
28 2 1.82327 1.33106 8.64991
29 2 2.27229 2.41279 6.34164
30 2 1.34489 0.392439 3.83931
31 2 3.61338 1.95487 4.00749
32 2 4.7953 0.368618 1.30552
33 2 6.47606 3.5253 4.19858
34 2 2.52234 1.1542 1.81423
35 2 5.04961 1.22005 6.51951
ITEM: TIMESTEP
18700
ITEM: NUMBER OF ATOMS
35
ITEM: BOX BOUNDS xy xz yz pp pp pp
0.0000000000000000e+00 7.6685730000000003e+00 2.5561910000000001e+00
0.0000000000000000e+00 4.4274529999999999e+00 0.0000000000000000e+00
0.0000000000000000e+00 3.4699264999999997e+01 0.0000000000000000e+00
ITEM: ATOMS id type x y z
1 1 5.5115 2.57015 34.2603
2 1 2.01091 0.56579 34.2265
3 1 4.16449 1.20576 32.9904
4 1 1.8444 2.65883 32.3812
5 1 4.95625 3.24042 1.63347
6 1 4.19823 3.67523 32.3566
7 1 3.61041 0.0466529 30.8278
8 1 3.04356 3.16351 34.455
9 1 2.66606 1.65592 27.7793
10 1 5.4365 1.99225 30.6204
11 1 1.49203 0.240701 29.7715
12 1 3.09599 2.64388 29.8479
13 1 5.04448 1.52357 28.1659
14 1 6.1941 3.93952 28.6302
15 1 3.96022 3.89319 27.4172
16 2 4.64341 2.17367 13.5747
17 2 5.26756 3.04665 16.1193
18 2 3.30148 1.27609 16.1171
19 2 0.411608 -0.0400798 16.2004
20 2 3.35511 1.30161 11.189
21 2 2.04289 3.33701 13.9203
22 2 1.97441 0.609853 13.7436
23 2 0.921763 0.0592524 11.1
24 2 7.23922 3.93326 8.93825
25 2 4.60177 3.97394 6.57548
26 2 4.69665 2.22069 8.91447
27 2 5.79499 2.96754 11.2375
28 2 2.24712 1.01321 8.87934
29 2 2.01342 2.54027 6.34227
30 2 0.885253 0.518539 4.13457
31 2 3.82246 2.00779 4.38582
32 2 4.77208 0.566232 1.60221
33 2 5.88857 3.63527 4.00696
34 2 2.1528 1.89424 1.79884
35 2 4.50779 0.837302 6.38381
ITEM: TIMESTEP
18800
ITEM: NUMBER OF ATOMS
35
ITEM: BOX BOUNDS xy xz yz pp pp pp
0.0000000000000000e+00 7.6685730000000003e+00 2.5561910000000001e+00
0.0000000000000000e+00 4.4274529999999999e+00 0.0000000000000000e+00
0.0000000000000000e+00 3.4699264999999997e+01 0.0000000000000000e+00
ITEM: ATOMS id type x y z
1 1 5.55036 2.39409 34.5244
2 1 2.73319 1.0185 34.5225
3 1 4.57572 0.482968 33.2376
4 1 2.19889 2.34128 32.477
5 1 4.43385 3.8516 1.56115
6 1 4.05246 4.35307 32.323
7 1 4.64157 0.205857 30.4554
8 1 3.04345 3.39846 34.4863
9 1 2.72917 1.61206 27.8172
10 1 5.46842 2.40027 30.377
11 1 1.93684 0.354611 29.875
12 1 2.80562 2.2613 30.4978
13 1 5.15661 1.45453 28.3611
14 1 6.75109 3.77354 28.3696
15 1 4.15571 3.55241 27.8288
16 2 4.58271 2.09167 13.6503
17 2 5.75606 2.7962 15.8783
18 2 3.05132 1.34389 15.9216
19 2 3.25767 4.41592 15.8818
20 2 3.4615 1.5836 11.3876
21 2 1.9897 3.55904 13.5867
22 2 1.84561 0.643065 13.5692
23 2 3.37283 4.26469 11.4982
24 2 7.34339 3.58652 8.8648
25 2 4.41559 3.71791 6.49277
26 2 4.70919 2.25101 8.75257
27 2 6.02007 2.92106 11.2033
28 2 2.21801 0.494894 8.97778
29 2 1.8158 2.30212 6.53184
30 2 0.664522 0.52427 4.24496
31 2 3.31437 2.2773 4.04007
32 2 4.55436 0.788528 1.63857
33 2 5.86141 3.86403 3.74031
34 2 2.07914 2.40585 2.09596
35 2 4.28464 0.741434 6.73292
ITEM: TIMESTEP
18900
ITEM: NUMBER OF ATOMS
35
ITEM: BOX BOUNDS xy xz yz pp pp pp
0.0000000000000000e+00 7.6685730000000003e+00 2.5561910000000001e+00
0.0000000000000000e+00 4.4274529999999999e+00 0.0000000000000000e+00
0.0000000000000000e+00 3.4699264999999997e+01 0.0000000000000000e+00
ITEM: ATOMS id type x y z
1 1 5.50192 3.07031 34.2127
2 1 2.24782 0.73794 0.1011
3 1 4.23676 0.758748 32.4997
4 1 2.144 2.59239 32.6667
5 1 4.234 4.1835 2.18158
6 1 4.36601 4.1558 32.5007
7 1 4.85484 0.180722 30.2902
8 1 3.38365 3.56041 34.6678
9 1 2.82697 1.06253 28.0168
10 1 6.2389 2.7015 30.7601
11 1 2.34143 0.40925 30.292
12 1 3.82609 2.3885 30.011
13 1 5.63655 1.18423 27.9508
14 1 6.5667 3.23142 27.8868
15 1 4.03403 3.46778 28.0499
16 2 4.51918 2.24167 13.6754
17 2 6.09198 2.7153 15.9551
18 2 3.4468 1.466 16.0386
19 2 3.17136 4.2541 15.8565
20 2 3.35085 1.29112 11.1167
21 2 6.98966 3.84016 13.5642
22 2 2.22589 0.700107 13.5879
23 2 3.33157 4.36205 11.1113
24 2 2.267 3.26818 8.77444
25 2 4.26866 3.49765 6.36451
26 2 4.81266 2.06727 9.09591
27 2 5.93424 2.69278 11.3781
28 2 1.92662 0.614815 8.91852
29 2 1.59864 1.89028 6.3548
30 2 0.577222 0.945144 4.14632
31 2 3.2805 2.27532 4.3234
32 2 4.41856 1.27641 1.72371
33 2 5.73326 4.01728 4.221
34 2 1.70232 2.5167 1.86734
35 2 4.17597 0.559743 6.59023
ITEM: TIMESTEP
19000
ITEM: NUMBER OF ATOMS
35
ITEM: BOX BOUNDS xy xz yz pp pp pp
0.0000000000000000e+00 7.6685730000000003e+00 2.5561910000000001e+00
0.0000000000000000e+00 4.4274529999999999e+00 0.0000000000000000e+00
0.0000000000000000e+00 3.4699264999999997e+01 0.0000000000000000e+00
ITEM: ATOMS id type x y z
1 1 5.54058 2.82979 34.1219
2 1 2.14712 1.20037 -0.0168701
3 1 4.59197 1.13262 32.1431
4 1 2.44511 2.58685 32.5686
5 1 4.18264 4.27186 2.23747
6 1 4.57818 3.70575 32.0255
7 1 5.50641 0.0292936 30.1341
8 1 2.77388 3.94194 35.0626
9 1 3.08177 0.922107 28.3125
10 1 6.42544 2.61312 30.3586
11 1 2.87598 0.604032 30.4283
12 1 4.17836 2.60738 29.8777
13 1 5.54993 1.13004 27.8578
14 1 6.77468 3.08629 28.2099
15 1 4.12007 3.07124 27.5858
16 2 4.55893 2.41157 13.4685
17 2 5.8332 3.04815 16.0017
18 2 3.85914 1.15341 16.3966
19 2 3.66939 4.24108 16.0551
20 2 3.20038 1.00149 11.2111
21 2 7.39418 3.69717 13.6452
22 2 1.94792 0.873106 13.7717
23 2 3.29724 4.1594 11.2048
24 2 1.95201 3.40574 8.89244
25 2 4.13039 3.13478 6.71673
26 2 4.63721 1.8463 8.84234
27 2 5.9639 2.77474 11.1208
28 2 2.19644 0.422453 8.5879
29 2 1.51663 1.73779 6.40557
30 2 0.334453 1.222 3.86859
31 2 2.99321 2.49714 4.04779
32 2 4.04699 1.52211 1.59043
33 2 5.8258 3.91684 4.43663
34 2 1.40463 3.04457 2.16844
35 2 4.24176 0.365503 6.64616
ITEM: TIMESTEP
19100
ITEM: NUMBER OF ATOMS
35
ITEM: BOX BOUNDS xy xz yz pp pp pp
0.0000000000000000e+00 7.6685730000000003e+00 2.5561910000000001e+00
0.0000000000000000e+00 4.4274529999999999e+00 0.0000000000000000e+00
0.0000000000000000e+00 3.4699264999999997e+01 0.0000000000000000e+00
ITEM: ATOMS id type x y z
1 1 4.76208 2.92276 34.591
2 1 2.5288 0.965756 34.132
3 1 5.82724 0.974938 32.3889
4 1 2.36756 2.78233 32.891
5 1 1.48716 0.549077 1.67998
6 1 5.05196 3.7474 32.4974
7 1 0.879664 0.204071 29.952
8 1 2.22169 4.40957 -0.238139
9 1 2.97524 0.815563 27.7744
10 1 6.52663 2.50413 30.0131
11 1 3.43483 0.493788 30.6006
12 1 4.24875 2.32224 29.2409
13 1 5.50594 0.980308 27.644
14 1 2.10859 3.40395 28.0356
15 1 4.61531 3.21032 26.9051
16 2 4.70032 2.09289 13.7498
17 2 6.3594 2.66447 15.944
18 2 3.75666 1.32263 16.0421
19 2 3.73954 4.37464 16.3732
20 2 3.27973 1.25385 11.5781
21 2 2.12131 3.83676 13.8006
22 2 2.04939 1.02063 14.0145
23 2 3.42494 4.03052 11.3262
24 2 7.18894 3.17781 8.79596
25 2 4.08408 2.84681 6.36288
26 2 4.45424 1.72111 9.0928
27 2 5.92076 2.41895 11.2197
28 2 2.01787 0.349667 8.99263
29 2 1.64383 1.75326 6.44486
30 2 5.12124 1.01634 4.04889
31 2 2.94485 2.73759 3.98362
32 2 3.7289 1.61138 1.6094
33 2 5.09619 4.34793 4.41491
34 2 6.15191 3.39068 1.79618
35 2 4.54887 0.16294 6.47111
ITEM: TIMESTEP
19200
ITEM: NUMBER OF ATOMS
35
ITEM: BOX BOUNDS xy xz yz pp pp pp
0.0000000000000000e+00 7.6685730000000003e+00 2.5561910000000001e+00
0.0000000000000000e+00 4.4274529999999999e+00 0.0000000000000000e+00
0.0000000000000000e+00 3.4699264999999997e+01 0.0000000000000000e+00
ITEM: ATOMS id type x y z
1 1 4.25904 2.85073 34.1358
2 1 2.20185 1.33477 34.0128
3 1 1.11988 1.07688 31.7107
4 1 3.02441 3.5291 31.8073
5 1 0.714405 0.569839 1.70704
6 1 5.30284 3.34162 31.4712
7 1 1.33421 0.200592 29.624
8 1 7.21838 4.11805 34.2661
9 1 3.05555 0.707931 27.9708
10 1 1.96186 2.56941 29.9185
11 1 3.8802 0.805723 30.569
12 1 4.54535 2.33217 29.0829
13 1 0.863703 1.16445 27.5577
14 1 2.24328 3.23812 27.3364
15 1 4.71615 3.39361 26.7965
16 2 4.92102 2.44738 13.9769
17 2 6.4352 2.66516 16.4638
18 2 3.77734 1.47411 16.174
19 2 3.59403 4.17449 16.3226
20 2 3.42943 1.19421 11.5864
21 2 7.27261 3.80738 13.7485
22 2 2.17278 0.415361 13.9054
23 2 3.41589 4.02486 11.4826
24 2 2.08967 2.91712 9.04847
25 2 4.60527 3.03757 6.50871
26 2 4.5577 1.5668 8.99561
27 2 5.98152 2.43737 11.6424
28 2 1.77953 0.0880654 8.98454
29 2 1.82031 1.46297 6.60837
30 2 4.83149 1.46149 4.03188
31 2 2.29349 3.02185 4.03863
32 2 3.51643 1.94139 1.77085
33 2 2.1909 0.168349 3.86807
34 2 5.946 3.16785 2.02123
35 2 6.95631 4.32455 6.5826
ITEM: TIMESTEP
19300
ITEM: NUMBER OF ATOMS
35
ITEM: BOX BOUNDS xy xz yz pp pp pp
0.0000000000000000e+00 7.6685730000000003e+00 2.5561910000000001e+00
0.0000000000000000e+00 4.4274529999999999e+00 0.0000000000000000e+00
0.0000000000000000e+00 3.4699264999999997e+01 0.0000000000000000e+00
ITEM: ATOMS id type x y z
1 1 4.66601 2.81972 33.6543
2 1 1.31908 1.5789 34.4731
3 1 1.65255 1.18269 31.8117
4 1 2.95285 3.2114 31.487
5 1 0.515071 0.125928 1.44402
6 1 5.41644 3.4656 31.2085
7 1 1.24991 0.346174 29.4731
8 1 6.97755 4.12551 33.5991
9 1 3.99834 0.599559 28.5561
10 1 2.62712 2.64222 28.844
11 1 4.40138 1.09813 30.996
12 1 5.35898 2.66262 29.0335
13 1 0.891915 1.17523 26.8358
14 1 2.14135 3.38824 26.4815
15 1 4.73044 3.36064 26.9192
16 2 4.89506 1.87954 14.2417
17 2 6.01682 2.98786 16.5296
18 2 3.69276 1.1434 16.5677
19 2 3.65259 4.24083 16.2368
20 2 3.49813 0.912362 11.3577
21 2 2.34578 3.36614 14.1635
22 2 2.31441 0.821589 13.9365
23 2 3.52023 4.01046 11.3892
24 2 1.85369 2.89638 9.15708
25 2 4.47797 2.92277 6.62418
26 2 4.65658 1.40172 8.97811
27 2 6.02592 2.65619 11.5753
28 2 4.73547 4.25935 9.0363
29 2 2.28909 1.39304 6.55579
30 2 4.37438 1.96028 4.20362
31 2 1.76842 3.31675 4.61737
32 2 3.09195 2.08123 1.39171
33 2 2.11314 0.289149 3.77408
34 2 5.73381 3.0711 1.54493
35 2 7.11135 4.42267 6.98656
ITEM: TIMESTEP
19400
ITEM: NUMBER OF ATOMS
35
ITEM: BOX BOUNDS xy xz yz pp pp pp
0.0000000000000000e+00 7.6685730000000003e+00 2.5561910000000001e+00
0.0000000000000000e+00 4.4274529999999999e+00 0.0000000000000000e+00
0.0000000000000000e+00 3.4699264999999997e+01 0.0000000000000000e+00
ITEM: ATOMS id type x y z
1 1 4.07749 3.03423 33.4557
2 1 1.25673 0.795217 34.1343
3 1 2.07183 1.09271 31.8028
4 1 3.13376 3.33454 30.9861
5 1 -0.115346 0.368693 1.94772
6 1 6.07805 3.48751 31.515
7 1 1.90601 0.505488 29.2182
8 1 6.42433 4.5483 33.8459
9 1 4.53585 0.0636354 28.5494
10 1 3.33229 2.42002 28.7294
11 1 4.40627 1.47453 31.4543
12 1 5.76305 2.71739 29.2176
13 1 0.942183 1.2938 26.8932
14 1 1.85479 3.75129 25.8584
15 1 4.6676 3.58929 27.0175
16 2 4.83898 1.61615 14.0055
17 2 5.98017 2.66934 16.259
18 2 3.42559 1.33777 16.6154
19 2 3.59842 4.444 16.488
20 2 3.50655 0.976092 11.6885
21 2 2.35188 3.38573 14.1183
22 2 2.3517 0.270867 14.067
23 2 3.4499 3.86029 11.7393
24 2 2.38696 2.7045 9.04451
25 2 4.61296 2.93464 6.70673
26 2 4.85758 1.67935 9.44232
27 2 5.93905 2.50634 11.9315
28 2 4.8231 4.45122 9.088
29 2 2.07531 1.34264 6.36146
30 2 4.19158 1.93689 3.95901
31 2 6.76822 3.42593 4.11699
32 2 3.03273 1.79475 1.48579
33 2 1.59395 0.608191 3.6899
34 2 5.38762 3.26122 1.37796
35 2 5.04725 0.155684 6.74976
ITEM: TIMESTEP
19500
ITEM: NUMBER OF ATOMS
35
ITEM: BOX BOUNDS xy xz yz pp pp pp
0.0000000000000000e+00 7.6685730000000003e+00 2.5561910000000001e+00
0.0000000000000000e+00 4.4274529999999999e+00 0.0000000000000000e+00
0.0000000000000000e+00 3.4699264999999997e+01 0.0000000000000000e+00
ITEM: ATOMS id type x y z
1 1 3.4185 2.51557 33.8074
2 1 0.901583 1.16725 34.3257
3 1 2.37913 1.55812 31.3655
4 1 3.64997 3.73038 30.5234
5 1 4.88697 -0.0254049 1.30968
6 1 5.91582 3.55465 31.9846
7 1 2.8754 0.171343 29.2918
8 1 3.50014 0.150654 34.1984
9 1 7.61389 4.45922 28.9391
10 1 3.63962 2.03539 28.1715
11 1 5.03068 1.0571 31.4312
12 1 6.06068 2.19335 29.6913
13 1 1.20056 1.86408 27.3362
14 1 6.98579 4.15323 26.6736
15 1 4.62758 3.86576 27.0565
16 2 4.72689 1.57556 14.0913
17 2 6.05187 2.57303 16.3534
18 2 3.45079 1.54537 16.2222
19 2 3.14322 4.14157 16.7123
20 2 3.24823 0.9748 11.9914
21 2 2.23662 3.12452 14.156
22 2 4.70818 4.23018 14.4271
23 2 3.51013 3.86487 11.631
24 2 2.66207 3.07693 8.94816
25 2 5.25043 3.10083 6.57899
26 2 5.28161 1.57654 9.41571
27 2 6.27376 2.44218 11.6306
28 2 2.5321 0.139165 9.17187
29 2 2.36772 1.65377 6.15731
30 2 4.09497 2.06578 3.93979
31 2 6.4545 3.61087 3.66917
32 2 2.5244 1.79468 1.59021
33 2 1.43085 0.627946 3.82851
34 2 4.87508 3.1679 1.51743
35 2 4.64921 0.0842028 6.38259
ITEM: TIMESTEP
19600
ITEM: NUMBER OF ATOMS
35
ITEM: BOX BOUNDS xy xz yz pp pp pp
0.0000000000000000e+00 7.6685730000000003e+00 2.5561910000000001e+00
0.0000000000000000e+00 4.4274529999999999e+00 0.0000000000000000e+00
0.0000000000000000e+00 3.4699264999999997e+01 0.0000000000000000e+00
ITEM: ATOMS id type x y z
1 1 2.90334 2.88787 33.9321
2 1 5.61788 2.00367 33.6064
3 1 2.50062 1.22349 31.8579
4 1 4.16055 3.00011 31.1643
5 1 7.54508 4.66945 1.51062
6 1 6.45738 3.46364 32.0575
7 1 5.63146 4.63082 29.4098
8 1 5.63766 4.25323 34.5089
9 1 0.794185 -0.0272281 29.3264
10 1 3.92613 2.09935 28.0211
11 1 5.24767 0.573782 31.6901
12 1 6.49896 2.27612 29.9706
13 1 1.34132 2.36953 27.547
14 1 7.28527 4.56881 27.1085
15 1 4.62035 4.39459 27.1756
16 2 5.09637 1.20143 13.7187
17 2 5.7049 2.5765 16.9153
18 2 3.42453 1.21789 16.3321
19 2 3.00788 4.12263 16.7696
20 2 3.49957 0.852011 11.6441
21 2 1.99336 2.87773 13.9976
22 2 4.59387 4.39474 14.5348
23 2 3.69786 3.84907 11.3717
24 2 2.81092 3.20484 8.70967
25 2 4.94577 3.06175 6.48244
26 2 5.28933 1.51331 8.80998
27 2 6.11824 2.57312 11.3373
28 2 3.01563 0.248467 9.136
29 2 2.61439 1.83602 6.39447
30 2 3.80127 2.31636 3.99988
31 2 6.22506 3.85925 3.76798
32 2 1.95085 1.53638 1.71962
33 2 1.16601 0.579154 4.0879
34 2 4.51381 2.82313 1.45946
35 2 5.17102 0.347077 6.24977
ITEM: TIMESTEP
19700
ITEM: NUMBER OF ATOMS
35
ITEM: BOX BOUNDS xy xz yz pp pp pp
0.0000000000000000e+00 7.6685730000000003e+00 2.5561910000000001e+00
0.0000000000000000e+00 4.4274529999999999e+00 0.0000000000000000e+00
0.0000000000000000e+00 3.4699264999999997e+01 0.0000000000000000e+00
ITEM: ATOMS id type x y z
1 1 2.95615 3.50386 34.3375
2 1 5.14426 1.70709 34.0619
3 1 2.85984 -0.0337209 32.6172
4 1 4.01766 2.573 31.216
5 1 6.8891 3.94139 1.87013
6 1 7.00424 2.90813 32.1338
7 1 3.65705 0.451564 29.9922
8 1 3.156 0.453764 34.7779
9 1 3.36509 4.48921 29.4283
10 1 4.14294 2.40615 28.4248
11 1 5.63132 1.00276 31.4813
12 1 2.06923 2.20824 29.8164
13 1 6.29797 2.52086 27.761
14 1 5.08251 0.503642 27.3762
15 1 2.58297 0.523902 27.6261
16 2 4.81693 1.34073 13.8263
17 2 5.56428 2.54507 16.6438
18 2 3.1778 1.13687 16.3948
19 2 3.20677 4.12047 16.4907
20 2 3.77695 1.04793 11.2881
21 2 2.27415 2.89404 14.0602
22 2 4.84371 3.81474 14.1802
23 2 3.57872 3.7817 11.2808
24 2 2.88352 3.02379 8.92709
25 2 5.19422 3.41162 6.28998
26 2 5.42493 1.95244 8.62323
27 2 6.18388 2.35937 10.9842
28 2 2.88428 0.186483 8.70981
29 2 2.41595 1.56919 6.46959
30 2 3.37211 2.34847 4.00078
31 2 6.07853 3.88326 4.11264
32 2 1.77603 1.6544 1.59731
33 2 0.876675 1.07052 3.87716
34 2 4.33197 2.72494 1.65461
35 2 0.0390882 0.105532 6.61035
ITEM: TIMESTEP
19800
ITEM: NUMBER OF ATOMS
35
ITEM: BOX BOUNDS xy xz yz pp pp pp
0.0000000000000000e+00 7.6685730000000003e+00 2.5561910000000001e+00
0.0000000000000000e+00 4.4274529999999999e+00 0.0000000000000000e+00
0.0000000000000000e+00 3.4699264999999997e+01 0.0000000000000000e+00
ITEM: ATOMS id type x y z
1 1 3.46471 3.85578 34.4376
2 1 5.18428 2.31997 34.0454
3 1 5.65513 4.16732 32.7392
4 1 4.39281 2.58012 30.9316
5 1 7.43859 4.74747 1.8485
6 1 2.46477 2.16209 33.0682
7 1 6.26726 4.30798 30.2326
8 1 3.39219 0.209841 -0.0700351
9 1 0.934032 0.308449 29.7405
10 1 4.59815 2.63916 28.7171
11 1 0.561291 0.231475 32.1397
12 1 2.12349 2.3994 29.916
13 1 6.74466 3.18192 27.401
14 1 5.56458 0.537463 27.2715
15 1 2.9537 0.643791 28.1139
16 2 4.74301 0.991463 14.0049
17 2 5.74247 2.66098 15.8774
18 2 2.89851 1.07108 16.0288
19 2 3.21451 4.01513 15.984
20 2 3.73967 0.84938 11.1748
21 2 2.59462 2.57482 13.8232
22 2 5.25089 4.12581 13.4872
23 2 3.75634 4.08267 11.6585
24 2 2.7928 3.20624 9.07173
25 2 4.82535 2.85017 6.45575
26 2 5.25764 1.64816 8.73574
27 2 6.44329 2.31423 11.4763
28 2 2.43853 0.287267 8.86281
29 2 2.30262 1.6023 6.48041
30 2 3.12304 2.57834 4.10832
31 2 5.713 4.14322 3.97759
32 2 1.59926 1.51043 1.34913
33 2 5.61343 1.14255 4.06156
34 2 4.43498 3.15425 1.9915
35 2 7.39899 4.34294 6.60046
ITEM: TIMESTEP
19900
ITEM: NUMBER OF ATOMS
35
ITEM: BOX BOUNDS xy xz yz pp pp pp
0.0000000000000000e+00 7.6685730000000003e+00 2.5561910000000001e+00
0.0000000000000000e+00 4.4274529999999999e+00 0.0000000000000000e+00
0.0000000000000000e+00 3.4699264999999997e+01 0.0000000000000000e+00
ITEM: ATOMS id type x y z
1 1 3.24997 4.52092 34.4318
2 1 5.3143 2.18255 34.0496
3 1 5.53978 3.9013 32.3022
4 1 5.06585 1.8213 31.5098
5 1 4.76964 0.404873 2.40437
6 1 2.69726 1.80215 33.4669
7 1 3.28358 0.20652 29.9482
8 1 3.62061 0.0107784 0.0807129
9 1 0.698595 0.104724 29.7695
10 1 4.9294 2.92329 28.7526
11 1 3.20215 3.83104 32.0321
12 1 2.26439 2.51866 30.1398
13 1 7.52752 3.12182 27.7911
14 1 0.994387 0.93185 27.5528
15 1 3.61781 1.0573 27.713
16 2 5.63317 0.887926 13.6005
17 2 5.74941 2.8079 15.4398
18 2 2.95601 1.05418 15.9677
19 2 3.12587 3.74954 15.9101
20 2 3.81837 0.962047 11.3011
21 2 3.02017 2.39015 13.5193
22 2 5.46154 4.17993 13.4769
23 2 3.53016 3.97703 11.2388
24 2 2.3077 3.03371 9.07043
25 2 4.31064 2.67831 6.49478
26 2 4.89293 1.51588 9.09562
27 2 6.15901 2.49775 11.4159
28 2 2.42141 0.0677281 9.15547
29 2 1.96979 1.26006 6.82648
30 2 2.78863 2.8582 3.91924
31 2 5.38918 4.52756 4.10484
32 2 2.0948 2.09481 1.49876
33 2 5.64989 1.27981 4.45381
34 2 4.56765 3.22602 1.69596
35 2 7.08696 4.28751 6.52879
ITEM: TIMESTEP
20000
ITEM: NUMBER OF ATOMS
35
ITEM: BOX BOUNDS xy xz yz pp pp pp
0.0000000000000000e+00 7.6685730000000003e+00 2.5561910000000001e+00
0.0000000000000000e+00 4.4274529999999999e+00 0.0000000000000000e+00
0.0000000000000000e+00 3.4699264999999997e+01 0.0000000000000000e+00
ITEM: ATOMS id type x y z
1 1 1.31564 -0.0586565 34.3359
2 1 4.78473 2.08874 33.9772
3 1 5.94266 4.44458 32.1763
4 1 5.0439 1.24721 31.7837
5 1 4.95233 0.660212 1.92151
6 1 2.28763 1.98518 33.7432
7 1 3.53727 0.740132 29.8119
8 1 6.35164 4.39435 -0.0514232
9 1 1.01227 0.387868 29.7312
10 1 4.90867 2.42322 29.2048
11 1 3.59758 3.44279 31.8126
12 1 1.6337 2.49884 30.5253
13 1 2.73786 3.33942 28.0839
14 1 1.85197 1.3793 27.6642
15 1 4.09788 0.905374 27.3282
16 2 0.819265 0.989285 13.4616
17 2 5.67375 2.23562 16.0006
18 2 3.22682 0.978826 15.8431
19 2 3.10984 4.02954 15.9804
20 2 3.33196 1.13694 11.3246
21 2 3.52366 2.67601 13.7459
22 2 5.95279 3.82883 13.5707
23 2 3.3302 3.79475 11.0781
24 2 2.16594 2.70294 8.76827
25 2 4.06976 2.9621 6.46386
26 2 4.61387 1.53581 8.62559
27 2 5.91337 2.44936 11.1133
28 2 5.01346 4.27175 8.9804
29 2 1.6544 1.09808 6.80051
30 2 2.81649 3.14607 4.22405
31 2 2.81681 0.185764 4.22812
32 2 2.15971 2.17201 1.5908
33 2 5.43733 1.9042 4.5016
34 2 4.78498 3.06963 1.82173
35 2 6.56617 3.9791 6.55463
