
     Program PWSCF v.7.5 starts on  4Dec2025 at 10:12: 1 

     This program is part of the open-source Quantum ESPRESSO suite
     for quantum simulation of materials; please cite
         "P. Giannozzi et al., J. Phys.:Condens. Matter 21 395502 (2009);
         "P. Giannozzi et al., J. Phys.:Condens. Matter 29 465901 (2017);
         "P. Giannozzi et al., J. Chem. Phys. 152 154105 (2020);
          URL http://www.quantum-espresso.org", 
     in publications or presentations arising from this work. More details at
     http://www.quantum-espresso.org/quote

     Parallel version (MPI & OpenMP), running on      16 processor cores
     Number of MPI processes:                 4
     Threads/MPI process:                     4

     MPI processes distributed on     1 nodes
     418965 MiB available memory on the printing compute node when the environment starts

     Reading input from qe/gap7/cu_ta_gap7.in
Warning: card &CELL ignored
Warning: card &FCP ignored
Warning: card &RISM ignored

     Current dimensions of program PWSCF are:
     Max number of different atomic species (ntypx) = 10
     Max number of k-points (npk) =  40000
     Max angular momentum in pseudopotentials (lmaxx) =  4
     file Cu.paw.z_11.ld1.psl.v1.0.0-low.upf: wavefunction(s)  4S 3D renormalized
     Message from routine setup:
     using ibrav=0 with symmetry is DISCOURAGED, use correct ibrav instead

     R & G space division:  proc/nbgrp/npool/nimage =       4
     Subspace diagonalization in iterative solution of the eigenvalue problem:
     a serial algorithm will be used


     Parallelization info
     --------------------
     sticks:   dense  smooth     PW     G-vecs:    dense   smooth      PW
     Min         480     289     73                56964    26485    3316
     Max         481     290     74                56975    26498    3322
     Sum        1921    1159    295               227877   105971   13275

     Using Slab Decomposition



     bravais-lattice index     =            0
     lattice parameter (alat)  =       9.6610  a.u.
     unit-cell volume          =    2596.7058 (a.u.)^3
     number of atoms/cell      =            7
     number of atomic types    =            2
     number of electrons       =        83.00
     number of Kohn-Sham states=           50
     kinetic-energy cutoff     =      45.0000  Ry
     charge density cutoff     =     300.0000  Ry
     scf convergence threshold =      1.0E-04
     mixing beta               =       0.3000
     number of iterations used =            8  plain     mixing
     Exchange-correlation= SLA  PW   PBX  PBC
                           (   1   4   3   4   0   0   0)

     celldm(1)=   9.661002  celldm(2)=   0.000000  celldm(3)=   0.000000
     celldm(4)=   0.000000  celldm(5)=   0.000000  celldm(6)=   0.000000

     crystal axes: (cart. coord. in units of alat)
               a(1) = (   1.000000   0.000000   0.000000 )  
               a(2) = (   0.500000   0.866025   0.000000 )  
               a(3) = (   0.000000   0.000000   3.325260 )  

     reciprocal axes: (cart. coord. in units 2 pi/alat)
               b(1) = (  1.000000 -0.577350  0.000000 )  
               b(2) = (  0.000000  1.154701  0.000000 )  
               b(3) = (  0.000000  0.000000  0.300728 )  


     PseudoPot. # 1 for Ta read from file:
     /apps/QE/pseudo/efficiency/Ta_pbe_v1.uspp.F.UPF
     MD5 check sum: f8bbe9446314a3b8ea5d9f3e3836c939
     Pseudo is Ultrasoft + core correction, Zval = 13.0
     Generated by new atomic code, or converted to UPF format
     Using radial grid of  921 points,  7 beta functions with: 
                l(1) =   0
                l(2) =   0
                l(3) =   1
                l(4) =   1
                l(5) =   2
                l(6) =   2
                l(7) =   3
     Q(r) pseudized with  6 coefficients,  rinner =    1.300   1.300   1.300
                                                       1.300   1.300   1.300
                                                       1.300

     PseudoPot. # 2 for Cu read from file:
     /apps/QE/pseudo/efficiency/Cu.paw.z_11.ld1.psl.v1.0.0-low.upf
     MD5 check sum: 619f40885d92a09a85a8b37550532d0c
     Pseudo is Projector augmented-wave + core cor, Zval = 11.0
     Generated using &quot;atomic&quot; code by A. Dal Corso  v.6.3MaX
     Shape of augmentation charge: PSQ
     Using radial grid of 1199 points,  6 beta functions with: 
                l(1) =   0
                l(2) =   0
                l(3) =   1
                l(4) =   1
                l(5) =   2
                l(6) =   2
     Q(r) pseudized with 0 coefficients 


     atomic species   valence    mass     pseudopotential
     Ta               13.00   180.94788     Ta( 1.00)
     Cu               11.00    63.54600     Cu( 1.00)

     12 Sym. Ops. (no inversion) found ( 6 have fractional translation)



   Cartesian axes

     site n.     atom                  positions (alat units)
         1        Ta     tau(   1) = (   0.0000000   0.0000000   2.4450442  )
         2        Ta     tau(   2) = (   0.5000000   0.2886751   2.4450442  )
         3        Ta     tau(   3) = (   1.0000000   0.5773503   2.4450442  )
         4        Cu     tau(   4) = (   0.7500000   0.1443376   1.0758194  )
         5        Cu     tau(   5) = (   0.2500000   0.1443376   1.0758194  )
         6        Cu     tau(   6) = (   1.0000000   0.5773503   1.0758194  )
         7        Cu     tau(   7) = (   0.5000000   0.5773503   1.0758194  )

     number of k points=     1  Methfessel-Paxton smearing, width (Ry)=  0.0200
                       cart. coord. in units 2pi/alat
        k(    1) = (   0.0000000   0.0000000   0.0000000), wk =   2.0000000

     Dense  grid:   227877 G-vectors     FFT dimensions: (  54,  54, 180)

     Smooth grid:   105971 G-vectors     FFT dimensions: (  45,  45, 144)

     Estimated max dynamical RAM per process >     358.78 MB

     Estimated total dynamical RAM >       1.40 GB

     Check: negative core charge=   -0.000002

     Initial potential from superposition of free atoms

     starting charge      82.9958, renormalised to      83.0000

     negative rho (up, down):  2.886E-01 0.000E+00
     Starting wfcs are   75 randomized atomic wfcs
     Checking if some PAW data can be deallocated... 

     total cpu time spent up to now is        4.4 secs

     per-process dynamical memory:    88.1 Mb

     Self-consistent Calculation

     iteration #  1     ecut=    45.00 Ry     beta= 0.30
     Davidson diagonalization with overlap
     ethr =  1.00E-02,  avg # of iterations =  2.0

     negative rho (up, down):  2.936E-01 0.000E+00

     total cpu time spent up to now is        9.8 secs

     total energy              =   -1274.34621684 Ry
     estimated scf accuracy    <       4.27815221 Ry

     iteration #  2     ecut=    45.00 Ry     beta= 0.30
     Davidson diagonalization with overlap
     ethr =  5.15E-03,  avg # of iterations = 11.0

     negative rho (up, down):  2.936E-01 0.000E+00

     total cpu time spent up to now is       14.9 secs

     total energy              =   -1272.30742767 Ry
     estimated scf accuracy    <     211.83488121 Ry

     iteration #  3     ecut=    45.00 Ry     beta= 0.30
     Davidson diagonalization with overlap
     ethr =  5.15E-03,  avg # of iterations = 12.0

     negative rho (up, down):  2.943E-01 0.000E+00

     total cpu time spent up to now is       20.2 secs

     total energy              =   -1275.50876413 Ry
     estimated scf accuracy    <      21.94274202 Ry

     iteration #  4     ecut=    45.00 Ry     beta= 0.30
     Davidson diagonalization with overlap
     ethr =  5.15E-03,  avg # of iterations =  6.0

     negative rho (up, down):  2.955E-01 0.000E+00

     total cpu time spent up to now is       24.9 secs

     total energy              =   -1275.99570316 Ry
     estimated scf accuracy    <       2.50303949 Ry

     iteration #  5     ecut=    45.00 Ry     beta= 0.30
     Davidson diagonalization with overlap
     ethr =  3.02E-03,  avg # of iterations =  2.0

     negative rho (up, down):  2.961E-01 0.000E+00

     total cpu time spent up to now is       29.1 secs

     total energy              =   -1276.08247796 Ry
     estimated scf accuracy    <       0.15032636 Ry

     iteration #  6     ecut=    45.00 Ry     beta= 0.30
     Davidson diagonalization with overlap
     ethr =  1.81E-04,  avg # of iterations = 10.0

     negative rho (up, down):  2.964E-01 0.000E+00

     total cpu time spent up to now is       35.2 secs

     total energy              =   -1276.22883435 Ry
     estimated scf accuracy    <       1.52308434 Ry

     iteration #  7     ecut=    45.00 Ry     beta= 0.30
     Davidson diagonalization with overlap
     ethr =  1.81E-04,  avg # of iterations =  2.0

     negative rho (up, down):  2.963E-01 0.000E+00

     total cpu time spent up to now is       39.3 secs

     total energy              =   -1276.23811587 Ry
     estimated scf accuracy    <       0.81715349 Ry

     iteration #  8     ecut=    45.00 Ry     beta= 0.30
     Davidson diagonalization with overlap
     ethr =  1.81E-04,  avg # of iterations =  1.0

     negative rho (up, down):  2.970E-01 0.000E+00

     total cpu time spent up to now is       43.5 secs

     total energy              =   -1276.21907242 Ry
     estimated scf accuracy    <       0.82405760 Ry

     iteration #  9     ecut=    45.00 Ry     beta= 0.30
     Davidson diagonalization with overlap
     ethr =  1.81E-04,  avg # of iterations =  1.0

     negative rho (up, down):  2.977E-01 0.000E+00

     total cpu time spent up to now is       47.3 secs

     total energy              =   -1276.21297963 Ry
     estimated scf accuracy    <       0.43435481 Ry

     iteration # 10     ecut=    45.00 Ry     beta= 0.30
     Davidson diagonalization with overlap
     ethr =  1.81E-04,  avg # of iterations =  1.0

     negative rho (up, down):  2.981E-01 0.000E+00

     total cpu time spent up to now is       51.3 secs

     total energy              =   -1276.13895438 Ry
     estimated scf accuracy    <       4.82210263 Ry

     iteration # 11     ecut=    45.00 Ry     beta= 0.30
     Davidson diagonalization with overlap
     ethr =  1.81E-04,  avg # of iterations =  6.0

     negative rho (up, down):  2.984E-01 0.000E+00

     total cpu time spent up to now is       56.3 secs

     total energy              =   -1276.52378466 Ry
     estimated scf accuracy    <       2.84356068 Ry

     iteration # 12     ecut=    45.00 Ry     beta= 0.30
     Davidson diagonalization with overlap
     ethr =  1.81E-04,  avg # of iterations =  2.0

     negative rho (up, down):  2.985E-01 0.000E+00

     total cpu time spent up to now is       60.6 secs

     total energy              =   -1276.40195042 Ry
     estimated scf accuracy    <       6.32237801 Ry

     iteration # 13     ecut=    45.00 Ry     beta= 0.30
     Davidson diagonalization with overlap
     ethr =  1.81E-04,  avg # of iterations =  1.0

     negative rho (up, down):  3.004E-01 0.000E+00

     total cpu time spent up to now is       65.2 secs

     total energy              =   -1276.52894458 Ry
     estimated scf accuracy    <       4.69533073 Ry

     iteration # 14     ecut=    45.00 Ry     beta= 0.30
     Davidson diagonalization with overlap
     ethr =  1.81E-04,  avg # of iterations =  2.0

     negative rho (up, down):  3.046E-01 0.000E+00

     total cpu time spent up to now is       69.6 secs

     total energy              =   -1275.25505168 Ry
     estimated scf accuracy    <      27.44957841 Ry

     iteration # 15     ecut=    45.00 Ry     beta= 0.30
     Davidson diagonalization with overlap
     ethr =  1.81E-04,  avg # of iterations =  6.0

     negative rho (up, down):  3.019E-01 0.000E+00

     total cpu time spent up to now is       74.9 secs

     total energy              =   -1275.68835479 Ry
     estimated scf accuracy    <      37.24097024 Ry

     iteration # 16     ecut=    45.00 Ry     beta= 0.30
     Davidson diagonalization with overlap
     ethr =  1.81E-04,  avg # of iterations =  3.0

     negative rho (up, down):  3.032E-01 0.000E+00

     total cpu time spent up to now is       80.2 secs

     total energy              =   -1276.11776011 Ry
     estimated scf accuracy    <       2.05218713 Ry

     iteration # 17     ecut=    45.00 Ry     beta= 0.30
     Davidson diagonalization with overlap
     ethr =  1.81E-04,  avg # of iterations =  2.0

     negative rho (up, down):  3.030E-01 0.000E+00

     total cpu time spent up to now is       84.4 secs

     total energy              =   -1276.02261160 Ry
     estimated scf accuracy    <       4.51463544 Ry

     iteration # 18     ecut=    45.00 Ry     beta= 0.30
     Davidson diagonalization with overlap
     ethr =  1.81E-04,  avg # of iterations =  2.0

     negative rho (up, down):  3.039E-01 0.000E+00

     total cpu time spent up to now is       96.5 secs

     total energy              =   -1276.17584024 Ry
     estimated scf accuracy    <       2.68527596 Ry

     iteration # 19     ecut=    45.00 Ry     beta= 0.30
     Davidson diagonalization with overlap
     ethr =  1.81E-04,  avg # of iterations =  2.0

     negative rho (up, down):  3.038E-01 0.000E+00

     total cpu time spent up to now is      107.9 secs

     total energy              =   -1276.17266673 Ry
     estimated scf accuracy    <       1.36793267 Ry

     iteration # 20     ecut=    45.00 Ry     beta= 0.30
     Davidson diagonalization with overlap
     ethr =  1.81E-04,  avg # of iterations =  1.0

     negative rho (up, down):  3.038E-01 0.000E+00

     total cpu time spent up to now is      119.4 secs

     total energy              =   -1276.15845925 Ry
     estimated scf accuracy    <       0.76703260 Ry

     iteration # 21     ecut=    45.00 Ry     beta= 0.30
     Davidson diagonalization with overlap
     ethr =  1.81E-04,  avg # of iterations =  1.0

     negative rho (up, down):  3.038E-01 0.000E+00

     total cpu time spent up to now is      130.6 secs

     total energy              =   -1276.16046743 Ry
     estimated scf accuracy    <       0.38955919 Ry

     iteration # 22     ecut=    45.00 Ry     beta= 0.30
     Davidson diagonalization with overlap
     ethr =  1.81E-04,  avg # of iterations =  1.0

     negative rho (up, down):  3.038E-01 0.000E+00

     total cpu time spent up to now is      142.4 secs

     total energy              =   -1276.16662514 Ry
     estimated scf accuracy    <       0.38021373 Ry

     iteration # 23     ecut=    45.00 Ry     beta= 0.30
     Davidson diagonalization with overlap
     ethr =  1.81E-04,  avg # of iterations =  1.0

     negative rho (up, down):  3.045E-01 0.000E+00

     total cpu time spent up to now is      153.7 secs

     total energy              =   -1276.20896856 Ry
     estimated scf accuracy    <       0.42656348 Ry

     iteration # 24     ecut=    45.00 Ry     beta= 0.30
     Davidson diagonalization with overlap
     ethr =  1.81E-04,  avg # of iterations =  2.0

     negative rho (up, down):  3.045E-01 0.000E+00

     total cpu time spent up to now is      165.6 secs

     total energy              =   -1276.21243674 Ry
     estimated scf accuracy    <       1.93447002 Ry

     iteration # 25     ecut=    45.00 Ry     beta= 0.30
     Davidson diagonalization with overlap
     ethr =  1.81E-04,  avg # of iterations =  1.0

     negative rho (up, down):  3.045E-01 0.000E+00

     total cpu time spent up to now is      177.2 secs

     total energy              =   -1276.20528812 Ry
     estimated scf accuracy    <       1.83088227 Ry

     iteration # 26     ecut=    45.00 Ry     beta= 0.30
     Davidson diagonalization with overlap
     ethr =  1.81E-04,  avg # of iterations =  1.0

     negative rho (up, down):  3.045E-01 0.000E+00

     total cpu time spent up to now is      189.0 secs

     total energy              =   -1276.18892635 Ry
     estimated scf accuracy    <       1.60506426 Ry

     iteration # 27     ecut=    45.00 Ry     beta= 0.30
     Davidson diagonalization with overlap
     ethr =  1.81E-04,  avg # of iterations =  1.0

     negative rho (up, down):  3.037E-01 0.000E+00

     total cpu time spent up to now is      200.0 secs

     total energy              =   -1276.14237768 Ry
     estimated scf accuracy    <       1.16628461 Ry

     iteration # 28     ecut=    45.00 Ry     beta= 0.30
     Davidson diagonalization with overlap
     ethr =  1.81E-04,  avg # of iterations =  2.0

     negative rho (up, down):  3.037E-01 0.000E+00

     total cpu time spent up to now is      212.0 secs

     total energy              =   -1276.15223193 Ry
     estimated scf accuracy    <       0.00702278 Ry

     iteration # 29     ecut=    45.00 Ry     beta= 0.30
     Davidson diagonalization with overlap
     ethr =  8.46E-06,  avg # of iterations =  5.0

     negative rho (up, down):  3.038E-01 0.000E+00

     total cpu time spent up to now is      225.5 secs

     total energy              =   -1276.15306786 Ry
     estimated scf accuracy    <       0.00090502 Ry

     iteration # 30     ecut=    45.00 Ry     beta= 0.30
     Davidson diagonalization with overlap
     ethr =  1.09E-06,  avg # of iterations =  2.0

     negative rho (up, down):  3.039E-01 0.000E+00

     total cpu time spent up to now is      237.2 secs

     total energy              =   -1276.15226569 Ry
     estimated scf accuracy    <       0.01622663 Ry

     iteration # 31     ecut=    45.00 Ry     beta= 0.30
     Davidson diagonalization with overlap
     ethr =  1.09E-06,  avg # of iterations =  4.0

     negative rho (up, down):  3.039E-01 0.000E+00

     total cpu time spent up to now is      250.4 secs

     total energy              =   -1276.15357588 Ry
     estimated scf accuracy    <       0.18141601 Ry

     iteration # 32     ecut=    45.00 Ry     beta= 0.30
     Davidson diagonalization with overlap
     ethr =  1.09E-06,  avg # of iterations =  2.0

     negative rho (up, down):  3.038E-01 0.000E+00

     total cpu time spent up to now is      262.5 secs

     total energy              =   -1276.15176786 Ry
     estimated scf accuracy    <       0.08697149 Ry

     iteration # 33     ecut=    45.00 Ry     beta= 0.30
     Davidson diagonalization with overlap
     ethr =  1.09E-06,  avg # of iterations =  3.0

     negative rho (up, down):  3.039E-01 0.000E+00

     total cpu time spent up to now is      274.8 secs

     total energy              =   -1276.15105014 Ry
     estimated scf accuracy    <       0.06671690 Ry

     iteration # 34     ecut=    45.00 Ry     beta= 0.30
     Davidson diagonalization with overlap
     ethr =  1.09E-06,  avg # of iterations =  4.0

     negative rho (up, down):  3.039E-01 0.000E+00

     total cpu time spent up to now is      287.1 secs

     total energy              =   -1276.15287327 Ry
     estimated scf accuracy    <       0.24221081 Ry

     iteration # 35     ecut=    45.00 Ry     beta= 0.30
     Davidson diagonalization with overlap
     ethr =  1.09E-06,  avg # of iterations =  2.0

     negative rho (up, down):  3.039E-01 0.000E+00

     total cpu time spent up to now is      298.1 secs

     total energy              =   -1276.15269219 Ry
     estimated scf accuracy    <       0.05465503 Ry

     iteration # 36     ecut=    45.00 Ry     beta= 0.30
     Davidson diagonalization with overlap
     ethr =  1.09E-06,  avg # of iterations =  2.0

     negative rho (up, down):  3.039E-01 0.000E+00

     total cpu time spent up to now is      310.3 secs

     End of self-consistent calculation

          k = 0.0000 0.0000 0.0000 ( 13275 PWs)   bands (ev):

   -66.6511 -66.5776 -66.5769 -33.4808 -33.3468 -33.3459 -33.1338 -33.1338
   -33.1332 -33.1332 -32.5429 -32.5429  -6.3016  -4.6437  -3.7752  -3.7749
    -3.7749  -2.5039  -2.5034  -2.5034  -2.3020  -2.3020  -1.9034  -1.3278
    -1.3277  -1.3277  -1.2648  -1.2648  -1.2642  -1.0941  -1.0941  -0.9462
    -0.9460  -0.9460   0.3250   0.8552   0.8929   0.8929   0.8931   0.8931
     1.0284   1.0284   1.0286   1.0286   1.2113   1.2119   1.2119   1.3385
     2.2140   2.2140

     the Fermi energy is     1.0274 ev

!    total energy              =   -1276.15299076 Ry
     estimated scf accuracy    <       0.00003601 Ry
     smearing contrib. (-TS)   =      -0.03069943 Ry
     internal energy E=F+TS    =   -1276.12229133 Ry

     The total energy is F=E-TS. E is the sum of the following terms:
     one-electron contribution =   -1279.89238999 Ry
     hartree contribution      =     681.26625902 Ry
     xc contribution           =    -304.49055920 Ry
     ewald contribution        =     -13.82800962 Ry
     one-center paw contrib.   =    -359.17759154 Ry

     convergence has been achieved in  36 iterations

     Writing all to output data dir ./tmp/CuTa_gap7.save/ :
     XML data file, charge density, pseudopotentials, collected wavefunctions

     init_run     :      3.61s CPU      4.04s WALL (       1 calls)
     electrons    :    180.70s CPU    305.87s WALL (       1 calls)

     Called by init_run:
     wfcinit      :      0.77s CPU      0.82s WALL (       1 calls)
     potinit      :      1.44s CPU      1.60s WALL (       1 calls)
     hinit0       :      0.75s CPU      0.83s WALL (       1 calls)

     Called by electrons:
     c_bands      :     81.27s CPU    155.55s WALL (      36 calls)
     sum_band     :     40.73s CPU     63.81s WALL (      36 calls)
     v_of_rho     :      6.14s CPU     10.21s WALL (      37 calls)
     newd         :     22.61s CPU     31.07s WALL (      37 calls)
     PAW_pot      :     27.58s CPU     39.51s WALL (      37 calls)
     mix_rho      :      2.52s CPU      4.95s WALL (      36 calls)

     Called by c_bands:
     init_us_2    :      0.34s CPU      0.43s WALL (      73 calls)
     cegterg      :     80.36s CPU    154.57s WALL (      36 calls)

     Called by *egterg:
     cdiaghg      :      1.61s CPU      2.66s WALL (     145 calls)
     h_psi        :     71.73s CPU    137.50s WALL (     146 calls)
     s_psi        :      0.52s CPU      0.65s WALL (     146 calls)
     g_psi        :      0.06s CPU      0.07s WALL (     109 calls)

     Called by h_psi:
     h_psi:calbec :      2.75s CPU      5.53s WALL (     146 calls)
     vloc_psi     :     68.18s CPU    130.38s WALL (     146 calls)
                                        0.00s GPU  (     146 calls)
     add_vuspsi   :      0.60s CPU      0.91s WALL (     146 calls)

     General routines
     calbec       :      3.68s CPU      7.39s WALL (     182 calls)
     fft          :      5.72s CPU     10.73s WALL (     479 calls)
     ffts         :      0.97s CPU      1.59s WALL (      73 calls)
     fftw         :     81.85s CPU    157.44s WALL (   10102 calls)
     interpolate  :      1.20s CPU      2.13s WALL (      37 calls)

     Parallel routines

     PWSCF        :   3m 4.77s CPU   5m10.54s WALL


   This run was terminated on:  10:17:12   4Dec2025            

=------------------------------------------------------------------------------=
   JOB DONE.
=------------------------------------------------------------------------------=
