ITEM: TIMESTEP
0
ITEM: NUMBER OF ATOMS
35
ITEM: BOX BOUNDS xy xz yz pp pp pp
0.0000000000000000e+00 7.6685730000000003e+00 2.5561910000000001e+00
0.0000000000000000e+00 4.4274529999999999e+00 0.0000000000000000e+00
0.0000000000000000e+00 3.3699264999999997e+01 0.0000000000000000e+00
ITEM: ATOMS id type x y z
1 1 2.55619 1.47582 30.0105
2 1 5.11238 2.95164 30.0105
3 1 0 0 30.0105
4 1 5.11238 1.47582 27.6728
5 1 2.55619 2.95164 27.6728
6 1 2.55619 0 27.6728
7 1 2.55619 1.47582 25.3351
8 1 5.11238 2.95164 25.3351
9 1 0 0 25.3351
10 1 5.11238 1.47582 22.9974
11 1 2.55619 2.95164 22.9974
12 1 2.55619 0 22.9974
13 1 2.55619 1.47582 20.6597
14 1 5.11238 2.95164 20.6597
15 1 0 0 20.6597
16 2 1.2781 2.21373 14.6597
17 2 0 0 14.6597
18 2 3.83429 2.21373 14.6597
19 2 2.55619 0 14.6597
20 2 3.83429 3.68954 12.5726
21 2 2.55619 1.47582 12.5726
22 2 6.39048 3.68954 12.5726
23 2 5.11238 1.47582 12.5726
24 2 5.11238 2.95164 10.4855
25 2 3.83429 0.737909 10.4855
26 2 2.55619 2.95164 10.4855
27 2 1.2781 0.737909 10.4855
28 2 1.2781 2.21373 8.39838
29 2 0 0 8.39838
30 2 3.83429 2.21373 8.39838
31 2 2.55619 0 8.39838
32 2 3.83429 3.68954 6.31126
33 2 2.55619 1.47582 6.31126
34 2 6.39048 3.68954 6.31126
35 2 5.11238 1.47582 6.31126
ITEM: TIMESTEP
100
ITEM: NUMBER OF ATOMS
35
ITEM: BOX BOUNDS xy xz yz pp pp pp
0.0000000000000000e+00 7.6685730000000003e+00 2.5561910000000001e+00
0.0000000000000000e+00 4.4274529999999999e+00 0.0000000000000000e+00
0.0000000000000000e+00 3.3699264999999997e+01 0.0000000000000000e+00
ITEM: ATOMS id type x y z
1 1 2.9913 1.6711 29.3649
2 1 5.07226 3.15385 29.5546
3 1 5.11068 0.0217079 29.4302
4 1 4.95324 1.52393 27.6187
5 1 2.3709 2.89136 27.4335
6 1 4.5084 4.3827 27.5735
7 1 2.47572 1.56666 25.4048
8 1 5.11326 3.1302 25.6277
9 1 7.44492 4.27286 25.8027
10 1 5.46549 1.3726 24.096
11 1 3.40773 2.37734 23.1011
12 1 4.71698 4.37589 23.0427
13 1 2.6581 1.39623 21.122
14 1 4.68132 2.96836 21.3208
15 1 5.05016 0.797644 20.931
16 2 1.26922 2.08255 15.2844
17 2 7.54343 4.33504 15.4515
18 2 3.85517 2.09684 15.7928
19 2 5.0669 4.36727 15.9245
20 2 3.64858 3.76576 13.0598
21 2 2.41957 1.5783 12.9415
22 2 6.17996 3.71001 12.8925
23 2 4.90879 1.52423 12.9228
24 2 5.21117 2.8829 10.5072
25 2 3.89716 0.647858 10.4308
26 2 2.64765 2.93264 10.427
27 2 1.40403 0.700625 10.4883
28 2 1.27801 2.19215 8.04555
29 2 5.1452 0.0162772 7.98715
30 2 3.88961 2.21411 7.8029
31 2 5.13749 4.42871 7.9014
32 2 4.01484 3.78141 5.06889
33 2 2.69707 1.5757 5.25442
34 2 6.51728 3.67246 5.56618
35 2 5.22169 1.50341 5.46971
ITEM: TIMESTEP
200
ITEM: NUMBER OF ATOMS
35
ITEM: BOX BOUNDS xy xz yz pp pp pp
0.0000000000000000e+00 7.6685730000000003e+00 2.5561910000000001e+00
0.0000000000000000e+00 4.4274529999999999e+00 0.0000000000000000e+00
0.0000000000000000e+00 3.3699264999999997e+01 0.0000000000000000e+00
ITEM: ATOMS id type x y z
1 1 3.24407 1.13886 29.0976
2 1 5.37937 3.10426 29.2006
3 1 2.70985 4.22772 29.116
4 1 4.44152 1.91232 27.2826
5 1 1.78191 2.91697 27.6207
6 1 1.52317 0.193025 27.4559
7 1 2.82611 1.48364 25.651
8 1 4.8897 3.25274 25.6429
9 1 7.17441 4.18602 25.5297
10 1 5.72544 1.85354 23.6438
11 1 3.32661 2.3374 23.5425
12 1 2.59195 -0.0622702 23.4758
13 1 2.33165 1.5428 21.4839
14 1 4.75148 3.50302 21.4943
15 1 5.3315 0.239473 22.2073
16 2 6.17744 2.13527 15.8696
17 2 2.49255 4.3064 16.2114
18 2 3.6515 2.02288 16.8894
19 2 5.05825 4.27796 17.1809
20 2 3.65942 3.63189 14.0567
21 2 2.29107 1.5096 13.6502
22 2 6.17633 3.80591 13.2519
23 2 4.81889 1.64361 13.2302
24 2 5.30419 2.89323 10.5555
25 2 3.97839 0.664091 10.1705
26 2 2.61937 2.85348 10.3
27 2 1.39672 0.617695 10.701
28 2 1.28803 2.20904 7.74833
29 2 2.6533 4.46794 7.64198
30 2 3.92894 2.20898 6.85323
31 2 2.53693 0.0300353 6.96775
32 2 3.98133 3.69524 3.66284
33 2 2.79041 1.46507 4.09169
34 2 6.67277 3.8051 5.03497
35 2 5.47809 1.64031 4.79316
ITEM: TIMESTEP
300
ITEM: NUMBER OF ATOMS
35
ITEM: BOX BOUNDS xy xz yz pp pp pp
0.0000000000000000e+00 7.6685730000000003e+00 2.5561910000000001e+00
0.0000000000000000e+00 4.4274529999999999e+00 0.0000000000000000e+00
0.0000000000000000e+00 3.3699264999999997e+01 0.0000000000000000e+00
ITEM: ATOMS id type x y z
1 1 2.51331 1.08521 29.183
2 1 5.06083 3.01922 29.1762
3 1 2.86759 4.12539 29.4438
4 1 4.59563 1.42051 27.3476
5 1 1.54858 2.98188 27.238
6 1 1.32717 0.165649 27.2968
7 1 2.52021 1.42697 25.5866
8 1 4.90793 3.29218 25.4892
9 1 7.58241 4.40893 25.1197
10 1 6.1214 2.23294 23.8236
11 1 3.76459 2.54932 23.7303
12 1 5.46135 4.93101 23.6997
13 1 2.05779 1.72714 21.7819
14 1 4.92204 3.00098 21.3525
15 1 -0.00749166 0.183531 22.6477
16 2 5.9488 2.33413 16.1149
17 2 7.24752 4.46668 16.6596
18 2 3.39612 2.14327 17.4844
19 2 4.79129 4.16547 18.0587
20 2 3.92714 3.7064 14.8797
21 2 2.44646 1.54458 14.153
22 2 6.30883 3.62803 12.8576
23 2 4.84286 1.46992 13.0135
24 2 5.31734 2.82284 10.5968
25 2 3.78125 0.638914 9.45567
26 2 2.74697 2.8349 10.5053
27 2 1.39319 0.641196 11.525
28 2 1.30835 2.24699 8.19847
29 2 0.104599 0.0348995 7.54637
30 2 3.5841 2.32193 6.05291
31 2 2.39249 0.118135 6.11074
32 2 4.2196 3.71427 2.93121
33 2 3.03031 1.41639 3.20888
34 2 7.17242 3.59586 4.79394
35 2 5.63095 1.50827 4.54855
ITEM: TIMESTEP
400
ITEM: NUMBER OF ATOMS
35
ITEM: BOX BOUNDS xy xz yz pp pp pp
0.0000000000000000e+00 7.6685730000000003e+00 2.5561910000000001e+00
0.0000000000000000e+00 4.4274529999999999e+00 0.0000000000000000e+00
0.0000000000000000e+00 3.3699264999999997e+01 0.0000000000000000e+00
ITEM: ATOMS id type x y z
1 1 2.10066 1.56705 28.9844
2 1 4.91098 2.67922 29.0565
3 1 2.40525 4.20931 29.5215
4 1 4.23987 1.20881 27.375
5 1 6.81159 3.27402 27.5258
6 1 1.31071 -0.250146 27.4351
7 1 2.3754 1.63314 26.0181
8 1 5.20527 3.15233 25.6617
9 1 5.186 0.380726 24.8799
10 1 6.61085 2.41238 23.9067
11 1 3.60353 2.53984 23.505
12 1 2.69581 0.0388544 23.2829
13 1 2.29234 1.79993 21.3286
14 1 5.10525 2.89026 21.2814
15 1 5.2973 0.492242 22.2686
16 2 5.79216 2.13574 16.2541
17 2 4.18788 0.194993 16.6652
18 2 2.78714 2.34001 17.807
19 2 4.53987 4.36686 18.5828
20 2 3.97105 3.83858 15.2965
21 2 2.67375 1.5865 14.886
22 2 6.67878 3.49839 13.0784
23 2 4.53856 1.85983 13.0326
24 2 5.14656 2.5182 10.3449
25 2 3.32574 0.749033 9.17609
26 2 2.71264 3.1342 10.7927
27 2 2.00448 0.377141 12.1636
28 2 6.35428 2.23178 7.93761
29 2 0.228032 -0.0949856 7.06287
30 2 3.96001 2.00152 6.13299
31 2 2.51586 -0.0685228 5.47986
32 2 4.50942 3.60526 2.97621
33 2 3.40257 1.31919 2.81159
34 2 7.09993 3.70644 4.17438
35 2 5.79006 1.50886 4.35099
ITEM: TIMESTEP
500
ITEM: NUMBER OF ATOMS
35
ITEM: BOX BOUNDS xy xz yz pp pp pp
0.0000000000000000e+00 7.6685730000000003e+00 2.5561910000000001e+00
0.0000000000000000e+00 4.4274529999999999e+00 0.0000000000000000e+00
0.0000000000000000e+00 3.3699264999999997e+01 0.0000000000000000e+00
ITEM: ATOMS id type x y z
1 1 2.2472 1.51716 28.7371
2 1 4.81254 2.74282 29.3043
3 1 4.68368 0.323883 29.5473
4 1 4.39641 1.34369 27.1715
5 1 6.30474 3.28836 27.2695
6 1 3.87891 4.11489 27.3255
7 1 2.24575 1.38554 25.4916
8 1 4.896 3.16259 25.384
9 1 5.14822 0.358362 24.8795
10 1 6.39035 2.33925 23.0002
11 1 3.95414 2.19441 23.4723
12 1 2.71251 0.280353 23.1446
13 1 2.92355 1.77156 20.7532
14 1 5.15691 3.11863 20.9859
15 1 5.32028 0.418215 22.2492
16 2 5.31138 2.04556 16.5525
17 2 3.7492 -0.123587 16.8968
18 2 2.51412 2.64549 18.3713
19 2 4.2881 4.44833 18.4833
20 2 3.71124 4.12603 15.6154
21 2 2.86685 1.61322 15.2325
22 2 7.01961 3.61612 13.9905
23 2 4.71611 2.02849 12.9935
24 2 5.42264 1.82256 10.2166
25 2 2.79417 0.713849 8.72266
26 2 2.42066 3.74067 10.525
27 2 2.36373 0.479476 12.4168
28 2 6.23186 2.25775 7.26716
29 2 2.90339 4.14264 7.26114
30 2 3.86186 1.90652 6.10106
31 2 5.23413 4.20937 5.71381
32 2 4.82593 3.56653 2.93243
33 2 3.54447 1.2832 2.73805
34 2 2.45274 3.51367 3.80445
35 2 6.05396 1.51155 4.33585
ITEM: TIMESTEP
600
ITEM: NUMBER OF ATOMS
35
ITEM: BOX BOUNDS xy xz yz pp pp pp
0.0000000000000000e+00 7.6685730000000003e+00 2.5561910000000001e+00
0.0000000000000000e+00 4.4274529999999999e+00 0.0000000000000000e+00
0.0000000000000000e+00 3.3699264999999997e+01 0.0000000000000000e+00
ITEM: ATOMS id type x y z
1 1 2.50537 1.46657 28.1288
2 1 4.7795 3.19556 29.0453
3 1 4.49535 0.511669 28.6845
4 1 4.34661 1.73687 26.5014
5 1 6.25836 3.1909 27.0807
6 1 3.50732 4.00647 27.17
7 1 2.39636 1.66298 25.0691
8 1 4.85589 3.44229 25.0589
9 1 4.89285 -0.220694 24.8571
10 1 1.46916 2.44022 22.5684
11 1 4.13165 2.29215 22.917
12 1 2.44077 0.034222 22.924
13 1 3.51745 1.31345 20.9531
14 1 5.26111 3.47912 20.3046
15 1 2.77063 4.2416 21.6779
16 2 4.97128 2.00415 16.786
17 2 6.46423 4.1551 17.3144
18 2 2.35559 2.43042 18.9064
19 2 1.43275 0.139542 18.5808
20 2 3.78656 4.2119 15.6775
21 2 2.90407 1.74926 15.1891
22 2 6.65071 4.00235 13.8468
23 2 4.99669 2.04871 13.1883
24 2 5.54114 1.93977 10.0246
25 2 2.67143 0.588687 8.98527
26 2 2.29733 3.54077 10.6415
27 2 2.34365 0.814256 12.0364
28 2 6.087 2.29575 7.33264
29 2 3.02673 3.96362 7.7907
30 2 3.60486 1.98946 5.58361
31 2 5.30271 3.99725 5.55572
32 2 5.34422 3.30481 2.81051
33 2 3.74146 1.36679 2.9829
34 2 2.47392 3.68567 4.27597
35 2 1.09818 1.31699 4.68956
ITEM: TIMESTEP
700
ITEM: NUMBER OF ATOMS
35
ITEM: BOX BOUNDS xy xz yz pp pp pp
0.0000000000000000e+00 7.6685730000000003e+00 2.5561910000000001e+00
0.0000000000000000e+00 4.4274529999999999e+00 0.0000000000000000e+00
0.0000000000000000e+00 3.3699264999999997e+01 0.0000000000000000e+00
ITEM: ATOMS id type x y z
1 1 2.27603 1.40028 27.225
2 1 4.81343 3.42301 28.1498
3 1 4.70985 0.682 28.2554
4 1 4.36175 1.28487 25.92
5 1 6.22395 3.36643 26.403
6 1 3.4276 4.12596 26.3284
7 1 1.92893 1.70893 24.6613
8 1 4.77983 3.87243 24.4735
9 1 7.39717 4.20618 23.9128
10 1 1.38585 2.297 22.083
11 1 4.23631 1.77396 23.5214
12 1 2.69947 0.221782 22.3322
13 1 4.28597 0.676066 20.5361
14 1 5.4991 2.78633 19.7998
15 1 3.79044 3.8521 20.9236
16 2 5.14557 2.23587 16.9497
17 2 6.37682 4.40816 17.269
18 2 2.71003 2.03226 19.2836
19 2 0.792198 0.171822 18.5584
20 2 3.76143 4.29281 15.2287
21 2 2.33096 2.01568 14.9609
22 2 6.51767 4.22078 13.8723
23 2 5.15032 2.06635 13.2978
24 2 4.74135 2.40644 10.1663
25 2 3.16219 0.619589 9.24855
26 2 2.67263 3.4555 11.1089
27 2 2.24378 0.930619 11.8115
28 2 6.01227 1.97234 7.8185
29 2 2.96155 3.73195 7.98539
30 2 3.86121 1.72489 6.29089
31 2 5.18279 3.88797 5.88048
32 2 5.57558 3.10243 2.83228
33 2 3.43165 1.47485 3.2402
34 2 2.63301 3.76474 4.3932
35 2 1.25869 1.57224 4.95733
ITEM: TIMESTEP
800
ITEM: NUMBER OF ATOMS
35
ITEM: BOX BOUNDS xy xz yz pp pp pp
0.0000000000000000e+00 7.6685730000000003e+00 2.5561910000000001e+00
0.0000000000000000e+00 4.4274529999999999e+00 0.0000000000000000e+00
0.0000000000000000e+00 3.3699264999999997e+01 0.0000000000000000e+00
ITEM: ATOMS id type x y z
1 1 2.2137 1.46293 26.7598
2 1 4.65095 3.22383 27.7043
3 1 4.9206 0.811044 27.4377
4 1 4.30623 1.7495 25.3385
5 1 6.13688 3.64871 25.9758
6 1 3.36936 3.75621 25.6576
7 1 1.22186 1.7162 24.1258
8 1 5.19025 4.26635 23.8588
9 1 2.72923 3.78776 23.0066
10 1 1.38294 2.22679 21.3356
11 1 4.29006 1.92383 23.2053
12 1 3.04342 0.497607 21.7446
13 1 5.14626 0.155042 20.6417
14 1 5.549 2.83303 18.9707
15 1 4.23853 2.68933 21.1599
16 2 5.05606 2.24837 16.4122
17 2 3.26108 0.368971 16.8579
18 2 3.00976 1.54469 19.135
19 2 0.955795 0.0339599 18.2019
20 2 3.8147 4.19387 14.9928
21 2 2.24067 2.29484 14.9304
22 2 3.71522 0.152668 14.2255
23 2 4.94439 2.29274 13.0114
24 2 4.74736 2.5432 10.5924
25 2 3.2411 0.346871 9.11843
26 2 7.35736 4.12669 11.7668
27 2 2.29277 0.645982 12.0675
28 2 6.18682 1.86815 8.36411
29 2 3.02159 3.59885 8.03507
30 2 3.89741 1.42332 6.88165
31 2 5.07101 3.80545 6.38548
32 2 5.53122 3.00307 3.25557
33 2 3.1852 1.23063 3.61764
34 2 3.16363 3.93165 4.5265
35 2 1.23648 1.90473 5.44561
ITEM: TIMESTEP
900
ITEM: NUMBER OF ATOMS
35
ITEM: BOX BOUNDS xy xz yz pp pp pp
0.0000000000000000e+00 7.6685730000000003e+00 2.5561910000000001e+00
0.0000000000000000e+00 4.4274529999999999e+00 0.0000000000000000e+00
0.0000000000000000e+00 3.3699264999999997e+01 0.0000000000000000e+00
ITEM: ATOMS id type x y z
1 1 1.99908 1.55027 26.1881
2 1 4.13525 3.07547 27.3369
3 1 5.24544 0.324208 27.4793
4 1 4.27254 1.76053 25.3352
5 1 5.98696 3.67354 25.7572
6 1 3.49358 4.28537 24.977
7 1 1.89114 2.07674 23.7824
8 1 3.13766 -0.182094 23.4873
9 1 2.86486 4.00567 22.6624
10 1 1.76655 2.36092 21.0691
11 1 4.33467 2.05425 22.8204
12 1 2.81458 -0.15449 20.9048
13 1 0.188498 0.0216245 20.2731
14 1 6.27367 3.06559 18.5666
15 1 4.25388 2.28436 20.6517
16 2 4.93584 2.12654 16.0802
17 2 2.99899 0.438862 16.8003
18 2 3.286 1.33177 18.8636
19 2 3.22211 4.03217 17.7491
20 2 3.64739 4.46803 14.7716
21 2 2.12754 2.4364 14.8057
22 2 3.76624 0.442324 14.2977
23 2 4.81946 2.62522 13.3223
24 2 4.48996 2.43963 10.6251
25 2 3.32731 0.210533 9.50316
26 2 7.20296 3.95171 12.0829
27 2 1.97172 1.19225 11.8593
28 2 1.15158 1.7123 8.77556
29 2 3.04829 3.622 8.1834
30 2 4.22493 1.4952 6.54941
31 2 5.05941 4.08777 6.66731
32 2 5.45958 2.60456 3.83345
33 2 3.33818 0.950495 4.25783
34 2 2.97634 4.00705 4.71137
35 2 1.63913 1.85306 6.06214
ITEM: TIMESTEP
1000
ITEM: NUMBER OF ATOMS
35
ITEM: BOX BOUNDS xy xz yz pp pp pp
0.0000000000000000e+00 7.6685730000000003e+00 2.5561910000000001e+00
0.0000000000000000e+00 4.4274529999999999e+00 0.0000000000000000e+00
0.0000000000000000e+00 3.3699264999999997e+01 0.0000000000000000e+00
ITEM: ATOMS id type x y z
1 1 1.95181 1.58141 26.2004
2 1 4.0031 2.74949 26.9358
3 1 4.90086 0.402863 27.0802
4 1 4.59916 1.42849 25.1657
5 1 5.95049 3.912 25.6463
6 1 3.45844 4.08098 24.7159
7 1 2.18462 2.33547 23.717
8 1 5.61218 4.28702 23.3924
9 1 3.523 4.6333 22.1666
10 1 2.04719 2.25825 21.2533
11 1 4.68544 1.81632 22.9083
12 1 3.27026 0.247072 20.9531
13 1 0.621715 -0.0210848 19.6224
14 1 5.82704 1.93361 18.698
15 1 4.79556 2.59636 20.7587
16 2 4.85198 2.13111 16.4473
17 2 2.8629 0.300521 16.3836
18 2 3.30306 1.42078 18.7627
19 2 2.79385 3.65269 17.2705
20 2 0.848707 0.412763 14.6175
21 2 1.99238 2.76752 14.9294
22 2 3.50832 0.68781 13.6193
23 2 4.81237 2.80428 13.1407
24 2 3.99808 2.54441 10.7326
25 2 3.48307 0.263311 9.45759
26 2 2.16496 4.03069 11.5964
27 2 1.65146 1.17327 11.7572
28 2 1.11758 1.69599 9.24471
29 2 3.09894 3.43518 8.51952
30 2 4.69013 1.34802 6.94833
31 2 5.37582 4.00572 6.98912
32 2 5.50007 2.20573 4.35715
33 2 2.97746 0.728476 4.19472
34 2 3.04336 3.91812 4.99256
35 2 2.17157 2.21023 6.57001
ITEM: TIMESTEP
1100
ITEM: NUMBER OF ATOMS
35
ITEM: BOX BOUNDS xy xz yz pp pp pp
0.0000000000000000e+00 7.6685730000000003e+00 2.5561910000000001e+00
0.0000000000000000e+00 4.4274529999999999e+00 0.0000000000000000e+00
0.0000000000000000e+00 3.3699264999999997e+01 0.0000000000000000e+00
ITEM: ATOMS id type x y z
1 1 2.0153 1.35293 26.0743
2 1 3.83043 2.99391 27.1076
3 1 4.9111 0.420431 27.1025
4 1 4.62369 1.47296 25.029
5 1 5.96961 3.51756 25.865
6 1 3.61533 3.80663 24.5327
7 1 1.83378 2.02208 23.7244
8 1 3.50609 -0.0546525 23.3378
9 1 1.42491 0.0877979 22.0835
10 1 2.45226 2.46017 21.2511
11 1 4.59999 2.30138 22.8196
12 1 4.40727 0.475926 21.0738
13 1 3.4057 4.22091 19.1811
14 1 5.97786 2.40375 18.5788
15 1 5.25903 2.80226 20.6673
16 2 4.78081 1.98376 16.3233
17 2 2.50272 0.39218 16.2305
18 2 3.32482 1.18957 18.7812
19 2 2.36148 3.59785 17.2377
20 2 0.620756 0.471667 14.2518
21 2 1.89804 2.84241 14.6417
22 2 3.32175 1.18728 13.6146
23 2 4.89567 3.18877 13.3568
24 2 4.15608 2.55395 11.0508
25 2 3.19195 0.336934 9.12605
26 2 6.86026 4.01684 11.4735
27 2 1.43172 0.952061 11.8238
28 2 6.21176 1.89257 9.4441
29 2 3.43922 3.64645 8.67755
30 2 5.13497 0.928243 7.1434
31 2 5.20726 3.65889 6.69988
32 2 5.47625 2.2186 4.78991
33 2 2.91217 0.711423 4.3056
34 2 3.21706 3.81396 5.08555
35 2 2.48742 1.98814 6.74909
ITEM: TIMESTEP
1200
ITEM: NUMBER OF ATOMS
35
ITEM: BOX BOUNDS xy xz yz pp pp pp
0.0000000000000000e+00 7.6685730000000003e+00 2.5561910000000001e+00
0.0000000000000000e+00 4.4274529999999999e+00 0.0000000000000000e+00
0.0000000000000000e+00 3.3699264999999997e+01 0.0000000000000000e+00
ITEM: ATOMS id type x y z
1 1 2.30203 0.701172 26.1165
2 1 3.68861 2.95555 26.7285
3 1 5.08497 0.76411 27.4152
4 1 4.41321 1.52765 25.0646
5 1 6.35213 3.09087 25.7103
6 1 3.34968 4.0628 24.8324
7 1 1.73194 1.72444 23.8247
8 1 6.59994 4.17451 23.2905
9 1 1.92646 0.273921 21.8016
10 1 3.16289 2.27379 21.0386
11 1 4.39887 2.57039 22.9962
12 1 4.97077 0.650715 21.1702
13 1 1.25589 -0.0853457 19.3285
14 1 5.6407 2.4685 18.4172
15 1 5.94361 3.26858 20.7438
16 2 4.28054 2.08235 16.1847
17 2 1.95508 0.458761 16.5594
18 2 3.57773 0.973388 18.8226
19 2 2.29615 3.7846 17.1968
20 2 0.570256 0.635163 14.1409
21 2 1.65638 2.85675 15.0785
22 2 3.47324 1.45821 13.7254
23 2 4.97534 3.53819 13.5155
24 2 3.83357 2.24023 11.349
25 2 3.4165 0.708761 9.21792
26 2 6.68565 3.51206 11.6764
27 2 1.20805 0.947164 11.4633
28 2 6.07941 2.4802 9.04078
29 2 3.4591 3.46728 9.0046
30 2 5.08687 0.732617 6.89703
31 2 5.52643 3.55143 6.84291
32 2 5.65139 1.92302 4.09611
33 2 3.3307 0.857757 4.49164
34 2 2.72369 3.55167 4.63906
35 2 2.59625 1.76364 6.84663
ITEM: TIMESTEP
1300
ITEM: NUMBER OF ATOMS
35
ITEM: BOX BOUNDS xy xz yz pp pp pp
0.0000000000000000e+00 7.6685730000000003e+00 2.5561910000000001e+00
0.0000000000000000e+00 4.4274529999999999e+00 0.0000000000000000e+00
0.0000000000000000e+00 3.3699264999999997e+01 0.0000000000000000e+00
ITEM: ATOMS id type x y z
1 1 2.79971 0.464943 26.5113
2 1 3.44969 2.89086 27.1657
3 1 5.41381 1.02009 26.9225
4 1 4.27784 1.44071 24.9692
5 1 6.38135 2.74604 25.9723
6 1 3.41809 3.87856 24.5733
7 1 2.25757 1.5543 23.8804
8 1 6.70698 3.83425 23.1404
9 1 2.63525 0.677757 21.4939
10 1 3.39653 2.79467 21.2805
11 1 4.7073 2.71736 23.0076
12 1 5.15619 0.924175 21.2254
13 1 4.53175 4.22812 19.3741
14 1 5.58097 2.13865 18.3397
15 1 6.19385 2.97739 20.6682
16 2 3.99671 2.17267 16.2179
17 2 1.93806 0.638474 16.9441
18 2 3.47094 1.36552 19.1825
19 2 2.35496 3.80302 17.8992
20 2 5.28599 0.653362 14.1584
21 2 6.48041 3.25992 15.5885
22 2 2.54868 1.67566 13.7451
23 2 4.81434 3.35443 13.5094
24 2 3.97673 2.13431 11.4654
25 2 3.76579 0.638176 9.14886
26 2 6.80477 3.59245 11.8378
27 2 1.24783 0.561068 11.1977
28 2 5.95937 2.36658 9.22632
29 2 3.5074 3.9036 8.92779
30 2 0.286489 0.360391 6.52841
31 2 5.15766 3.44761 6.28357
32 2 6.01051 1.84106 3.6509
33 2 2.98827 0.472332 4.31124
34 2 3.13724 3.38909 4.12036
35 2 2.52328 2.09063 6.82978
ITEM: TIMESTEP
1400
ITEM: NUMBER OF ATOMS
35
ITEM: BOX BOUNDS xy xz yz pp pp pp
0.0000000000000000e+00 7.6685730000000003e+00 2.5561910000000001e+00
0.0000000000000000e+00 4.4274529999999999e+00 0.0000000000000000e+00
0.0000000000000000e+00 3.3699264999999997e+01 0.0000000000000000e+00
ITEM: ATOMS id type x y z
1 1 2.80864 0.296217 26.7766
2 1 3.66442 2.51982 26.9695
3 1 5.48674 0.654477 27.0798
4 1 4.33328 1.18372 25.0602
5 1 6.61254 3.02315 25.3618
6 1 4.0676 3.85568 25.0686
7 1 2.08996 1.23461 23.9812
8 1 7.40701 4.24142 23.2992
9 1 2.69877 0.796144 21.8375
10 1 3.80629 3.05362 21.9335
11 1 5.46552 2.45368 23.209
12 1 5.0739 1.03456 20.7429
13 1 4.80767 4.21169 19.209
14 1 5.68783 2.01208 18.4963
15 1 6.43467 2.96259 20.7738
16 2 3.97674 2.27319 16.5131
17 2 1.6963 0.674609 16.5909
18 2 3.22193 1.9278 19.5904
19 2 2.139 4.05976 18.4792
20 2 4.55418 0.579637 14.047
21 2 6.34755 3.68768 16.2125
22 2 1.87881 1.73663 14.0508
23 2 4.44871 3.29495 13.9896
24 2 4.19164 2.00421 11.2101
25 2 3.60637 0.498982 8.36429
26 2 6.80153 3.68392 11.7854
27 2 1.96778 0.491665 11.4938
28 2 6.24624 2.19492 9.26051
29 2 3.77538 3.85115 8.58672
30 2 0.150735 0.528908 5.82947
31 2 4.9904 2.95809 6.22197
32 2 5.8327 1.94874 3.87249
33 2 3.26997 0.380796 3.88774
34 2 3.48386 3.14212 3.71295
35 2 2.43313 2.06753 6.62675
ITEM: TIMESTEP
1500
ITEM: NUMBER OF ATOMS
35
ITEM: BOX BOUNDS xy xz yz pp pp pp
0.0000000000000000e+00 7.6685730000000003e+00 2.5561910000000001e+00
0.0000000000000000e+00 4.4274529999999999e+00 0.0000000000000000e+00
0.0000000000000000e+00 3.3699264999999997e+01 0.0000000000000000e+00
ITEM: ATOMS id type x y z
1 1 2.87013 -0.0727373 27.1458
2 1 3.76688 2.57999 27.3092
3 1 0.535111 0.494932 27.2536
4 1 4.83266 0.977304 25.3736
5 1 6.82156 3.15195 25.6894
6 1 4.01516 3.24938 24.6186
7 1 2.56769 1.02358 24.4117
8 1 7.69938 4.6434 23.2885
9 1 2.71583 0.805637 21.9655
10 1 3.92132 2.8744 21.8501
11 1 6.03373 2.53864 23.3745
12 1 5.9061 0.802471 21.0784
13 1 4.24589 4.06801 18.6374
14 1 5.91146 2.45178 18.9499
15 1 6.58348 3.37018 21.0925
16 2 3.72167 2.09402 16.9815
17 2 0.981029 0.785617 16.5475
18 2 3.05718 2.2808 19.532
19 2 7.03369 4.7306 18.9043
20 2 4.10608 0.62249 13.7302
21 2 6.68287 3.41019 16.3795
22 2 1.69782 2.07673 14.0547
23 2 3.93153 3.59201 14.13
24 2 4.38203 1.99146 10.9814
25 2 3.99054 0.528167 8.25863
26 2 7.24181 3.35928 11.2567
27 2 1.98906 0.439054 11.6407
28 2 6.55441 2.11454 9.06187
29 2 3.62994 3.54405 8.76187
30 2 4.99252 -0.0723434 5.77305
31 2 4.96768 3.2902 6.39521
32 2 6.14122 2.0866 3.70254
33 2 3.4533 0.416178 3.70596
34 2 3.38856 3.13464 3.56744
35 2 2.20825 1.76276 6.17398
ITEM: TIMESTEP
1600
ITEM: NUMBER OF ATOMS
35
ITEM: BOX BOUNDS xy xz yz pp pp pp
0.0000000000000000e+00 7.6685730000000003e+00 2.5561910000000001e+00
0.0000000000000000e+00 4.4274529999999999e+00 0.0000000000000000e+00
0.0000000000000000e+00 3.3699264999999997e+01 0.0000000000000000e+00
ITEM: ATOMS id type x y z
1 1 5.81001 4.41967 27.0924
2 1 4.14336 2.20287 27.0881
3 1 0.800307 0.464648 27.8938
4 1 5.44873 1.21178 25.4198
5 1 1.91931 2.61128 26.3337
6 1 3.82906 3.00868 24.6366
7 1 2.97128 0.443062 24.9521
8 1 5.19611 0.312848 23.0732
9 1 2.83472 1.22339 22.5303
10 1 4.44996 3.04926 22.1505
11 1 6.51751 2.58285 23.7954
12 1 1.04254 1.0984 20.9279
13 1 1.93393 0.513883 18.4707
14 1 5.56579 2.45306 18.5106
15 1 6.3851 3.68821 21.3319
16 2 3.36386 1.9759 16.7334
17 2 0.765998 0.758713 16.1573
18 2 2.91343 2.60766 19.7947
19 2 4.46254 0.215158 19.1394
20 2 3.91222 0.786399 13.6482
21 2 6.05065 3.64299 16.4693
22 2 1.21358 2.35924 13.6355
23 2 3.8913 3.65353 14.1517
24 2 4.88173 1.79516 11.1379
25 2 4.01528 0.749895 8.63988
26 2 2.20016 3.30343 11.1922
27 2 1.87271 0.436804 11.523
28 2 1.45284 1.73831 8.46713
29 2 4.0022 3.57162 8.87513
30 2 7.47019 4.27283 6.09417
31 2 4.96004 2.97608 6.19932
32 2 6.07031 1.89368 3.71508
33 2 3.31786 0.376494 3.50336
34 2 3.67979 3.59978 3.66248
35 2 2.30518 1.20912 6.03824
ITEM: TIMESTEP
1700
ITEM: NUMBER OF ATOMS
35
ITEM: BOX BOUNDS xy xz yz pp pp pp
0.0000000000000000e+00 7.6685730000000003e+00 2.5561910000000001e+00
0.0000000000000000e+00 4.4274529999999999e+00 0.0000000000000000e+00
0.0000000000000000e+00 3.3699264999999997e+01 0.0000000000000000e+00
ITEM: ATOMS id type x y z
1 1 6.04077 4.61573 27.7607
2 1 5.06932 2.5217 27.047
3 1 1.07366 0.197382 27.567
4 1 5.44223 0.104406 25.5464
5 1 2.46946 2.37001 26.8895
6 1 4.05589 2.53148 24.9541
7 1 2.99855 0.403638 24.8418
8 1 0.425566 0.870778 23.2168
9 1 2.81927 1.44051 22.7317
10 1 4.39527 3.31874 22.5186
11 1 6.50413 2.56689 24.5103
12 1 0.924411 1.29359 20.6401
13 1 1.86933 0.512133 18.5055
14 1 5.22143 2.69104 18.5972
15 1 6.45644 4.15019 21.4902
16 2 2.79656 2.56412 16.3806
17 2 0.471313 1.0719 15.7822
18 2 3.54515 2.45184 20.2783
19 2 4.2176 0.162555 18.59
20 2 3.59946 0.891388 13.7551
21 2 5.40191 3.9206 16.0425
22 2 6.21257 2.43696 13.5917
23 2 3.66483 3.54861 13.7689
24 2 4.83644 1.78056 11.2475
25 2 3.82231 0.702676 9.04471
26 2 2.17172 3.22351 11.1008
27 2 2.5373 0.211656 11.3132
28 2 1.38798 2.09196 8.25564
29 2 4.39046 3.52461 8.71395
30 2 7.45204 4.01595 6.46606
31 2 4.83461 2.20069 6.12796
32 2 5.93878 2.01609 3.87164
33 2 3.83209 0.551325 3.6187
34 2 3.46224 3.48095 4.09332
35 2 2.62586 0.967983 5.81816
ITEM: TIMESTEP
1800
ITEM: NUMBER OF ATOMS
35
ITEM: BOX BOUNDS xy xz yz pp pp pp
0.0000000000000000e+00 7.6685730000000003e+00 2.5561910000000001e+00
0.0000000000000000e+00 4.4274529999999999e+00 0.0000000000000000e+00
0.0000000000000000e+00 3.3699264999999997e+01 0.0000000000000000e+00
ITEM: ATOMS id type x y z
1 1 4.49745 0.421403 27.4406
2 1 5.62515 2.59374 27.1617
3 1 4.11746 4.37383 27.8075
4 1 2.63447 4.42279 25.25
5 1 2.88284 2.37266 27.2615
6 1 4.11882 2.11927 24.9673
7 1 2.361 -0.0304621 25.7887
8 1 5.01264 1.0084 22.6472
9 1 2.56144 2.02304 22.7739
10 1 5.04676 3.863 23.1476
11 1 1.59173 2.34268 24.9842
12 1 6.22071 1.30866 20.5393
13 1 1.80438 0.654698 18.0965
14 1 5.18352 2.70974 17.9358
15 1 6.72743 3.86919 20.6159
16 2 2.5314 2.93527 16.5344
17 2 4.9945 1.32393 15.8137
18 2 3.62347 2.3124 20.3784
19 2 4.28123 0.274499 18.1766
20 2 3.3486 0.867647 13.6853
21 2 4.88775 4.23263 15.8696
22 2 6.31165 2.32083 13.5837
23 2 3.38106 4.01802 13.3008
24 2 4.9848 1.75401 11.3912
25 2 4.16179 0.786252 8.71756
26 2 2.67808 2.99032 10.8498
27 2 2.42076 0.149879 11.1869
28 2 1.61499 1.97581 8.86626
29 2 4.12135 3.62633 8.60792
30 2 2.28231 3.49947 6.68972
31 2 4.82592 2.02607 6.42343
32 2 6.34372 2.36494 3.91519
33 2 3.89923 0.574399 3.67878
34 2 3.59022 3.3227 4.26137
35 2 2.19358 0.447533 6.07071
ITEM: TIMESTEP
1900
ITEM: NUMBER OF ATOMS
35
ITEM: BOX BOUNDS xy xz yz pp pp pp
0.0000000000000000e+00 7.6685730000000003e+00 2.5561910000000001e+00
0.0000000000000000e+00 4.4274529999999999e+00 0.0000000000000000e+00
0.0000000000000000e+00 3.3699264999999997e+01 0.0000000000000000e+00
ITEM: ATOMS id type x y z
1 1 4.56504 0.147203 27.0595
2 1 5.90438 2.2451 27.4781
3 1 2.43962 0.335476 28.2454
4 1 5.06245 -0.116371 24.3786
5 1 3.36774 2.4924 27.3876
6 1 3.63887 2.22662 24.9755
7 1 5.40173 4.19932 25.6136
8 1 4.57148 0.847326 22.0683
9 1 2.4604 2.81217 22.5141
10 1 5.31035 4.04229 23.0855
11 1 1.14245 1.90272 24.9964
12 1 1.66707 0.635204 20.9568
13 1 1.67457 1.46323 18.3116
14 1 4.79355 3.24643 18.0627
15 1 6.01557 3.53587 20.5939
16 2 2.3958 2.63706 16.3099
17 2 4.61666 1.43174 15.8356
18 2 3.68163 2.48439 20.1243
19 2 4.49602 0.461369 18.3627
20 2 3.54698 1.1865 13.2893
21 2 4.5521 4.53054 15.782
22 2 6.01737 2.70639 13.774
23 2 3.43613 4.06158 13.5491
24 2 5.25536 1.50647 11.164
25 2 4.09827 0.56462 8.75344
26 2 2.72682 3.07677 11.1571
27 2 2.69012 0.0682342 11.0429
28 2 1.44864 1.89672 9.02366
29 2 4.24942 3.50814 8.65693
30 2 1.93185 3.1676 6.40234
31 2 4.90067 1.64518 6.30242
32 2 6.37255 2.15099 4.15845
33 2 3.79298 0.716034 4.16942
34 2 4.03238 3.51996 4.02455
35 2 2.16947 0.345797 6.36143
ITEM: TIMESTEP
2000
ITEM: NUMBER OF ATOMS
35
ITEM: BOX BOUNDS xy xz yz pp pp pp
0.0000000000000000e+00 7.6685730000000003e+00 2.5561910000000001e+00
0.0000000000000000e+00 4.4274529999999999e+00 0.0000000000000000e+00
0.0000000000000000e+00 3.3699264999999997e+01 0.0000000000000000e+00
ITEM: ATOMS id type x y z
1 1 5.2284 0.0450102 26.3529
2 1 6.41165 2.2092 27.3322
3 1 2.96519 0.400692 27.5416
4 1 7.19506 4.38063 24.1658
5 1 4.07536 2.66032 27.1117
6 1 3.56578 2.00069 24.6726
7 1 4.79173 4.21289 25.4201
8 1 4.37303 1.00992 21.6383
9 1 2.65457 2.6344 22.4073
10 1 4.89811 3.35886 23.1892
11 1 6.11961 1.83863 24.9355
12 1 1.55769 0.613171 21.0098
13 1 1.51281 1.90938 18.5433
14 1 4.93028 3.4815 18.3722
15 1 6.00954 2.99515 20.6444
16 2 2.0501 3.25242 16.1721
17 2 4.59475 1.36879 15.968
18 2 3.44178 2.71457 19.831
19 2 4.67641 0.377373 18.661
20 2 3.39482 1.43506 13.3416
21 2 2.13011 0.47706 16.0362
22 2 5.98527 3.12696 13.926
23 2 3.43408 4.06879 13.7901
24 2 5.48457 1.35498 11.1677
25 2 4.00266 0.326266 8.80914
26 2 2.65779 2.98946 11.2689
27 2 5.32876 4.13318 11.2398
28 2 1.64591 2.11304 8.58974
29 2 3.99608 3.014 8.76399
30 2 2.26336 3.15243 6.27208
31 2 4.75998 1.54363 6.5892
32 2 1.3539 1.89219 3.88357
33 2 3.74044 0.615707 4.08662
34 2 3.90134 3.74902 4.02615
35 2 2.24428 0.204134 6.66035
ITEM: TIMESTEP
2100
ITEM: NUMBER OF ATOMS
35
ITEM: BOX BOUNDS xy xz yz pp pp pp
0.0000000000000000e+00 7.6685730000000003e+00 2.5561910000000001e+00
0.0000000000000000e+00 4.4274529999999999e+00 0.0000000000000000e+00
0.0000000000000000e+00 3.3699264999999997e+01 0.0000000000000000e+00
ITEM: ATOMS id type x y z
1 1 0.511484 0.232148 26.0199
2 1 2.27191 2.5345 26.7977
3 1 3.13522 0.160584 26.7544
4 1 6.876 4.42595 23.66
5 1 4.95048 2.47868 26.7054
6 1 3.30802 1.85776 25.0472
7 1 4.57781 4.17891 24.4634
8 1 4.39692 0.649263 21.4088
9 1 2.20387 1.966 22.5511
10 1 4.45948 2.54901 22.5977
11 1 5.90286 2.14626 24.6218
12 1 1.91753 0.662678 20.4511
13 1 1.57926 1.77917 18.5136
14 1 5.15106 3.56635 18.1878
15 1 5.7615 2.9153 20.5701
16 2 2.30588 3.72036 16.6774
17 2 4.66051 2.35819 16.1598
18 2 3.10447 2.72916 19.8072
19 2 4.55354 0.626502 19.0818
20 2 3.19941 1.47672 13.7825
21 2 2.26127 0.595974 15.9265
22 2 5.92173 2.89175 13.8256
23 2 3.2253 4.6893 13.8498
24 2 5.53223 1.14441 11.3627
25 2 4.18647 0.182608 9.03369
26 2 2.74019 2.47569 11.25
27 2 5.08225 3.92481 11.493
28 2 1.40717 1.53324 8.72145
29 2 4.03802 3.31272 9.09523
30 2 2.36513 2.98285 6.22796
31 2 4.90516 1.744 6.36694
32 2 1.1664 2.14606 3.81043
33 2 3.89621 0.567724 3.87012
34 2 3.83264 3.45346 3.9189
35 2 2.37251 -0.0677331 6.57353
ITEM: TIMESTEP
2200
ITEM: NUMBER OF ATOMS
35
ITEM: BOX BOUNDS xy xz yz pp pp pp
0.0000000000000000e+00 7.6685730000000003e+00 2.5561910000000001e+00
0.0000000000000000e+00 4.4274529999999999e+00 0.0000000000000000e+00
0.0000000000000000e+00 3.3699264999999997e+01 0.0000000000000000e+00
ITEM: ATOMS id type x y z
1 1 0.809063 0.246424 25.9269
2 1 2.60669 2.68044 26.7882
3 1 3.30872 0.362777 25.9813
4 1 7.29262 4.08103 24.0445
5 1 5.01986 2.15205 27.052
6 1 3.33945 2.07461 24.3742
7 1 4.60448 4.31439 23.6839
8 1 4.60549 0.00464736 21.6541
9 1 1.37372 1.7956 22.3166
10 1 3.99579 2.47105 22.0671
11 1 5.94318 2.37239 24.4505
12 1 2.35004 0.338293 20.6989
13 1 1.47853 1.95359 17.8517
14 1 4.64912 4.24081 18.3468
15 1 5.80895 2.38202 20.3957
16 2 2.47949 3.9911 16.8397
17 2 4.72907 2.44025 16.2899
18 2 2.96072 2.87669 20.0588
19 2 4.13213 0.969533 18.7406
20 2 3.53187 1.96135 13.7305
21 2 2.56463 0.889155 15.9888
22 2 5.99465 2.98627 14.0267
23 2 0.385363 -0.0231901 14.0512
24 2 4.96056 0.939861 11.4456
25 2 4.00024 0.00840517 9.09359
26 2 2.5376 2.1814 11.3369
27 2 5.40389 3.88577 11.6019
28 2 1.42297 1.63503 9.09057
29 2 4.27679 3.08718 8.93511
30 2 2.24674 2.79102 6.71107
31 2 4.94855 1.29127 6.16243
32 2 6.44077 2.16944 4.08079
33 2 3.77413 0.608038 3.95833
34 2 3.94965 3.56187 3.60395
35 2 5.06503 4.45941 6.04243
ITEM: TIMESTEP
2300
ITEM: NUMBER OF ATOMS
35
ITEM: BOX BOUNDS xy xz yz pp pp pp
0.0000000000000000e+00 7.6685730000000003e+00 2.5561910000000001e+00
0.0000000000000000e+00 4.4274529999999999e+00 0.0000000000000000e+00
0.0000000000000000e+00 3.3699264999999997e+01 0.0000000000000000e+00
ITEM: ATOMS id type x y z
1 1 1.52777 -0.00899354 26.203
2 1 2.25506 2.37178 26.469
3 1 3.82574 0.0393419 26.2566
4 1 7.70219 4.59811 24.1998
5 1 4.64948 2.35083 27.2053
6 1 3.28134 2.10543 24.4981
7 1 5.06335 4.38124 23.4337
8 1 7.64577 4.42194 21.728
9 1 1.45576 2.32072 22.758
10 1 3.76732 2.37651 22.2021
11 1 5.61606 2.33857 24.8355
12 1 2.42717 0.405137 20.7972
13 1 6.07427 2.74471 18.1693
14 1 4.20404 4.31314 18.2473
15 1 5.22413 2.25103 20.5394
16 2 2.5254 3.80002 16.4326
17 2 4.97567 2.22958 16.2983
18 2 2.66352 3.27034 19.8327
19 2 3.77907 1.01008 18.405
20 2 3.7277 1.76078 13.5814
21 2 2.62009 0.865855 15.8469
22 2 6.15084 3.15892 14.1484
23 2 0.953918 0.275249 14.1475
24 2 5.15151 0.805767 11.5537
25 2 3.88438 0.107728 8.73989
26 2 2.42749 2.62549 11.399
27 2 4.89404 3.74098 11.541
28 2 1.51166 1.3451 9.00744
29 2 4.07051 2.69794 8.72937
30 2 2.51562 2.77021 6.61353
31 2 4.98856 1.10366 6.54426
32 2 1.57074 2.15704 4.2483
33 2 3.86992 0.6565 3.66102
34 2 3.66062 3.70574 4.06198
35 2 4.79858 4.2324 6.3259
ITEM: TIMESTEP
2400
ITEM: NUMBER OF ATOMS
35
ITEM: BOX BOUNDS xy xz yz pp pp pp
0.0000000000000000e+00 7.6685730000000003e+00 2.5561910000000001e+00
0.0000000000000000e+00 4.4274529999999999e+00 0.0000000000000000e+00
0.0000000000000000e+00 3.3699264999999997e+01 0.0000000000000000e+00
ITEM: ATOMS id type x y z
1 1 4.14415 4.13372 26.2803
2 1 1.78619 1.8168 27.1739
3 1 4.33612 0.169044 26.7548
4 1 0.295246 0.232895 24.532
5 1 4.52144 2.24399 27.6951
6 1 3.20944 1.80244 24.9982
7 1 2.69324 0.153185 23.0142
8 1 5.02742 0.518759 22.3246
9 1 6.54798 2.61778 22.8785
10 1 3.85263 2.59756 22.2163
11 1 5.75483 3.10731 25.2211
12 1 2.48786 0.624349 20.4948
13 1 5.43169 2.89881 18.0038
14 1 0.910271 0.558264 18.1561
15 1 5.49491 2.52444 20.4584
16 2 2.54423 3.25396 16.239
17 2 5.01776 2.20129 15.6846
18 2 2.74132 3.46971 19.8825
19 2 3.73009 1.20685 18.5442
20 2 3.66418 1.5598 13.6448
21 2 2.49811 0.62918 16.2757
22 2 6.58039 3.35527 13.5339
23 2 1.38512 0.350151 13.4786
24 2 5.04965 1.19279 11.2348
25 2 6.53576 4.10302 8.97794
26 2 2.23924 2.56146 11.2783
27 2 4.93583 3.9154 11.2496
28 2 1.25427 1.05912 8.86179
29 2 3.91341 2.82136 9.10912
30 2 2.52648 2.45227 6.47495
31 2 4.95894 1.33182 6.3516
32 2 6.09695 2.06804 4.16618
33 2 3.87026 0.717311 4.1423
34 2 3.79114 3.66231 4.39162
35 2 5.27104 4.03777 6.6626
ITEM: TIMESTEP
2500
ITEM: NUMBER OF ATOMS
35
ITEM: BOX BOUNDS xy xz yz pp pp pp
0.0000000000000000e+00 7.6685730000000003e+00 2.5561910000000001e+00
0.0000000000000000e+00 4.4274529999999999e+00 0.0000000000000000e+00
0.0000000000000000e+00 3.3699264999999997e+01 0.0000000000000000e+00
ITEM: ATOMS id type x y z
1 1 4.26666 4.16104 26.363
2 1 1.80778 2.02188 27.5928
3 1 4.27016 -0.0433652 27.3221
4 1 0.142791 0.482935 24.5713
5 1 4.34663 2.20403 27.8899
6 1 3.28903 1.70382 25.5786
7 1 2.34525 0.640606 23.5281
8 1 4.6932 0.612549 21.7358
9 1 1.5851 2.8456 23.0251
10 1 4.10597 2.89517 22.4589
11 1 6.0866 2.59602 25.4303
12 1 2.15791 0.710684 20.9801
13 1 5.44496 3.53047 18.336
14 1 1.13295 1.16943 18.2125
15 1 5.58132 2.41999 20.3279
16 2 2.52169 3.39628 16.5645
17 2 5.38677 1.8656 15.6151
18 2 2.76139 3.47551 19.9187
19 2 3.65686 1.55235 18.6008
20 2 3.71703 1.93021 13.3196
21 2 2.63814 0.427681 15.5264
22 2 6.42319 3.35887 13.5315
23 2 1.16187 0.0474366 13.5077
24 2 4.88708 1.26125 11.0793
25 2 6.5843 3.87067 9.01455
26 2 2.36016 2.27184 11.1415
27 2 5.12344 4.22467 11.1928
28 2 1.33745 1.24729 8.73644
29 2 3.92181 2.50533 8.74441
30 2 2.48143 2.47468 6.4884
31 2 5.14518 1.10722 6.56839
32 2 6.10911 2.19566 3.80936
33 2 3.38941 0.509261 4.44382
34 2 3.71831 3.59834 4.47363
35 2 5.32337 3.94341 6.80094
ITEM: TIMESTEP
2600
ITEM: NUMBER OF ATOMS
35
ITEM: BOX BOUNDS xy xz yz pp pp pp
0.0000000000000000e+00 7.6685730000000003e+00 2.5561910000000001e+00
0.0000000000000000e+00 4.4274529999999999e+00 0.0000000000000000e+00
0.0000000000000000e+00 3.3699264999999997e+01 0.0000000000000000e+00
ITEM: ATOMS id type x y z
1 1 4.08344 4.32714 26.4437
2 1 1.88099 1.65378 27.9214
3 1 6.76778 4.27064 27.1474
4 1 4.82479 0.334058 24.2696
5 1 4.57324 2.58094 28.0219
6 1 3.53079 2.07873 25.7529
7 1 2.57485 0.562518 24.2199
8 1 4.06214 1.17112 21.718
9 1 6.77475 3.24796 22.7314
10 1 3.93418 3.32189 23.1869
11 1 5.94717 2.35307 25.6741
12 1 2.01919 0.249964 20.9225
13 1 5.37054 3.62759 18.2904
14 1 1.36273 1.1999 18.4727
15 1 5.63347 2.5939 20.6291
16 2 2.88665 3.60162 16.8382
17 2 5.38365 1.66671 16.1324
18 2 2.70706 3.7498 19.6948
19 2 3.92898 1.57126 18.1969
20 2 3.73373 1.95129 13.4868
21 2 3.06254 0.660199 15.5989
22 2 6.109 2.96636 13.6865
23 2 0.639808 0.41688 13.6464
24 2 5.27718 0.995173 11.1954
25 2 6.7982 4.05682 8.92536
26 2 2.38992 2.89218 11.235
27 2 4.8065 3.72647 11.2124
28 2 1.80856 0.940025 9.00012
29 2 4.17283 2.09564 8.41759
30 2 2.19991 2.42652 6.3231
31 2 5.21108 0.753854 6.04424
32 2 6.16638 2.2135 4.02908
33 2 3.33372 0.616316 4.21805
34 2 3.39198 3.57471 3.97135
35 2 4.88515 3.96861 6.50534
ITEM: TIMESTEP
2700
ITEM: NUMBER OF ATOMS
35
ITEM: BOX BOUNDS xy xz yz pp pp pp
0.0000000000000000e+00 7.6685730000000003e+00 2.5561910000000001e+00
0.0000000000000000e+00 4.4274529999999999e+00 0.0000000000000000e+00
0.0000000000000000e+00 3.3699264999999997e+01 0.0000000000000000e+00
ITEM: ATOMS id type x y z
1 1 3.8303 4.54541 26.5284
2 1 2.30585 1.73673 28.0449
3 1 6.16904 4.66635 26.4969
4 1 5.029 0.688705 24.5721
5 1 5.33223 2.87299 27.7907
6 1 3.40945 2.3177 25.8784
7 1 2.5094 1.02252 23.8584
8 1 3.84891 1.72776 21.6883
9 1 6.32789 2.39773 22.4618
10 1 3.94152 3.08136 23.6405
11 1 6.09889 2.61858 25.3899
12 1 2.08992 0.485378 21.203
13 1 5.43791 3.61461 18.3061
14 1 1.72117 1.38804 18.6108
15 1 5.44837 2.59098 20.34
16 2 3.08557 3.42016 16.5699
17 2 5.79005 2.31178 16.2369
18 2 2.43027 3.66609 19.6647
19 2 4.19767 1.37203 18.7793
20 2 3.28065 1.77309 13.6597
21 2 2.84368 0.660035 16.3183
22 2 6.19006 3.25192 13.927
23 2 0.778425 0.128227 14.1929
24 2 4.79777 1.14755 11.1652
25 2 7.298 3.57013 8.67781
26 2 2.42598 2.52514 11.2043
27 2 5.09511 3.91686 11.3178
28 2 1.90612 0.562786 8.9349
29 2 4.64048 2.31277 8.5543
30 2 2.07249 2.29179 6.6139
31 2 4.70231 0.610074 5.99001
32 2 5.82193 2.27732 3.94521
33 2 3.15998 0.795165 3.62963
34 2 3.49014 3.59309 3.21328
35 2 4.83002 3.89177 5.97072
ITEM: TIMESTEP
2800
ITEM: NUMBER OF ATOMS
35
ITEM: BOX BOUNDS xy xz yz pp pp pp
0.0000000000000000e+00 7.6685730000000003e+00 2.5561910000000001e+00
0.0000000000000000e+00 4.4274529999999999e+00 0.0000000000000000e+00
0.0000000000000000e+00 3.3699264999999997e+01 0.0000000000000000e+00
ITEM: ATOMS id type x y z
1 1 0.859621 0.878166 26.2411
2 1 3.05051 2.4003 27.9859
3 1 3.76649 0.361362 26.4805
4 1 4.89726 0.361354 23.6721
5 1 5.43815 2.62686 27.3586
6 1 3.50381 3.04454 25.8465
7 1 2.54288 0.873922 24.2596
8 1 3.58361 1.45887 21.849
9 1 6.35506 2.37732 22.9382
10 1 3.97277 3.29738 23.5343
11 1 6.29372 2.94951 25.169
12 1 1.2935 0.812561 21.0832
13 1 5.07713 3.68204 18.4479
14 1 1.4454 1.45592 18.4923
15 1 5.63058 3.1647 20.8948
16 2 3.06866 3.5609 16.9294
17 2 5.5789 2.24863 16.1034
18 2 2.91186 3.15734 20.0287
19 2 4.10017 1.17972 19.1067
20 2 3.44985 1.78011 14.0308
21 2 3.19183 0.680707 16.3733
22 2 5.97254 3.36141 13.663
23 2 1.03897 0.0912838 14.2289
24 2 4.92025 0.950363 11.3676
25 2 2.30766 3.68433 8.69454
26 2 2.2456 2.36981 11.0508
27 2 4.78759 4.12616 11.4967
28 2 2.29629 0.715825 8.64385
29 2 5.06922 2.21922 8.75419
30 2 2.24375 1.88937 5.91585
31 2 4.38903 0.457991 6.10789
32 2 5.82393 2.30855 3.81732
33 2 3.11346 1.00589 3.24649
34 2 3.16339 3.76072 3.36943
35 2 4.28911 3.53041 5.8325
ITEM: TIMESTEP
2900
ITEM: NUMBER OF ATOMS
35
ITEM: BOX BOUNDS xy xz yz pp pp pp
0.0000000000000000e+00 7.6685730000000003e+00 2.5561910000000001e+00
0.0000000000000000e+00 4.4274529999999999e+00 0.0000000000000000e+00
0.0000000000000000e+00 3.3699264999999997e+01 0.0000000000000000e+00
ITEM: ATOMS id type x y z
1 1 0.773486 0.890425 26.0824
2 1 2.78946 3.04323 27.8124
3 1 3.71161 1.0105 27.0959
4 1 5.30573 0.495843 23.5323
5 1 5.51518 3.25157 27.7052
6 1 3.99749 2.86351 25.2371
7 1 3.05924 0.93395 24.2947
8 1 3.45872 1.00691 21.7869
9 1 1.85306 2.61135 22.9809
10 1 4.34536 2.98314 22.6521
11 1 6.22575 3.35013 25.2498
12 1 0.729358 1.26085 20.8413
13 1 4.96909 3.14008 18.5312
14 1 1.74156 1.44239 18.4936
15 1 5.22547 3.59152 20.5912
16 2 2.91006 3.57194 17.4228
17 2 5.42481 2.15682 16.1237
18 2 2.94143 3.112 20.3763
19 2 4.14618 0.709538 19.111
20 2 3.66548 2.15278 13.8375
21 2 3.31074 0.490693 16.4662
22 2 6.35477 2.99391 13.4915
23 2 0.841951 0.413787 14.1905
24 2 4.8459 0.953474 11.5335
25 2 2.62717 3.87455 8.6118
26 2 2.11783 2.56545 11.0248
27 2 4.54286 3.57104 11.0929
28 2 2.7626 0.938473 8.42001
29 2 5.08961 2.16132 8.80728
30 2 1.75651 1.64638 5.8086
31 2 4.41359 0.263943 6.05615
32 2 5.49822 2.47088 3.53998
33 2 3.16944 0.989998 3.53831
34 2 2.83301 4.11985 3.7587
35 2 4.32274 3.17365 6.0296
ITEM: TIMESTEP
3000
ITEM: NUMBER OF ATOMS
35
ITEM: BOX BOUNDS xy xz yz pp pp pp
0.0000000000000000e+00 7.6685730000000003e+00 2.5561910000000001e+00
0.0000000000000000e+00 4.4274529999999999e+00 0.0000000000000000e+00
0.0000000000000000e+00 3.3699264999999997e+01 0.0000000000000000e+00
ITEM: ATOMS id type x y z
1 1 1.05592 1.29427 25.9261
2 1 2.73597 3.82578 27.3896
3 1 3.47719 1.45567 27.2018
4 1 0.863906 0.664344 23.5905
5 1 4.94102 3.27677 27.2287
6 1 4.07519 2.91697 25.3
7 1 3.30651 0.853155 24.3591
8 1 3.78687 1.04165 21.7031
9 1 2.28898 3.13748 23.0355
10 1 4.8854 3.15034 22.9334
11 1 6.88406 3.42012 25.2357
12 1 1.06598 0.98946 21.2584
13 1 5.5198 2.95526 18.6361
14 1 1.62125 0.751542 18.7053
15 1 4.93497 3.61769 20.7008
16 2 2.84511 3.28145 17.1245
17 2 5.64154 2.10813 16.1079
18 2 2.57414 3.13565 20.4932
19 2 4.21972 0.7157 18.891
20 2 3.76505 1.89675 13.8583
21 2 2.82897 0.518059 16.0221
22 2 6.10069 3.5735 13.5657
23 2 1.10341 0.243095 14.1886
24 2 4.36343 0.724502 11.3362
25 2 2.99816 3.77991 8.4321
26 2 2.14656 2.08924 10.8505
27 2 4.76974 3.80886 11.0364
28 2 2.91925 0.88233 8.51604
29 2 5.457 2.40631 8.61983
30 2 1.47162 1.53843 6.34455
31 2 4.01749 0.147597 6.13378
32 2 5.22082 2.80489 3.51727
33 2 2.73226 1.13001 4.05528
34 2 3.02882 4.00305 3.80829
35 2 4.36857 3.02503 6.22813
ITEM: TIMESTEP
3100
ITEM: NUMBER OF ATOMS
35
ITEM: BOX BOUNDS xy xz yz pp pp pp
0.0000000000000000e+00 7.6685730000000003e+00 2.5561910000000001e+00
0.0000000000000000e+00 4.4274529999999999e+00 0.0000000000000000e+00
0.0000000000000000e+00 3.3699264999999997e+01 0.0000000000000000e+00
ITEM: ATOMS id type x y z
1 1 0.898821 1.2025 26.2086
2 1 2.50998 4.38938 27.4958
3 1 3.403 1.50776 26.8718
4 1 0.824723 0.925162 23.8057
5 1 5.55241 3.50844 27.2903
6 1 4.36263 3.58865 25.2527
7 1 3.17108 1.25768 24.2883
8 1 3.84128 0.980277 21.579
9 1 2.92644 2.95144 22.6157
10 1 5.72704 3.30503 23.0749
11 1 7.05726 3.7109 25.2799
12 1 1.38771 1.21347 21.2961
13 1 5.8915 2.81021 18.0737
14 1 1.54529 0.277634 18.6574
15 1 5.20113 3.29849 20.704
16 2 2.94841 3.13168 16.5593
17 2 5.45898 1.80125 15.8709
18 2 2.43934 3.05762 19.985
19 2 4.06243 1.32926 18.7938
20 2 3.43337 1.96412 13.7673
21 2 3.05675 0.381985 16.2867
22 2 6.21029 3.49286 13.6453
23 2 0.879126 0.222453 13.6644
24 2 4.83783 0.495504 10.9029
25 2 3.11164 3.92364 8.72646
26 2 1.97238 2.08009 11.2111
27 2 4.35872 3.57484 11.3928
28 2 3.2142 0.740085 8.80335
29 2 5.76905 2.45824 8.8479
30 2 1.49037 1.5371 6.49638
31 2 6.54155 4.28491 6.26237
32 2 5.49807 2.61789 4.07655
33 2 2.55509 1.35373 4.05798
34 2 2.5668 4.16663 3.93126
35 2 3.72071 3.07242 6.09752
ITEM: TIMESTEP
3200
ITEM: NUMBER OF ATOMS
35
ITEM: BOX BOUNDS xy xz yz pp pp pp
0.0000000000000000e+00 7.6685730000000003e+00 2.5561910000000001e+00
0.0000000000000000e+00 4.4274529999999999e+00 0.0000000000000000e+00
0.0000000000000000e+00 3.3699264999999997e+01 0.0000000000000000e+00
ITEM: ATOMS id type x y z
1 1 6.10305 1.69043 25.6629
2 1 2.84003 3.85553 28.0694
3 1 3.49191 2.23251 26.4508
4 1 0.423797 0.862839 23.5165
5 1 5.38803 3.41035 27.7648
6 1 4.77878 4.00751 25.1541
7 1 3.12421 1.80351 24.2038
8 1 4.09629 0.790454 21.0304
9 1 3.7738 3.18758 21.9849
10 1 6.24556 3.73129 23.1741
11 1 7.2485 3.81387 25.514
12 1 1.42016 0.995318 20.8804
13 1 6.11079 2.46391 17.8892
14 1 1.59009 0.466696 18.2224
15 1 5.15999 3.12663 20.1506
16 2 3.18152 3.31681 16.1844
17 2 5.32332 1.39785 15.6487
18 2 2.43771 3.54999 19.5751
19 2 3.97017 1.34874 18.6127
20 2 3.30725 1.59964 13.8061
21 2 3.12152 0.188712 16.3446
22 2 6.06299 3.358 13.9804
23 2 0.776263 0.571825 13.2854
24 2 4.467 0.467185 11.1799
25 2 3.44896 3.79511 8.8229
26 2 1.94431 2.15895 11.4922
27 2 4.59316 2.98817 11.5353
28 2 3.12973 1.18176 8.93148
29 2 5.74597 2.55579 9.1463
30 2 1.21307 1.3026 6.63836
31 2 6.21944 4.4421 6.49362
32 2 5.25276 2.5912 4.47106
33 2 2.80937 1.14827 3.92362
34 2 7.67116 4.42991 3.78123
35 2 3.72522 2.76291 6.51793
ITEM: TIMESTEP
3300
ITEM: NUMBER OF ATOMS
35
ITEM: BOX BOUNDS xy xz yz pp pp pp
0.0000000000000000e+00 7.6685730000000003e+00 2.5561910000000001e+00
0.0000000000000000e+00 4.4274529999999999e+00 0.0000000000000000e+00
0.0000000000000000e+00 3.3699264999999997e+01 0.0000000000000000e+00
ITEM: ATOMS id type x y z
1 1 6.29567 2.23376 25.5096
2 1 3.00562 3.76901 27.6774
3 1 3.59557 1.78731 26.3485
4 1 5.50514 1.1808 22.9051
5 1 5.53922 3.75073 27.264
6 1 4.85736 4.06107 24.9299
7 1 3.16898 2.23847 23.8754
8 1 3.74645 1.00173 21.3684
9 1 4.00874 3.78182 22.0579
10 1 6.49063 3.27955 22.6958
11 1 7.35808 4.51582 25.6869
12 1 1.72972 1.54773 20.2483
13 1 6.47491 2.96827 17.7423
14 1 1.70004 0.244203 18.158
15 1 4.97535 3.01495 19.8676
16 2 3.2029 2.95973 16.2686
17 2 5.67902 1.26037 15.8623
18 2 2.5949 3.68629 19.7068
19 2 4.05322 1.32601 18.2008
20 2 3.34901 1.73526 13.8857
21 2 2.7936 0.376831 16.1571
22 2 5.82483 3.16743 14.0126
23 2 0.915068 0.0913151 13.3867
24 2 4.08068 0.099042 11.3201
25 2 3.28388 4.4571 9.33123
26 2 2.17693 1.86292 11.3731
27 2 4.47102 3.26023 11.4906
28 2 3.28022 1.25823 8.99236
29 2 5.88635 2.70505 8.84931
30 2 0.795671 0.983671 6.63884
31 2 6.06758 4.18901 6.58537
32 2 5.2453 2.80119 4.31628
33 2 2.57892 1.26349 4.23183
34 2 3.10744 4.00719 4.24367
35 2 3.35968 2.63382 6.68856
ITEM: TIMESTEP
3400
ITEM: NUMBER OF ATOMS
35
ITEM: BOX BOUNDS xy xz yz pp pp pp
0.0000000000000000e+00 7.6685730000000003e+00 2.5561910000000001e+00
0.0000000000000000e+00 4.4274529999999999e+00 0.0000000000000000e+00
0.0000000000000000e+00 3.3699264999999997e+01 0.0000000000000000e+00
ITEM: ATOMS id type x y z
1 1 6.30626 2.09639 25.1241
2 1 3.04906 4.25454 26.9575
3 1 3.63023 1.97306 26.27
4 1 5.41953 1.88955 22.9876
5 1 5.60986 4.19835 26.5202
6 1 5.11594 4.36481 24.2341
7 1 3.37633 2.019 23.8574
8 1 3.70446 1.40964 21.1671
9 1 4.55644 4.11538 22.2966
10 1 7.11162 3.18233 22.4389
11 1 7.4985 4.39071 24.4625
12 1 1.59879 1.44649 20.4015
13 1 6.03592 3.2352 18.1539
14 1 1.76941 0.41208 18.0433
15 1 5.10903 3.05282 20.4615
16 2 3.16639 3.10197 16.4545
17 2 5.3309 1.47601 16.0691
18 2 2.55756 3.83063 20.177
19 2 4.25739 1.39172 18.5317
20 2 3.42897 1.81413 13.5465
21 2 3.21475 -0.0396759 15.5233
22 2 6.02233 2.7181 13.6645
23 2 0.778556 0.0260054 13.9575
24 2 4.43701 0.125435 11.8598
25 2 0.893936 0.331017 9.37274
26 2 1.5091 1.63795 11.502
27 2 4.28288 2.67241 10.8874
28 2 3.48866 1.20432 8.82693
29 2 5.89938 3.03004 8.90304
30 2 0.54108 1.14659 6.70297
31 2 5.54978 3.84068 6.32303
32 2 5.66684 2.50505 4.15333
33 2 2.886 1.23054 4.68167
34 2 2.7581 4.05935 4.52145
35 2 3.01476 2.65853 6.92255
ITEM: TIMESTEP
3500
ITEM: NUMBER OF ATOMS
35
ITEM: BOX BOUNDS xy xz yz pp pp pp
0.0000000000000000e+00 7.6685730000000003e+00 2.5561910000000001e+00
0.0000000000000000e+00 4.4274529999999999e+00 0.0000000000000000e+00
0.0000000000000000e+00 3.3699264999999997e+01 0.0000000000000000e+00
ITEM: ATOMS id type x y z
1 1 6.48768 2.30539 24.7842
2 1 0.633672 0.374394 26.8366
3 1 4.07614 2.47941 26.2953
4 1 5.83093 1.99278 22.4296
5 1 5.77692 3.95424 27.0624
6 1 4.86972 3.98099 24.389
7 1 3.73104 1.90724 23.9122
8 1 3.5535 1.49238 21.4743
9 1 4.44285 4.50983 22.2084
10 1 2.06903 3.70172 22.0766
11 1 7.72531 4.33491 24.24
12 1 1.56576 1.52453 20.034
13 1 6.25584 3.10144 18.2348
14 1 1.66537 0.56896 17.7835
15 1 5.26978 3.80734 19.993
16 2 2.93854 3.11995 16.6948
17 2 5.23845 1.90404 16.3747
18 2 2.84082 3.7974 19.8497
19 2 3.98409 1.47957 18.8625
20 2 3.49742 1.63644 13.6262
21 2 5.86521 4.52665 15.8297
22 2 5.96469 2.53822 13.6164
23 2 1.09301 -0.156813 14.3448
24 2 4.25901 -0.379218 11.6628
25 2 1.09756 -0.202919 8.82249
26 2 1.5486 1.12067 11.2354
27 2 3.94971 2.79538 11.2066
28 2 3.42589 1.22304 9.00308
29 2 6.34296 2.97438 9.23584
30 2 5.35968 1.32619 6.7963
31 2 5.00903 3.94325 6.47249
32 2 5.68662 2.3095 3.90765
33 2 3.26027 1.39318 4.4963
34 2 2.84667 4.07232 4.25236
35 2 2.53695 2.9162 6.86091
ITEM: TIMESTEP
3600
ITEM: NUMBER OF ATOMS
35
ITEM: BOX BOUNDS xy xz yz pp pp pp
0.0000000000000000e+00 7.6685730000000003e+00 2.5561910000000001e+00
0.0000000000000000e+00 4.4274529999999999e+00 0.0000000000000000e+00
0.0000000000000000e+00 3.3699264999999997e+01 0.0000000000000000e+00
ITEM: ATOMS id type x y z
1 1 1.72336 2.21945 24.9011
2 1 0.960692 0.587983 26.9731
3 1 3.8355 2.32996 26.4549
4 1 5.80789 1.96281 22.3912
5 1 6.41972 4.08381 26.8662
6 1 5.19093 4.14884 25.1816
7 1 3.68939 1.74896 23.7564
8 1 3.35892 2.32487 21.2162
9 1 4.15771 4.00653 22.9186
10 1 7.26025 4.42737 22.0228
11 1 2.90016 4.70853 24.6761
12 1 1.08663 1.77142 20.2068
13 1 5.7751 3.39316 18.1145
14 1 1.4343 0.805124 17.9721
15 1 5.60773 4.25263 20.3166
16 2 2.75519 3.03674 16.6337
17 2 5.49682 1.8749 16.0021
18 2 2.95965 3.77969 19.5173
19 2 3.99889 1.44829 18.6967
20 2 3.33527 1.12449 13.8403
21 2 3.18393 0.455877 16.252
22 2 6.22629 2.64042 13.8334
23 2 3.61686 4.11148 14.229
24 2 6.61625 4.15057 11.5003
25 2 3.79862 3.8356 8.84904
26 2 1.67103 0.871203 11.3009
27 2 4.07381 2.57724 11.8293
28 2 3.88406 1.15013 8.94512
29 2 6.2466 2.52271 9.17908
30 2 4.74491 1.31272 6.418
31 2 4.86457 4.38214 6.3233
32 2 5.81987 2.81171 4.12803
33 2 3.2014 1.25268 4.3671
34 2 3.29199 4.10564 4.18375
35 2 1.94259 2.78734 6.34488
ITEM: TIMESTEP
3700
ITEM: NUMBER OF ATOMS
35
ITEM: BOX BOUNDS xy xz yz pp pp pp
0.0000000000000000e+00 7.6685730000000003e+00 2.5561910000000001e+00
0.0000000000000000e+00 4.4274529999999999e+00 0.0000000000000000e+00
0.0000000000000000e+00 3.3699264999999997e+01 0.0000000000000000e+00
ITEM: ATOMS id type x y z
1 1 6.4075 2.45182 25.3967
2 1 2.00254 1.07343 27.3701
3 1 3.82759 2.11017 26.1048
4 1 1.53392 2.4056 23.1816
5 1 7.38965 3.82683 27.4197
6 1 5.14646 4.4422 25.4434
7 1 3.47908 1.71621 23.9416
8 1 3.59025 2.24568 21.561
9 1 4.51783 4.04598 23.0328
10 1 4.6341 0.0772379 22.2233
11 1 5.07879 0.0744407 24.7619
12 1 5.94927 1.94689 20.7424
13 1 5.11252 3.60612 18.6532
14 1 1.62668 1.36614 18.2144
15 1 2.20183 0.00205194 20.961
16 2 2.87532 3.49292 16.6672
17 2 5.46637 1.69674 15.7143
18 2 2.65847 3.64384 19.4798
19 2 3.9781 1.36143 18.5141
20 2 3.46863 0.947395 13.8146
21 2 2.93701 0.0628145 16.347
22 2 6.46806 2.66789 13.4432
23 2 3.51583 4.05108 14.0035
24 2 6.7758 4.02217 11.2054
25 2 3.73469 3.68855 9.12349
26 2 1.50453 1.1111 11.395
27 2 4.35582 2.41472 11.6912
28 2 3.88701 0.574111 8.95873
29 2 6.17446 2.20349 8.73231
30 2 4.41087 1.45555 6.29082
31 2 1.86997 0.0957507 6.77307
32 2 5.83864 2.96656 4.15523
33 2 3.33739 1.20825 3.58082
34 2 3.40765 4.5012 4.11938
35 2 2.25019 2.97069 6.59427
ITEM: TIMESTEP
3800
ITEM: NUMBER OF ATOMS
35
ITEM: BOX BOUNDS xy xz yz pp pp pp
0.0000000000000000e+00 7.6685730000000003e+00 2.5561910000000001e+00
0.0000000000000000e+00 4.4274529999999999e+00 0.0000000000000000e+00
0.0000000000000000e+00 3.3699264999999997e+01 0.0000000000000000e+00
ITEM: ATOMS id type x y z
1 1 6.54038 2.27503 26.1338
2 1 2.68158 1.46103 28.2873
3 1 4.14879 1.99769 26.5658
4 1 6.31507 2.35581 23.3893
5 1 2.90338 3.95502 27.3415
6 1 2.2431 0.119123 26.148
7 1 4.01194 1.83933 23.9419
8 1 3.30773 1.97406 21.3869
9 1 4.95557 4.30841 23.6045
10 1 5.01241 0.132902 21.8853
11 1 2.46981 4.08499 24.7383
12 1 5.64872 2.40479 20.839
13 1 4.94232 3.76895 18.6064
14 1 1.42072 1.7505 18.1858
15 1 2.02076 0.32042 20.8584
16 2 2.82737 3.25227 16.7064
17 2 5.18692 1.66274 15.9953
18 2 2.25905 3.55395 19.6246
19 2 3.87863 1.37025 18.6669
20 2 3.71835 1.23636 13.7612
21 2 5.45019 4.30012 16.2454
22 2 6.2899 2.46518 13.6439
23 2 3.94062 4.04368 13.7244
24 2 6.82702 3.70249 11.1512
25 2 3.63334 3.25266 9.10597
26 2 1.82113 0.865398 11.0005
27 2 4.30882 2.47069 11.5442
28 2 3.49945 0.602208 8.53317
29 2 5.99163 1.89965 8.70149
30 2 4.51159 1.66057 6.01172
31 2 1.99899 0.322178 6.53149
32 2 5.9641 3.02309 4.38555
33 2 3.40416 1.73241 3.61359
34 2 0.723808 0.0860819 4.21395
35 2 2.24546 3.15762 6.42252
ITEM: TIMESTEP
3900
ITEM: NUMBER OF ATOMS
35
ITEM: BOX BOUNDS xy xz yz pp pp pp
0.0000000000000000e+00 7.6685730000000003e+00 2.5561910000000001e+00
0.0000000000000000e+00 4.4274529999999999e+00 0.0000000000000000e+00
0.0000000000000000e+00 3.3699264999999997e+01 0.0000000000000000e+00
ITEM: ATOMS id type x y z
1 1 1.77112 2.09624 26.6013
2 1 3.03795 1.6442 28.2923
3 1 4.32872 1.89191 26.3025
4 1 1.37428 1.91524 23.8417
5 1 0.52775 0.0233598 27.339
6 1 5.42337 4.005 26.4512
7 1 4.12793 2.44619 24.2092
8 1 3.01578 2.32642 22.1606
9 1 2.73843 -0.0735846 23.8892
10 1 4.59647 0.128891 22.5703
11 1 7.58598 4.16908 24.7822
12 1 5.39919 2.2301 20.637
13 1 4.8243 3.42632 18.0909
14 1 1.09647 1.12923 18.6792
15 1 1.94036 0.341576 20.7273
16 2 2.52767 2.88764 16.4383
17 2 5.07193 1.44486 16.3745
18 2 2.33124 3.68383 19.5343
19 2 3.62059 1.38835 18.9873
20 2 3.89937 1.06076 13.8804
21 2 2.70292 0.267454 15.9997
22 2 6.66148 2.61468 14.0331
23 2 3.98344 4.0499 13.6532
24 2 6.87794 3.69886 11.3886
25 2 3.49603 3.3277 8.45352
26 2 2.11613 0.754415 10.9251
27 2 4.44855 1.99777 11.2747
28 2 3.42812 0.395201 8.63177
29 2 5.83973 1.74177 8.70846
30 2 4.70604 1.77921 6.27686
31 2 2.25569 0.48733 5.9043
32 2 5.91322 3.4486 3.90606
33 2 3.13481 1.93805 4.01243
34 2 0.705948 0.170458 3.76453
35 2 1.91046 3.3132 6.50161
ITEM: TIMESTEP
4000
ITEM: NUMBER OF ATOMS
35
ITEM: BOX BOUNDS xy xz yz pp pp pp
0.0000000000000000e+00 7.6685730000000003e+00 2.5561910000000001e+00
0.0000000000000000e+00 4.4274529999999999e+00 0.0000000000000000e+00
0.0000000000000000e+00 3.3699264999999997e+01 0.0000000000000000e+00
ITEM: ATOMS id type x y z
1 1 2.01499 1.60355 26.297
2 1 3.60496 1.41383 28.4606
3 1 4.38569 2.12236 26.0882
4 1 1.01896 2.04926 23.9273
5 1 3.53296 3.86845 27.7529
6 1 6.17452 4.18907 26.7415
7 1 3.44891 2.37721 23.9143
8 1 2.5321 2.62785 21.7544
9 1 3.19408 0.176573 24.3381
10 1 4.52181 0.627694 21.9249
11 1 0.372405 0.0400371 25.4404
12 1 5.30258 2.46235 21.2226
13 1 5.43891 3.39509 18.3255
14 1 0.811842 0.997429 18.7217
15 1 2.16279 0.0739612 21.6707
16 2 2.51242 3.16099 16.6156
17 2 4.96862 1.32209 16.3213
18 2 2.30516 3.51298 19.6444
19 2 3.38852 1.15199 19.146
20 2 4.23787 0.935348 13.6869
21 2 2.15792 0.149832 15.9847
22 2 1.5374 2.37683 13.8655
23 2 3.93291 3.96433 13.5241
24 2 2.27028 3.43879 11.392
25 2 3.45521 3.43363 8.88718
26 2 1.88491 0.717385 11.443
27 2 4.78033 2.1033 10.9826
28 2 6.00512 4.35015 8.72511
29 2 1.15695 1.74142 8.80914
30 2 4.73415 1.83378 6.4055
31 2 1.81457 0.459522 6.17255
32 2 5.58414 3.59339 3.35026
33 2 3.14653 2.02546 3.93125
34 2 0.488386 0.885039 3.26937
35 2 6.95452 3.60727 5.78767
ITEM: TIMESTEP
4100
ITEM: NUMBER OF ATOMS
35
ITEM: BOX BOUNDS xy xz yz pp pp pp
0.0000000000000000e+00 7.6685730000000003e+00 2.5561910000000001e+00
0.0000000000000000e+00 4.4274529999999999e+00 0.0000000000000000e+00
0.0000000000000000e+00 3.3699264999999997e+01 0.0000000000000000e+00
ITEM: ATOMS id type x y z
1 1 2.40584 1.62936 26.5533
2 1 4.05812 1.28668 28.2849
3 1 5.21599 2.40486 25.9559
4 1 5.38191 2.30798 23.1639
5 1 3.97564 3.6595 27.813
6 1 6.65039 3.66502 27.1068
7 1 3.19276 2.43164 24.1994
8 1 2.74524 2.20511 21.7201
9 1 3.38308 -0.0518803 24.6487
10 1 4.04314 0.242296 22.1541
11 1 3.51593 4.66882 25.4301
12 1 5.22412 2.70524 20.3546
13 1 4.50129 3.11034 18.273
14 1 1.14464 1.24718 18.1252
15 1 1.42367 0.201588 22.5758
16 2 2.2602 3.20668 17.0327
17 2 4.38726 1.75428 16.132
18 2 2.58078 3.53938 19.7272
19 2 3.50977 1.03662 19.1008
20 2 4.09075 0.6951 13.4058
21 2 2.5829 0.00574622 16.111
22 2 1.3021 2.23942 13.8811
23 2 3.9427 3.26032 14.0026
24 2 2.24853 3.5019 11.3398
25 2 3.64838 3.16165 8.78256
26 2 2.43296 0.631675 11.4406
27 2 4.8352 2.25163 11.0927
28 2 3.64921 0.178078 8.72958
29 2 1.41629 1.57148 8.5281
30 2 4.16576 2.23717 6.39278
31 2 1.68984 0.344815 6.19229
32 2 5.15597 3.93604 3.35287
33 2 3.1682 2.16773 3.82463
34 2 5.62559 1.13881 3.5942
35 2 6.94246 3.73689 5.35838
ITEM: TIMESTEP
4200
ITEM: NUMBER OF ATOMS
35
ITEM: BOX BOUNDS xy xz yz pp pp pp
0.0000000000000000e+00 7.6685730000000003e+00 2.5561910000000001e+00
0.0000000000000000e+00 4.4274529999999999e+00 0.0000000000000000e+00
0.0000000000000000e+00 3.3699264999999997e+01 0.0000000000000000e+00
ITEM: ATOMS id type x y z
1 1 3.21943 1.43022 26.6484
2 1 5.3758 1.63743 28.0626
3 1 4.99269 2.42006 25.6005
4 1 4.97115 2.02788 23.1245
5 1 4.50676 4.13326 27.3419
6 1 7.16136 3.46647 27.0591
7 1 2.44528 2.20355 24.4009
8 1 2.73028 1.7752 21.7201
9 1 6.41125 4.28216 24.7465
10 1 6.35214 3.96422 22.196
11 1 1.05876 0.0255471 25.1944
12 1 5.53366 2.3205 20.4956
13 1 4.72503 3.22027 18.3429
14 1 0.711571 1.04521 18.141
15 1 3.37494 4.10421 23.0035
16 2 2.09164 3.36334 17.0698
17 2 4.59977 1.84168 16.0059
18 2 2.92649 3.79656 19.9374
19 2 3.33719 0.92099 19.0709
20 2 3.77993 0.133439 13.6147
21 2 2.35146 0.390366 15.8958
22 2 1.42547 1.85768 14.2641
23 2 3.60922 3.39396 13.8506
24 2 2.42529 3.49218 11.0885
25 2 4.17939 3.23237 8.83109
26 2 2.37042 0.699681 10.9099
27 2 5.14754 2.13006 11.2527
28 2 3.99181 0.268901 8.55282
29 2 1.134 1.78304 8.43149
30 2 3.99579 2.1015 6.13145
31 2 1.81333 0.795424 5.9986
32 2 5.21088 3.97861 3.54945
33 2 2.88976 2.44444 3.63486
34 2 5.30372 1.22182 4.07901
35 2 6.49126 3.63168 5.95167
ITEM: TIMESTEP
4300
ITEM: NUMBER OF ATOMS
35
ITEM: BOX BOUNDS xy xz yz pp pp pp
0.0000000000000000e+00 7.6685730000000003e+00 2.5561910000000001e+00
0.0000000000000000e+00 4.4274529999999999e+00 0.0000000000000000e+00
0.0000000000000000e+00 3.3699264999999997e+01 0.0000000000000000e+00
ITEM: ATOMS id type x y z
1 1 3.78272 1.35315 26.8754
2 1 1.42648 1.72325 27.4266
3 1 5.29481 2.38712 25.4223
4 1 4.65223 1.31693 22.7102
5 1 4.71846 3.70807 27.7307
6 1 2.32021 3.88277 26.4775
7 1 2.06681 1.92737 23.9978
8 1 2.53396 1.41913 21.6919
9 1 3.6286 -0.0169766 24.6305
10 1 5.88 3.61679 21.8291
11 1 1.39387 0.0430137 25.2871
12 1 5.61426 1.89946 20.4005
13 1 4.86345 3.18575 18.3684
14 1 0.736951 0.870502 18.1411
15 1 3.89086 3.73102 22.7967
16 2 2.27502 3.33356 16.773
17 2 4.56153 1.7854 15.9375
18 2 3.04495 3.79319 20.3301
19 2 3.21947 1.17149 19.1513
20 2 6.09169 4.5039 13.785
21 2 2.15712 0.26826 16.3857
22 2 1.26178 1.90319 13.6044
23 2 3.61394 3.5879 13.4087
24 2 2.55503 3.56074 10.9327
25 2 4.06289 3.44782 8.64202
26 2 2.42992 0.714504 10.8302
27 2 5.05835 1.96898 11.6036
28 2 4.30383 0.582031 8.64785
29 2 1.64421 2.01456 8.69823
30 2 4.01656 2.26999 6.3003
31 2 1.3914 0.511935 6.14774
32 2 5.31316 3.97745 3.82857
33 2 2.49201 2.9427 3.73134
34 2 4.79477 1.10078 3.76585
35 2 6.63548 3.37333 6.42121
ITEM: TIMESTEP
4400
ITEM: NUMBER OF ATOMS
35
ITEM: BOX BOUNDS xy xz yz pp pp pp
0.0000000000000000e+00 7.6685730000000003e+00 2.5561910000000001e+00
0.0000000000000000e+00 4.4274529999999999e+00 0.0000000000000000e+00
0.0000000000000000e+00 3.3699264999999997e+01 0.0000000000000000e+00
ITEM: ATOMS id type x y z
1 1 3.78798 1.4091 27.0997
2 1 1.26545 1.21563 27.3173
3 1 5.13831 2.29063 24.9453
4 1 5.13628 0.971996 22.1794
5 1 5.2347 3.44983 27.251
6 1 2.34276 3.43309 26.6307
7 1 2.00177 2.24695 23.816
8 1 2.27811 1.21154 21.5218
9 1 4.2428 0.347654 24.0697
10 1 6.07121 3.68191 21.8809
11 1 1.77334 0.270231 25.205
12 1 5.5206 1.99167 20.1705
13 1 5.17643 3.35642 18.4403
14 1 5.53545 0.670005 17.7824
15 1 4.12608 3.45998 23.1651
16 2 2.10913 3.08719 16.5027
17 2 4.57397 1.87905 15.7832
18 2 3.08786 3.54675 20.1467
19 2 3.04436 1.26714 19.0939
20 2 3.72909 0.430955 13.8116
21 2 2.33305 0.19934 16.2315
22 2 1.50992 1.87301 13.6634
23 2 3.63147 3.46149 13.6528
24 2 2.27265 3.64949 11.1675
25 2 4.33434 3.76261 8.60528
26 2 2.48499 0.421429 11.3958
27 2 4.62527 2.06351 11.1989
28 2 4.45718 0.972569 8.89312
29 2 1.86631 2.13439 8.92178
30 2 3.94931 1.72134 6.19971
31 2 1.07549 0.592196 6.28892
32 2 4.72192 4.25189 4.10534
33 2 2.51253 2.56055 4.10536
34 2 5.02551 1.33339 3.73289
35 2 6.42023 3.54144 6.23678
ITEM: TIMESTEP
4500
ITEM: NUMBER OF ATOMS
35
ITEM: BOX BOUNDS xy xz yz pp pp pp
0.0000000000000000e+00 7.6685730000000003e+00 2.5561910000000001e+00
0.0000000000000000e+00 4.4274529999999999e+00 0.0000000000000000e+00
0.0000000000000000e+00 3.3699264999999997e+01 0.0000000000000000e+00
ITEM: ATOMS id type x y z
1 1 3.80023 1.08165 26.5215
2 1 0.726266 0.890643 27.7221
3 1 4.82083 2.41561 24.795
4 1 5.09386 1.16354 22.2335
5 1 5.3493 3.38741 26.994
6 1 2.97418 3.12819 25.9914
7 1 2.18166 2.3484 23.7924
8 1 2.84036 1.28014 21.5375
9 1 4.25113 -0.0872334 24.626
10 1 6.52511 3.32101 21.4502
11 1 1.77159 0.566855 25.0394
12 1 5.71077 1.90487 19.7791
13 1 5.02974 3.08089 18.0835
14 1 0.46963 0.226048 17.7217
15 1 3.75977 3.28388 22.3144
16 2 2.21243 2.92215 16.4703
17 2 4.71759 1.767 15.9786
18 2 3.18431 3.77482 19.9193
19 2 2.89482 1.24939 18.6148
20 2 4.21931 0.287076 13.6033
21 2 2.50529 0.409882 15.8027
22 2 1.27088 2.06189 13.9173
23 2 3.94563 3.44476 14.0343
24 2 2.053 3.54391 11.3569
25 2 4.82502 3.96304 8.96413
26 2 1.74476 0.601648 11.6483
27 2 4.67147 2.27936 11.1662
28 2 4.52874 0.677245 8.80352
29 2 2.09542 2.44559 8.90681
30 2 3.36388 1.93705 6.45941
31 2 1.08814 0.7234 6.7278
32 2 4.86275 4.04443 3.90618
33 2 2.35284 2.57014 4.0066
34 2 5.04337 1.38131 4.08654
35 2 5.90907 3.37318 6.37304
ITEM: TIMESTEP
4600
ITEM: NUMBER OF ATOMS
35
ITEM: BOX BOUNDS xy xz yz pp pp pp
0.0000000000000000e+00 7.6685730000000003e+00 2.5561910000000001e+00
0.0000000000000000e+00 4.4274529999999999e+00 0.0000000000000000e+00
0.0000000000000000e+00 3.3699264999999997e+01 0.0000000000000000e+00
ITEM: ATOMS id type x y z
1 1 3.5635 0.73422 26.6048
2 1 1.28124 0.475771 27.3227
3 1 4.92749 2.73227 24.2882
4 1 5.24492 1.01378 22.2521
5 1 5.43244 2.65854 26.8099
6 1 2.61236 2.9441 26.0602
7 1 2.66824 2.07297 23.17
8 1 3.01187 0.943005 20.5719
9 1 3.50317 0.219613 23.9081
10 1 6.26919 3.33396 21.727
11 1 1.16254 0.71939 24.8545
12 1 5.58091 1.98106 20.0469
13 1 5.46809 3.05382 17.884
14 1 1.19942 0.865772 18.04
15 1 4.19945 3.9216 22.3691
16 2 2.25905 3.11364 16.5157
17 2 4.88974 1.60818 15.9921
18 2 3.13612 3.49496 19.8774
19 2 3.58164 1.35834 18.2905
20 2 4.17717 0.695743 13.5676
21 2 2.50065 0.152991 15.8037
22 2 1.43694 2.27867 13.9798
23 2 3.81023 3.1717 13.7845
24 2 6.88351 3.62313 11.2333
25 2 4.73109 3.76994 9.34102
26 2 1.72571 0.902668 11.4704
27 2 4.18624 2.13524 11.3825
28 2 4.95273 0.987179 8.91015
29 2 2.31501 2.3468 9.05281
30 2 3.2963 2.34152 6.60379
31 2 0.872566 0.324381 6.48611
32 2 4.91176 3.99991 4.09535
33 2 2.32391 2.97154 4.00096
34 2 4.50324 0.913297 4.71798
35 2 5.81937 3.38053 6.58591
ITEM: TIMESTEP
4700
ITEM: NUMBER OF ATOMS
35
ITEM: BOX BOUNDS xy xz yz pp pp pp
0.0000000000000000e+00 7.6685730000000003e+00 2.5561910000000001e+00
0.0000000000000000e+00 4.4274529999999999e+00 0.0000000000000000e+00
0.0000000000000000e+00 3.3699264999999997e+01 0.0000000000000000e+00
ITEM: ATOMS id type x y z
1 1 3.85252 0.201935 26.2982
2 1 1.59133 -0.0310691 27.0685
3 1 4.33235 2.99141 24.4926
4 1 4.92748 1.46632 22.1597
5 1 5.22325 1.92279 26.7811
6 1 2.16573 2.46823 25.1474
7 1 2.7955 1.94161 23.0122
8 1 2.63305 0.571283 20.4236
9 1 3.81455 -0.0103127 24.1455
10 1 6.55153 3.67658 22.0585
11 1 0.900933 0.871902 24.2341
12 1 5.42852 2.29093 20.2215
13 1 6.02831 3.7954 18.5283
14 1 1.64858 0.681433 18.4096
15 1 4.22159 4.03941 22.2451
16 2 2.82247 3.4489 16.5695
17 2 5.14293 1.67749 15.7005
18 2 2.84 3.15237 19.7921
19 2 4.42896 1.46149 18.17
20 2 3.84345 0.42347 13.7391
21 2 2.41745 0.024726 15.9075
22 2 1.49509 2.13387 13.6888
23 2 3.83715 3.86674 13.6301
24 2 6.63705 3.97191 11.1778
25 2 4.63033 3.86018 9.06648
26 2 1.54676 0.611404 11.6117
27 2 3.88951 2.29222 11.3802
28 2 4.92611 1.09562 8.99868
29 2 2.3861 2.07126 9.1057
30 2 3.34617 1.9475 6.79532
31 2 1.20001 0.702795 6.60339
32 2 4.3492 4.08049 4.36573
33 2 2.023 2.48427 4.29164
34 2 4.36052 1.03954 4.31124
35 2 6.19407 3.50228 7.02596
ITEM: TIMESTEP
4800
ITEM: NUMBER OF ATOMS
35
ITEM: BOX BOUNDS xy xz yz pp pp pp
0.0000000000000000e+00 7.6685730000000003e+00 2.5561910000000001e+00
0.0000000000000000e+00 4.4274529999999999e+00 0.0000000000000000e+00
0.0000000000000000e+00 3.3699264999999997e+01 0.0000000000000000e+00
ITEM: ATOMS id type x y z
1 1 6.467 4.17573 26.9138
2 1 3.86581 3.95163 26.3785
3 1 4.50185 2.51254 24.3946
4 1 4.91624 1.67005 22.5102
5 1 5.3465 1.93613 26.7711
6 1 2.44416 2.24699 25.7463
7 1 2.42121 1.51232 22.5895
8 1 2.90787 0.802968 20.4175
9 1 6.05653 4.46583 24.2142
10 1 6.57788 3.81009 21.732
11 1 0.565677 0.578111 24.6525
12 1 5.67928 2.05576 20.2554
13 1 6.08123 3.42396 18.3882
14 1 1.64356 0.819802 18.2578
15 1 3.73766 3.6631 22.2153
16 2 2.71732 3.12333 16.5674
17 2 5.42327 1.9407 15.7369
18 2 3.14869 3.37263 19.7436
19 2 4.19294 1.78083 18.1323
20 2 3.82226 0.575498 13.6357
21 2 3.0734 0.429606 16.2338
22 2 1.58485 2.29455 13.4447
23 2 3.82591 3.65033 14.0933
24 2 6.28852 3.75097 11.1161
25 2 4.51836 3.80292 8.87226
26 2 1.06632 0.828745 11.1308
27 2 4.17734 2.42749 11.6019
28 2 4.70591 0.881833 9.0529
29 2 2.25608 2.30582 9.31266
30 2 4.01508 2.15159 6.5909
31 2 0.982838 0.695644 6.71357
32 2 4.21932 3.73353 4.44771
33 2 1.48566 2.34862 4.67691
34 2 4.51452 0.912961 3.95071
35 2 6.49841 3.73121 6.80331
ITEM: TIMESTEP
4900
ITEM: NUMBER OF ATOMS
35
ITEM: BOX BOUNDS xy xz yz pp pp pp
0.0000000000000000e+00 7.6685730000000003e+00 2.5561910000000001e+00
0.0000000000000000e+00 4.4274529999999999e+00 0.0000000000000000e+00
0.0000000000000000e+00 3.3699264999999997e+01 0.0000000000000000e+00
ITEM: ATOMS id type x y z
1 1 6.55623 4.20552 26.7693
2 1 3.98834 3.9723 27.3026
3 1 4.15141 2.29588 24.5023
4 1 4.63277 1.21947 22.3711
5 1 5.30311 1.71059 26.5208
6 1 2.33932 1.59161 26.1134
7 1 2.19171 1.75602 22.7283
8 1 3.07036 1.01345 20.6559
9 1 5.8723 4.01064 24.61
10 1 6.10435 3.4637 22.1684
11 1 0.681712 0.238268 24.5493
12 1 5.91622 1.91511 20.1703
13 1 6.08959 3.45147 18.7399
14 1 1.41695 0.819439 17.6933
15 1 3.90766 3.67709 22.4472
16 2 2.7342 3.56313 16.4757
17 2 5.64082 1.99935 15.927
18 2 3.46202 3.7439 20.0828
19 2 4.05101 1.57287 18.1971
20 2 4.16135 0.727792 13.5182
21 2 3.10429 0.551164 15.7666
22 2 1.58634 2.22995 13.5159
23 2 4.10227 3.6705 14.1758
24 2 6.07948 4.02335 11.338
25 2 4.6745 3.59519 8.86942
26 2 1.18433 0.581731 11.4587
27 2 3.5584 2.45623 11.6172
28 2 4.33184 0.931322 8.93773
29 2 2.09722 2.47819 8.97608
30 2 3.9114 2.27283 6.43937
31 2 1.6482 0.806398 6.74258
32 2 4.16808 3.71535 4.01506
33 2 1.6718 2.18318 4.3044
34 2 4.05959 0.545137 4.17371
35 2 6.63764 3.89351 6.65719
ITEM: TIMESTEP
5000
ITEM: NUMBER OF ATOMS
35
ITEM: BOX BOUNDS xy xz yz pp pp pp
0.0000000000000000e+00 7.6685730000000003e+00 2.5561910000000001e+00
0.0000000000000000e+00 4.4274529999999999e+00 0.0000000000000000e+00
0.0000000000000000e+00 3.3699264999999997e+01 0.0000000000000000e+00
ITEM: ATOMS id type x y z
1 1 6.58443 3.66161 26.8711
2 1 4.01674 3.98404 27.0875
3 1 3.8862 2.21946 24.7686
4 1 4.92286 1.37723 22.5876
5 1 4.93596 1.93216 26.8758
6 1 2.53481 1.41942 26.6209
7 1 1.9659 1.03418 23.5464
8 1 3.24006 0.895826 20.5993
9 1 6.03716 3.09584 24.4932
10 1 5.83651 3.55461 22.165
11 1 0.732659 0.281042 25.2655
12 1 6.03752 1.92827 20.2786
13 1 6.14718 3.35641 18.1067
14 1 1.83942 0.952973 18.7035
15 1 3.19519 3.40461 22.8347
16 2 2.99022 3.7428 16.6861
17 2 5.30447 2.1641 16.1208
18 2 3.38024 3.50013 20.0767
19 2 4.20227 1.87573 18.4836
20 2 4.78316 0.664778 13.6793
21 2 2.88824 0.813263 15.9084
22 2 1.77627 2.5227 13.8854
23 2 4.41309 3.64886 13.635
24 2 6.03419 3.80943 11.2346
25 2 4.41192 3.82261 8.98657
26 2 0.86042 0.953131 11.1943
27 2 3.12238 2.33485 11.1286
28 2 4.45096 0.826265 8.94873
29 2 1.79708 2.34132 8.88042
30 2 4.36928 2.4729 6.36812
31 2 1.71482 0.867256 6.44337
32 2 3.89776 3.75808 3.7586
33 2 1.68353 2.03045 3.75144
34 2 3.91619 0.561096 4.27876
35 2 6.97698 3.61897 6.52381
ITEM: TIMESTEP
5100
ITEM: NUMBER OF ATOMS
35
ITEM: BOX BOUNDS xy xz yz pp pp pp
0.0000000000000000e+00 7.6685730000000003e+00 2.5561910000000001e+00
0.0000000000000000e+00 4.4274529999999999e+00 0.0000000000000000e+00
0.0000000000000000e+00 3.3699264999999997e+01 0.0000000000000000e+00
ITEM: ATOMS id type x y z
1 1 6.3564 3.82681 26.9998
2 1 3.83268 3.36824 27.7454
3 1 3.73771 2.26169 25.1205
4 1 4.55458 1.23779 22.9527
5 1 5.36176 1.18219 27.6845
6 1 2.58292 1.64641 26.991
7 1 2.06247 0.596234 23.95
8 1 3.25507 0.881417 20.5828
9 1 6.44246 2.56056 24.8232
10 1 5.69233 3.57108 22.3701
11 1 -0.00395989 0.242237 25.0761
12 1 6.13243 1.91763 20.6954
13 1 6.38892 3.81819 18.589
14 1 1.76727 1.02697 18.3124
15 1 2.60833 2.79283 22.7578
16 2 3.15617 3.8241 16.6104
17 2 5.35629 2.36078 16.0625
18 2 2.92188 3.732 20.4414
19 2 4.42981 1.76292 18.5762
20 2 4.69328 0.980881 13.934
21 2 2.83528 0.842584 15.9186
22 2 2.39916 2.58816 14.1073
23 2 4.75398 3.60577 13.4301
24 2 5.8513 3.85603 11.0987
25 2 4.15226 3.83657 8.82874
26 2 5.66046 1.14011 11.2176
27 2 3.3956 2.28159 11.1464
28 2 4.17407 0.800404 8.43799
29 2 1.5961 2.15722 8.6001
30 2 5.00385 2.54314 6.09241
31 2 1.75299 0.703883 5.95134
32 2 3.7042 3.44093 3.95697
33 2 1.17329 2.30215 3.75309
34 2 4.02194 0.778326 4.11331
35 2 2.34233 3.55232 6.34459
ITEM: TIMESTEP
5200
ITEM: NUMBER OF ATOMS
35
ITEM: BOX BOUNDS xy xz yz pp pp pp
0.0000000000000000e+00 7.6685730000000003e+00 2.5561910000000001e+00
0.0000000000000000e+00 4.4274529999999999e+00 0.0000000000000000e+00
0.0000000000000000e+00 3.3699264999999997e+01 0.0000000000000000e+00
ITEM: ATOMS id type x y z
1 1 5.99222 3.63655 27.4052
2 1 3.86399 2.95892 27.7091
3 1 3.70062 2.73402 25.5218
4 1 4.75521 0.449245 22.9506
5 1 4.99034 0.807169 27.8764
6 1 2.29012 1.31698 26.8067
7 1 2.35482 0.225416 24.7464
8 1 3.27682 0.746868 21.117
9 1 6.04899 2.34747 25.1293
10 1 4.69662 3.34961 22.6204
11 1 4.74004 0.207893 25.7212
12 1 5.58382 2.29253 20.8526
13 1 6.04244 3.79021 18.5822
14 1 1.87003 1.12173 18.619
15 1 2.68858 2.46659 22.9805
16 2 2.84353 3.8194 16.761
17 2 5.79047 2.39785 16.0654
18 2 3.18499 3.87487 20.3914
19 2 4.20665 2.01753 18.5482
20 2 4.81679 0.871517 13.7422
21 2 3.14383 0.675678 16.1143
22 2 2.30611 2.67568 13.651
23 2 4.93252 4.21633 13.6469
24 2 6.21 4.23878 10.6633
25 2 4.02784 3.45404 8.68121
26 2 1.04817 0.805817 11.559
27 2 3.13512 2.47737 11.2713
28 2 3.57716 0.788727 7.89771
29 2 1.42678 2.20515 8.72506
30 2 5.08954 2.34954 6.3284
31 2 2.45919 0.936095 5.84377
32 2 3.56152 3.51949 3.60068
33 2 6.06851 2.43264 3.64015
34 2 3.98118 0.591657 3.92748
35 2 2.61404 3.61232 6.16291
ITEM: TIMESTEP
5300
ITEM: NUMBER OF ATOMS
35
ITEM: BOX BOUNDS xy xz yz pp pp pp
0.0000000000000000e+00 7.6685730000000003e+00 2.5561910000000001e+00
0.0000000000000000e+00 4.4274529999999999e+00 0.0000000000000000e+00
0.0000000000000000e+00 3.3699264999999997e+01 0.0000000000000000e+00
ITEM: ATOMS id type x y z
1 1 5.86129 2.69987 27.4141
2 1 3.0661 3.03412 28.002
3 1 3.23541 2.78216 25.1428
4 1 4.88373 0.302037 22.9781
5 1 4.65032 0.867057 28.2771
6 1 1.93281 0.505904 27.431
7 1 2.95509 0.332826 24.8651
8 1 3.31935 0.873904 21.0398
9 1 5.77949 2.49925 25.0063
10 1 4.59161 3.29933 23.0833
11 1 5.04907 0.464626 25.851
12 1 5.5313 2.4045 21.0214
13 1 6.11598 3.81513 18.7521
14 1 1.19517 1.48211 18.5199
15 1 1.74702 1.62214 22.7516
16 2 3.41232 3.89041 16.8357
17 2 5.85995 1.98112 16.0104
18 2 3.34391 3.92011 20.1735
19 2 3.91578 1.94799 18.6555
20 2 4.80878 1.20187 13.7103
21 2 3.28997 1.07177 16.3453
22 2 1.98581 2.80063 13.663
23 2 4.78034 4.35725 13.8682
24 2 6.41413 4.23174 10.829
25 2 3.53908 3.65294 8.69571
26 2 1.35264 0.848775 11.1772
27 2 3.85463 2.49861 11.1803
28 2 3.77128 0.555145 8.33918
29 2 1.11117 1.89908 8.9986
30 2 5.14626 2.51355 6.19417
31 2 2.14604 0.833312 5.53542
32 2 3.84544 3.5385 3.39131
33 2 6.34999 2.19985 3.6186
34 2 3.97077 0.76232 3.33637
35 2 2.57252 3.77041 6.13775
ITEM: TIMESTEP
5400
ITEM: NUMBER OF ATOMS
35
ITEM: BOX BOUNDS xy xz yz pp pp pp
0.0000000000000000e+00 7.6685730000000003e+00 2.5561910000000001e+00
0.0000000000000000e+00 4.4274529999999999e+00 0.0000000000000000e+00
0.0000000000000000e+00 3.3699264999999997e+01 0.0000000000000000e+00
ITEM: ATOMS id type x y z
1 1 5.40332 2.30989 27.1984
2 1 2.60574 2.51305 27.3382
3 1 3.4292 3.07021 24.9443
4 1 4.01693 0.132141 23.2512
5 1 4.01045 0.836546 28.3064
6 1 2.00267 -0.0488935 27.9484
7 1 2.38221 0.722041 25.3503
8 1 3.30709 0.791636 20.9326
9 1 5.99234 2.70745 24.6619
10 1 4.24923 2.71883 22.6302
11 1 5.41528 0.367895 26.2675
12 1 5.87936 2.65957 20.3571
13 1 5.63354 3.81113 18.1838
14 1 1.64835 1.32602 18.5991
15 1 1.56128 0.748143 22.9171
16 2 3.45144 3.80444 16.6666
17 2 5.95226 2.46051 16.1923
18 2 3.2468 4.16895 20.4634
19 2 4.10317 1.90545 18.8024
20 2 4.49832 1.49797 13.5347
21 2 3.4917 0.930934 15.9824
22 2 2.17926 3.04156 13.8442
23 2 4.44529 4.17465 14.1057
24 2 6.70607 3.75214 11.5719
25 2 3.62306 3.60966 8.63024
26 2 1.70199 0.943107 11.3777
27 2 4.57092 2.42118 11.1072
28 2 3.40812 0.697449 8.45593
29 2 5.98886 2.14657 8.25107
30 2 4.66489 2.39097 5.99595
31 2 2.56329 0.74504 5.81949
32 2 4.16544 3.56765 3.64613
33 2 1.52067 2.30328 3.46561
34 2 3.91004 0.825528 3.35333
35 2 2.11388 3.90286 5.86804
ITEM: TIMESTEP
5500
ITEM: NUMBER OF ATOMS
35
ITEM: BOX BOUNDS xy xz yz pp pp pp
0.0000000000000000e+00 7.6685730000000003e+00 2.5561910000000001e+00
0.0000000000000000e+00 4.4274529999999999e+00 0.0000000000000000e+00
0.0000000000000000e+00 3.3699264999999997e+01 0.0000000000000000e+00
ITEM: ATOMS id type x y z
1 1 5.15688 2.8439 26.7789
2 1 2.64913 2.45211 26.8041
3 1 3.87317 2.56869 24.4634
4 1 3.80226 0.173395 23.4078
5 1 3.99659 0.512247 28.218
6 1 3.54648 4.51638 27.8927
7 1 2.19927 0.125409 25.5957
8 1 2.74387 0.476595 20.9132
9 1 6.27208 2.08797 24.7576
10 1 3.98708 2.3864 21.8323
11 1 -0.63185 0.151784 25.6781
12 1 6.39644 2.30349 20.9468
13 1 6.38183 4.08276 18.7097
14 1 1.82897 1.20363 18.2401
15 1 1.03183 0.307009 23.1777
16 2 3.06036 3.79311 17.0129
17 2 5.79591 2.44527 16.2842
18 2 3.19738 4.33821 20.3101
19 2 4.47841 2.18318 18.6542
20 2 4.60411 1.56968 13.2472
21 2 3.71228 0.958073 15.916
22 2 2.11157 2.73301 14.2009
23 2 4.43156 4.38923 14.0233
24 2 7.36661 3.69349 11.4416
25 2 3.38944 3.57693 8.47816
26 2 2.3971 0.788265 11.6057
27 2 4.47513 2.55496 10.7186
28 2 3.1956 0.716325 8.99262
29 2 6.10206 2.65493 7.89284
30 2 4.42143 2.09102 5.7323
31 2 1.83562 0.977254 6.27188
32 2 4.23279 3.98155 3.86044
33 2 1.78021 2.33114 3.65458
34 2 4.16956 0.721269 3.53824
35 2 7.27414 3.81187 5.81477
ITEM: TIMESTEP
5600
ITEM: NUMBER OF ATOMS
35
ITEM: BOX BOUNDS xy xz yz pp pp pp
0.0000000000000000e+00 7.6685730000000003e+00 2.5561910000000001e+00
0.0000000000000000e+00 4.4274529999999999e+00 0.0000000000000000e+00
0.0000000000000000e+00 3.3699264999999997e+01 0.0000000000000000e+00
ITEM: ATOMS id type x y z
1 1 5.22206 2.34089 26.9924
2 1 2.75364 2.56575 26.6648
3 1 3.73976 1.92208 24.1241
4 1 5.88865 4.1403 23.0465
5 1 3.1547 0.233798 27.2324
6 1 0.760365 0.343865 27.281
7 1 4.44265 3.85916 25.0188
8 1 3.40397 0.0261244 20.7931
9 1 6.45285 2.57252 24.441
10 1 3.96822 2.34604 21.5384
11 1 4.32742 0.208528 25.5036
12 1 1.67161 2.17005 21.7567
13 1 6.418 3.52025 18.4219
14 1 2.41472 1.24365 18.6058
15 1 3.33107 4.37452 22.6266
16 2 3.30272 3.98787 17.0992
17 2 5.61056 2.43873 16.3697
18 2 3.1009 4.46724 19.9265
19 2 4.41864 2.27879 19.2035
20 2 4.96185 1.66323 13.0055
21 2 3.2541 0.831647 16.1195
22 2 2.10479 2.85496 14.0194
23 2 4.33393 4.29213 14.2257
24 2 2.56131 3.67929 11.2544
25 2 3.14283 3.95571 8.42625
26 2 2.4557 0.790626 11.6454
27 2 5.15348 2.50716 10.6267
28 2 3.43218 1.04911 9.03171
29 2 5.63829 2.73058 8.36408
30 2 4.27561 2.19597 5.95467
31 2 1.77097 0.655131 6.37414
32 2 4.41966 4.06901 3.85706
33 2 1.8866 2.3527 3.80028
34 2 4.49543 0.852746 3.47924
35 2 6.73867 3.7726 6.05077
ITEM: TIMESTEP
5700
ITEM: NUMBER OF ATOMS
35
ITEM: BOX BOUNDS xy xz yz pp pp pp
0.0000000000000000e+00 7.6685730000000003e+00 2.5561910000000001e+00
0.0000000000000000e+00 4.4274529999999999e+00 0.0000000000000000e+00
0.0000000000000000e+00 3.3699264999999997e+01 0.0000000000000000e+00
ITEM: ATOMS id type x y z
1 1 4.86771 2.18609 26.5039
2 1 2.40303 2.12978 26.0391
3 1 3.41641 2.13198 23.9144
4 1 5.20059 4.20963 22.6879
5 1 3.15757 0.360201 27.2799
6 1 0.553362 0.00498402 27.2033
7 1 4.51172 4.13101 25.1023
8 1 5.67897 4.20286 20.3726
9 1 0.982582 1.57993 24.2845
10 1 4.78804 2.07719 21.6596
11 1 4.70882 0.0317934 24.7667
12 1 1.88245 2.02681 21.477
13 1 6.37963 3.67875 18.3434
14 1 2.1669 1.62348 18.4119
15 1 0.26161 0.0144246 22.5803
16 2 3.43879 4.07138 16.8582
17 2 5.6951 2.20229 15.9837
18 2 3.22208 4.29916 20.1452
19 2 4.47015 2.01893 19.1047
20 2 4.60759 1.57395 13.6694
21 2 3.32149 1.1259 16.2496
22 2 6.96768 3.24268 13.8832
23 2 4.39832 4.23607 14.2019
24 2 2.82274 3.57059 11.2883
25 2 3.16111 4.43076 8.89589
26 2 2.52419 0.634902 11.7807
27 2 5.60053 2.37498 10.9929
28 2 3.12785 1.4287 8.8329
29 2 5.85227 2.55213 8.248
30 2 4.01596 2.23654 6.19222
31 2 1.68616 0.938315 6.16826
32 2 4.60439 3.65044 3.82201
33 2 1.97593 2.47768 3.86298
34 2 4.69887 1.00594 3.83808
35 2 6.63888 3.87314 6.01675
ITEM: TIMESTEP
5800
ITEM: NUMBER OF ATOMS
35
ITEM: BOX BOUNDS xy xz yz pp pp pp
0.0000000000000000e+00 7.6685730000000003e+00 2.5561910000000001e+00
0.0000000000000000e+00 4.4274529999999999e+00 0.0000000000000000e+00
0.0000000000000000e+00 3.3699264999999997e+01 0.0000000000000000e+00
ITEM: ATOMS id type x y z
1 1 4.64069 1.64912 25.8411
2 1 1.89733 1.81369 26.387
3 1 3.26766 2.23031 23.9184
4 1 2.31128 0.276148 22.965
5 1 3.41047 0.0614396 27.2867
6 1 3.26203 3.87496 27.0126
7 1 4.24394 4.25954 25.0647
8 1 5.92554 4.015 20.5559
9 1 5.64392 2.16903 23.3874
10 1 4.89659 2.02208 21.2304
11 1 6.92122 3.95873 24.9149
12 1 2.369 1.72625 20.8232
13 1 5.70714 4.20491 17.9789
14 1 1.95354 1.50802 18.6161
15 1 1.99555 3.85483 22.6358
16 2 3.25627 3.87323 16.8339
17 2 6.15586 2.38012 16.2271
18 2 3.35854 3.95248 19.8717
19 2 4.60007 1.94198 18.5172
20 2 4.16947 1.47163 13.6971
21 2 3.41217 1.41462 16.1098
22 2 6.84396 3.02901 13.7857
23 2 4.30761 4.43443 14.2792
24 2 3.15332 3.51964 11.6849
25 2 0.837869 -0.0217139 8.94702
26 2 2.99511 0.647519 11.5107
27 2 5.33866 2.09272 11.0418
28 2 3.16005 1.48137 9.00345
29 2 5.99152 3.22917 8.57817
30 2 3.89249 2.59996 6.56019
31 2 1.39063 1.06627 6.04538
32 2 4.60258 3.80076 3.97405
33 2 2.26396 2.26291 3.688
34 2 4.65591 0.909264 4.01693
35 2 6.84948 4.00048 6.36783
ITEM: TIMESTEP
5900
ITEM: NUMBER OF ATOMS
35
ITEM: BOX BOUNDS xy xz yz pp pp pp
0.0000000000000000e+00 7.6685730000000003e+00 2.5561910000000001e+00
0.0000000000000000e+00 4.4274529999999999e+00 0.0000000000000000e+00
0.0000000000000000e+00 3.3699264999999997e+01 0.0000000000000000e+00
ITEM: ATOMS id type x y z
1 1 4.57927 1.98255 25.9315
2 1 1.70835 1.50382 26.7326
3 1 2.90115 1.81878 23.7731
4 1 4.30147 4.07358 22.1724
5 1 5.82612 3.75963 26.991
6 1 3.43414 3.2029 27.3045
7 1 3.92968 4.408 24.9234
8 1 6.05942 3.75253 20.2759
9 1 5.45441 2.06809 23.5566
10 1 4.45546 1.40339 20.9184
11 1 6.42699 3.67041 24.8663
12 1 2.24085 1.97377 20.8555
13 1 5.70945 4.26577 17.9811
14 1 1.98166 2.26607 18.5769
15 1 7.25872 4.12728 22.4463
16 2 3.1995 4.27844 16.9369
17 2 5.91923 2.59499 16.2067
18 2 3.53741 4.06837 19.51
19 2 4.51698 1.54446 18.4455
20 2 4.45522 1.6587 13.3785
21 2 3.57276 1.01036 15.8217
22 2 1.68289 2.69202 13.7722
23 2 3.92178 4.34624 14.4033
24 2 3.10847 3.60942 11.5341
25 2 0.872129 0.142428 9.06433
26 2 3.10289 0.267186 11.3122
27 2 5.68795 1.84479 11.0654
28 2 3.39851 1.92219 8.9183
29 2 5.9708 3.37425 9.17177
30 2 4.17853 2.82259 6.64608
31 2 1.75318 1.47122 6.44128
32 2 4.71978 3.84883 4.41352
33 2 2.29404 2.3379 3.83659
34 2 4.54592 0.819938 3.97028
35 2 6.52924 4.20497 6.35246
ITEM: TIMESTEP
6000
ITEM: NUMBER OF ATOMS
35
ITEM: BOX BOUNDS xy xz yz pp pp pp
0.0000000000000000e+00 7.6685730000000003e+00 2.5561910000000001e+00
0.0000000000000000e+00 4.4274529999999999e+00 0.0000000000000000e+00
0.0000000000000000e+00 3.3699264999999997e+01 0.0000000000000000e+00
ITEM: ATOMS id type x y z
1 1 4.44692 1.37905 25.6029
2 1 1.92651 1.16184 26.6112
3 1 2.39365 1.30365 23.5889
4 1 4.24178 3.64019 22.5116
5 1 5.69907 3.59991 27.293
6 1 2.89085 3.57066 27.0733
7 1 3.58701 3.87578 24.7453
8 1 6.27902 3.91278 20.0268
9 1 5.16643 1.29837 23.5286
10 1 4.83733 1.23719 21.1301
11 1 6.14213 3.59812 25.168
12 1 2.01704 1.69314 21.1775
13 1 5.48494 4.52829 18.0258
14 1 2.0717 2.44883 18.0799
15 1 6.86356 3.62426 22.4363
16 2 3.06755 3.99174 16.6047
17 2 5.45662 2.44951 15.7135
18 2 3.47779 4.22893 19.9001
19 2 4.62388 1.90124 18.6714
20 2 4.37841 1.63648 13.1408
21 2 3.36155 0.892047 15.4495
22 2 1.90866 2.85096 13.6306
23 2 4.0249 4.25658 14.0426
24 2 3.2051 3.22502 11.2047
25 2 0.658184 0.789331 8.66174
26 2 2.9783 -0.0632421 12.0488
27 2 6.29905 1.61869 11.4401
28 2 3.3671 1.93665 9.17058
29 2 6.01951 3.43099 8.78876
30 2 4.44996 2.80368 6.69185
31 2 1.7839 1.69555 6.71482
32 2 4.74713 4.00796 4.09854
33 2 2.07082 2.63491 4.5177
34 2 4.90531 1.09208 4.17772
35 2 6.9628 4.67578 6.64034
ITEM: TIMESTEP
6100
ITEM: NUMBER OF ATOMS
35
ITEM: BOX BOUNDS xy xz yz pp pp pp
0.0000000000000000e+00 7.6685730000000003e+00 2.5561910000000001e+00
0.0000000000000000e+00 4.4274529999999999e+00 0.0000000000000000e+00
0.0000000000000000e+00 3.3699264999999997e+01 0.0000000000000000e+00
ITEM: ATOMS id type x y z
1 1 4.21212 1.39757 26.4274
2 1 1.60144 1.14371 25.9765
3 1 2.8435 0.830508 23.8756
4 1 3.85479 4.14055 22.4104
5 1 4.94657 3.17745 27.5623
6 1 2.63278 3.81499 26.9582
7 1 3.32303 2.97195 24.7011
8 1 6.20399 3.5189 20.2698
9 1 5.10924 0.946704 23.9409
10 1 4.54056 2.06442 21.4838
11 1 5.69652 2.98105 24.886
12 1 2.37457 1.3267 20.5834
13 1 3.3992 -0.307593 17.8728
14 1 1.8935 1.89532 18.2213
15 1 6.34677 3.14757 22.6358
16 2 2.88259 3.86112 16.3886
17 2 5.2834 2.24365 15.9677
18 2 3.51889 3.91318 19.8032
19 2 4.58592 2.06876 18.485
20 2 4.35369 1.67743 13.176
21 2 2.97671 1.09724 15.7642
22 2 1.99682 2.82427 14.0277
23 2 3.93234 4.57071 13.7892
24 2 3.43813 3.40572 11.1625
25 2 0.739658 0.435304 9.07125
26 2 6.10781 4.07018 11.612
27 2 1.18706 1.54872 11.1696
28 2 3.35668 1.71997 9.123
29 2 5.69788 3.58988 9.13503
30 2 4.48259 3.30708 6.53307
31 2 2.25385 1.36707 6.76637
32 2 4.80674 4.53055 4.02363
33 2 2.25613 3.20135 4.37248
34 2 5.05368 1.67476 4.24477
35 2 4.60615 0.140137 6.4104
ITEM: TIMESTEP
6200
ITEM: NUMBER OF ATOMS
35
ITEM: BOX BOUNDS xy xz yz pp pp pp
0.0000000000000000e+00 7.6685730000000003e+00 2.5561910000000001e+00
0.0000000000000000e+00 4.4274529999999999e+00 0.0000000000000000e+00
0.0000000000000000e+00 3.3699264999999997e+01 0.0000000000000000e+00
ITEM: ATOMS id type x y z
1 1 3.56279 1.00874 26.4046
2 1 1.27475 0.863417 26.2843
3 1 2.71025 0.534015 23.473
4 1 0.837517 -0.0879492 21.926
5 1 4.91899 3.68839 27.4665
6 1 2.1667 3.0899 26.9891
7 1 3.19222 2.78445 24.7
8 1 5.69783 3.74253 20.8445
9 1 4.93383 1.01018 24.4468
10 1 4.55805 1.64022 21.1444
11 1 5.79979 3.22291 25.2319
12 1 2.41837 1.56577 20.585
13 1 5.79971 3.46927 18.3028
14 1 1.68692 1.29231 18.199
15 1 6.92008 2.55613 22.8545
16 2 3.13392 3.96653 16.7842
17 2 5.29571 2.39594 16.0228
18 2 3.15734 3.97039 19.4038
19 2 4.41171 1.42869 18.6207
20 2 4.17391 1.61159 13.7038
21 2 2.83517 0.886861 15.9511
22 2 1.62236 3.23427 14.0782
23 2 1.63566 0.182303 13.6673
24 2 3.80853 3.07534 11.5239
25 2 0.686389 -0.0223019 8.61845
26 2 6.50345 4.87844 11.2283
27 2 1.40818 1.69599 11.4398
28 2 3.32663 1.84327 9.01774
29 2 5.83208 2.8538 8.96294
30 2 4.75298 3.12094 6.47056
31 2 2.20528 1.90153 6.52983
32 2 2.3898 0.697095 4.29226
33 2 2.55274 3.41284 3.73518
34 2 4.88881 2.04347 4.18231
35 2 4.66191 0.152672 6.42478
ITEM: TIMESTEP
6300
ITEM: NUMBER OF ATOMS
35
ITEM: BOX BOUNDS xy xz yz pp pp pp
0.0000000000000000e+00 7.6685730000000003e+00 2.5561910000000001e+00
0.0000000000000000e+00 4.4274529999999999e+00 0.0000000000000000e+00
0.0000000000000000e+00 3.3699264999999997e+01 0.0000000000000000e+00
ITEM: ATOMS id type x y z
1 1 3.41586 0.600992 26.4791
2 1 0.756721 0.784168 26.2772
3 1 2.53618 0.384666 23.4523
4 1 3.31187 3.68709 22.2837
5 1 4.6939 3.38152 27.684
6 1 2.22072 2.78974 27.056
7 1 3.48309 3.10793 24.9319
8 1 5.58685 4.20593 21.0534
9 1 5.07544 0.893271 23.6174
10 1 4.32181 1.55705 21.6898
11 1 6.02015 3.06086 25.0488
12 1 1.10204 1.76093 20.4711
13 1 5.38927 3.70413 18.6471
14 1 1.49258 1.73914 18.1291
15 1 1.39058 2.45511 22.874
16 2 2.8963 3.69406 16.5689
17 2 5.56073 2.35402 16.2379
18 2 3.08017 3.46265 19.7048
19 2 4.09978 1.30706 18.8236
20 2 4.09918 1.83099 13.9797
21 2 3.02029 0.684 16.3752
22 2 6.77536 3.43445 13.5757
23 2 1.58122 0.234751 13.9078
24 2 4.32233 3.41777 11.3664
25 2 0.876815 0.0058675 8.85452
26 2 4.32046 0.381425 11.1874
27 2 1.55791 1.81774 11.5858
28 2 3.31556 1.05895 8.62676
29 2 6.08193 2.71099 8.94124
30 2 4.57377 3.34434 6.57916
31 2 2.10505 2.24158 6.32551
32 2 2.4394 0.710047 4.18236
33 2 2.60413 3.70248 3.76265
34 2 5.00931 2.08194 3.80078
35 2 4.61634 0.671226 5.97617
ITEM: TIMESTEP
6400
ITEM: NUMBER OF ATOMS
35
ITEM: BOX BOUNDS xy xz yz pp pp pp
0.0000000000000000e+00 7.6685730000000003e+00 2.5561910000000001e+00
0.0000000000000000e+00 4.4274529999999999e+00 0.0000000000000000e+00
0.0000000000000000e+00 3.3699264999999997e+01 0.0000000000000000e+00
ITEM: ATOMS id type x y z
1 1 3.21603 0.791904 26.1804
2 1 0.659003 0.519871 26.6285
3 1 2.46394 0.791809 24.063
4 1 3.45921 4.07562 22.696
5 1 4.55034 2.5498 26.7877
6 1 2.14069 2.82335 27.4534
7 1 3.73936 2.79108 24.6606
8 1 5.06137 3.99974 20.6589
9 1 4.70604 0.606618 24.4935
10 1 3.7382 1.38959 21.9051
11 1 6.24943 2.69686 24.9992
12 1 1.01528 1.41223 21.1126
13 1 4.73616 3.49777 18.2802
14 1 1.85928 1.50507 18.5554
15 1 5.9894 3.00792 22.7748
16 2 2.901 3.42391 16.5426
17 2 5.44961 2.19963 15.9143
18 2 2.54199 3.37848 20.1709
19 2 4.25042 1.15124 18.9331
20 2 4.12422 2.11895 13.5458
21 2 3.23398 0.667498 16.4319
22 2 6.74166 3.44089 13.8026
23 2 1.43601 0.537637 14.1706
24 2 4.67485 3.5296 11.2326
25 2 3.35078 4.02726 8.84121
26 2 4.68544 0.338912 11.286
27 2 2.15204 1.76629 11.2683
28 2 3.51962 0.902063 8.41491
29 2 5.911 2.54031 9.07252
30 2 4.35754 4.01589 6.27075
31 2 1.96418 2.31435 6.28495
32 2 2.49594 0.551103 3.87653
33 2 2.56315 3.66479 3.99509
34 2 5.21601 2.41425 3.62419
35 2 4.73952 1.17132 6.13741
ITEM: TIMESTEP
6500
ITEM: NUMBER OF ATOMS
35
ITEM: BOX BOUNDS xy xz yz pp pp pp
0.0000000000000000e+00 7.6685730000000003e+00 2.5561910000000001e+00
0.0000000000000000e+00 4.4274529999999999e+00 0.0000000000000000e+00
0.0000000000000000e+00 3.3699264999999997e+01 0.0000000000000000e+00
ITEM: ATOMS id type x y z
1 1 2.92588 0.473762 26.7765
2 1 0.778282 -0.0898908 27.3798
3 1 2.04923 0.732777 24.2355
4 1 2.7702 3.77824 22.3576
5 1 4.55106 2.40379 26.6842
6 1 1.82325 2.67868 27.4747
7 1 4.03902 2.72519 24.3427
8 1 4.56576 3.29555 20.4129
9 1 4.95951 0.63808 25.1559
10 1 3.64581 1.53804 21.8684
11 1 6.40519 3.07168 25.2097
12 1 1.04138 1.30863 21.1102
13 1 5.46088 3.53779 18.191
14 1 1.69074 1.45046 18.2254
15 1 5.61141 3.65018 22.6867
16 2 2.76623 3.34962 16.794
17 2 5.29557 2.06867 16.0173
18 2 2.17363 3.23431 20.219
19 2 4.30029 0.921125 19.0426
20 2 3.9206 2.07962 13.4248
21 2 3.13369 0.622419 16.06
22 2 6.63639 3.69578 14.0983
23 2 1.56854 0.56771 13.9744
24 2 5.13722 3.41547 11.2154
25 2 3.29249 3.64185 8.6321
26 2 5.22286 0.475914 11.2743
27 2 2.67747 1.95421 10.9563
28 2 3.20868 0.948579 8.72135
29 2 5.69548 2.02424 8.6563
30 2 4.75396 4.22196 6.16029
31 2 1.9349 2.93896 6.62144
32 2 2.66486 1.08743 3.70465
33 2 2.61475 3.65218 4.1814
34 2 5.29314 2.27703 3.72742
35 2 4.46284 1.42202 6.03216
ITEM: TIMESTEP
6600
ITEM: NUMBER OF ATOMS
35
ITEM: BOX BOUNDS xy xz yz pp pp pp
0.0000000000000000e+00 7.6685730000000003e+00 2.5561910000000001e+00
0.0000000000000000e+00 4.4274529999999999e+00 0.0000000000000000e+00
0.0000000000000000e+00 3.3699264999999997e+01 0.0000000000000000e+00
ITEM: ATOMS id type x y z
1 1 5.67343 4.13099 26.863
2 1 0.28574 0.209028 27.9568
3 1 2.59617 0.86181 24.5608
4 1 2.40689 3.61787 23.0484
5 1 3.72664 2.6142 26.9452
6 1 1.49775 1.94459 27.5307
7 1 3.87001 2.62303 24.6687
8 1 4.79821 3.77227 20.0966
9 1 5.45403 0.703126 25.4596
10 1 3.45605 1.04711 21.7273
11 1 6.41758 3.09059 24.9347
12 1 0.826791 0.710841 21.1908
13 1 5.25233 3.26764 17.8731
14 1 1.31104 0.663851 18.6437
15 1 5.10097 3.19526 22.5091
16 2 2.90383 3.57008 16.9057
17 2 5.37747 1.81283 15.9958
18 2 2.0626 2.89471 19.6628
19 2 4.15487 1.55879 18.9646
20 2 3.81714 2.11219 13.8691
21 2 2.63432 0.647256 16.0299
22 2 6.76474 3.63058 13.8015
23 2 1.49861 0.397847 13.4317
24 2 5.8646 3.59827 11.0861
25 2 3.26522 3.46735 8.81768
26 2 0.637762 0.479045 11.1045
27 2 2.94895 2.25104 11.2199
28 2 3.04929 0.164075 8.75914
29 2 5.48984 1.77548 8.5159
30 2 1.96089 0.131975 6.07485
31 2 1.96576 3.14818 6.44371
32 2 2.86754 1.26893 3.79157
33 2 2.85959 4.24685 4.14033
34 2 5.46114 2.42222 3.91765
35 2 4.2735 1.70654 6.31484
ITEM: TIMESTEP
6700
ITEM: NUMBER OF ATOMS
35
ITEM: BOX BOUNDS xy xz yz pp pp pp
0.0000000000000000e+00 7.6685730000000003e+00 2.5561910000000001e+00
0.0000000000000000e+00 4.4274529999999999e+00 0.0000000000000000e+00
0.0000000000000000e+00 3.3699264999999997e+01 0.0000000000000000e+00
ITEM: ATOMS id type x y z
1 1 5.15659 4.27588 26.789
2 1 4.40808 0.113246 28.2964
3 1 3.02652 0.359105 24.3045
4 1 2.37805 3.76483 22.8239
5 1 3.4804 2.55923 27.539
6 1 1.18383 1.47088 27.0516
7 1 4.21333 2.78828 24.953
8 1 4.88134 3.71877 20.1552
9 1 0.12643 0.269883 25.2773
10 1 3.00858 1.02306 22.0387
11 1 6.9477 2.39492 24.8538
12 1 0.611449 1.13721 21.2171
13 1 5.88918 3.58582 17.8315
14 1 1.14203 0.514733 18.7328
15 1 4.4861 2.75784 22.4612
16 2 2.82043 3.30596 16.4934
17 2 5.31861 1.47946 16.0178
18 2 2.05889 2.91879 19.8894
19 2 3.82474 1.47043 18.7655
20 2 4.20115 2.21639 13.7543
21 2 2.78813 0.752491 15.7407
22 2 6.60359 3.45708 13.9818
23 2 1.5864 0.50715 13.375
24 2 5.89188 3.55014 11.4146
25 2 2.8336 2.74878 8.95277
26 2 0.779913 0.800576 10.9271
27 2 3.65828 1.90776 11.4833
28 2 3.28237 0.190596 8.48878
29 2 5.67422 1.84009 8.63307
30 2 1.39839 0.489836 6.44101
31 2 1.68371 3.21586 6.25645
32 2 3.13872 1.31894 4.03465
33 2 2.96572 4.46378 3.68627
34 2 5.6936 3.16432 4.09671
35 2 4.26431 2.08931 6.3036
ITEM: TIMESTEP
6800
ITEM: NUMBER OF ATOMS
35
ITEM: BOX BOUNDS xy xz yz pp pp pp
0.0000000000000000e+00 7.6685730000000003e+00 2.5561910000000001e+00
0.0000000000000000e+00 4.4274529999999999e+00 0.0000000000000000e+00
0.0000000000000000e+00 3.3699264999999997e+01 0.0000000000000000e+00
ITEM: ATOMS id type x y z
1 1 4.93864 4.3166 26.2697
2 1 4.10068 -0.117253 27.5875
3 1 3.04036 -0.0180052 24.1371
4 1 1.93688 3.79711 22.5929
5 1 3.12326 2.34529 27.3005
6 1 5.59186 2.03687 27.189
7 1 4.46133 1.96698 25.1783
8 1 4.65003 3.39771 20.2749
9 1 5.33645 -0.283527 25.5405
10 1 2.62707 1.14344 21.6849
11 1 1.6551 1.90352 24.6838
12 1 5.24192 1.07385 20.4598
13 1 6.01096 3.26254 18.2736
14 1 1.62423 0.463718 18.1691
15 1 4.61629 2.90916 22.855
16 2 3.14828 3.06541 16.4728
17 2 5.35231 1.62387 16.355
18 2 2.00753 3.15281 20.3534
19 2 3.82497 1.42516 18.5939
20 2 4.4494 2.4014 13.9171
21 2 2.88859 0.184856 15.7969
22 2 7.11438 3.3856 14.0624
23 2 1.37477 0.781107 13.6594
24 2 5.98089 3.27508 11.3798
25 2 3.04073 3.0968 8.96165
26 2 1.13978 0.295151 10.717
27 2 3.54778 1.66853 11.2064
28 2 3.19423 0.145134 8.66275
29 2 5.31686 1.86615 8.67377
30 2 1.42388 0.659703 6.46034
31 2 6.76098 3.80545 6.31015
32 2 2.97764 1.69981 4.08053
33 2 0.660618 0.130888 3.83588
34 2 5.43897 3.21536 3.72563
35 2 4.15611 2.47251 6.25856
ITEM: TIMESTEP
6900
ITEM: NUMBER OF ATOMS
35
ITEM: BOX BOUNDS xy xz yz pp pp pp
0.0000000000000000e+00 7.6685730000000003e+00 2.5561910000000001e+00
0.0000000000000000e+00 4.4274529999999999e+00 0.0000000000000000e+00
0.0000000000000000e+00 3.3699264999999997e+01 0.0000000000000000e+00
ITEM: ATOMS id type x y z
1 1 1.57563 -0.00956699 26.8639
2 1 4.59843 0.113196 27.3178
3 1 5.10726 4.11547 24.0796
4 1 2.70794 4.02192 22.7424
5 1 2.95102 2.06833 27.0697
6 1 5.40207 2.2613 26.9601
7 1 4.18668 1.59212 25.0727
8 1 4.59341 3.36204 20.4968
9 1 2.81545 3.72346 24.9178
10 1 2.78178 0.850255 21.5758
11 1 1.20085 1.93423 24.5092
12 1 5.53972 1.17323 20.9772
13 1 6.09859 3.02959 18.0859
14 1 1.0599 0.547605 18.6566
15 1 4.28018 2.16687 22.6795
16 2 3.13562 3.14969 16.7086
17 2 5.65693 1.33175 16.0972
18 2 2.23022 3.05511 20.2585
19 2 3.74054 1.44998 18.6607
20 2 4.42257 2.36105 13.8393
21 2 5.53074 4.3042 16.0154
22 2 7.1432 3.80695 13.6459
23 2 1.95672 0.851851 13.7626
24 2 6.18558 2.79857 11.3217
25 2 2.63036 3.33979 8.21572
26 2 3.7098 4.33376 11.0953
27 2 3.45474 1.51728 11.5053
28 2 2.92618 0.291388 8.8956
29 2 5.40719 1.78717 8.91415
30 2 1.93888 1.3285 6.29575
31 2 6.57044 4.21028 6.09333
32 2 2.72651 1.92246 3.80021
33 2 0.31175 0.390367 4.18654
34 2 5.42846 3.01386 3.8624
35 2 4.33142 2.55005 6.37674
ITEM: TIMESTEP
7000
ITEM: NUMBER OF ATOMS
35
ITEM: BOX BOUNDS xy xz yz pp pp pp
0.0000000000000000e+00 7.6685730000000003e+00 2.5561910000000001e+00
0.0000000000000000e+00 4.4274529999999999e+00 0.0000000000000000e+00
0.0000000000000000e+00 3.3699264999999997e+01 0.0000000000000000e+00
ITEM: ATOMS id type x y z
1 1 1.75123 0.0837697 26.866
2 1 4.00049 0.204315 27.1807
3 1 5.01181 3.91485 24.1692
4 1 2.67163 3.84924 22.6678
5 1 2.7986 2.37535 27.2848
6 1 5.83889 2.30039 26.1872
7 1 3.36985 1.21311 25.2159
8 1 4.81384 3.24447 20.8664
9 1 2.5149 3.71673 25.1288
10 1 3.16665 0.52031 21.7991
11 1 1.39623 1.7434 23.9218
12 1 0.941781 1.13012 20.7143
13 1 5.15627 3.09077 18.0901
14 1 1.22148 0.276891 18.2982
15 1 4.46653 1.99243 22.8611
16 2 2.97062 2.75898 16.5392
17 2 5.82382 1.29697 16.0501
18 2 2.492 3.10129 19.9868
19 2 3.56633 0.990967 18.8853
20 2 4.62646 2.49986 13.9286
21 2 3.39153 0.151655 16.2177
22 2 7.10268 4.03963 13.6918
23 2 2.19702 0.983196 13.643
24 2 6.20311 2.62448 11.2228
25 2 2.63729 3.3091 8.59605
26 2 3.47992 3.96884 11.5755
27 2 3.72785 1.22468 11.1959
28 2 2.58884 0.581938 8.81743
29 2 5.23201 1.78918 8.82717
30 2 1.60234 1.48523 6.23423
31 2 6.56071 4.45523 6.25278
32 2 2.92891 1.94922 3.78062
33 2 0.338133 0.375585 3.91601
34 2 5.25668 3.49965 3.99736
35 2 4.38939 2.73532 6.45717
ITEM: TIMESTEP
7100
ITEM: NUMBER OF ATOMS
35
ITEM: BOX BOUNDS xy xz yz pp pp pp
0.0000000000000000e+00 7.6685730000000003e+00 2.5561910000000001e+00
0.0000000000000000e+00 4.4274529999999999e+00 0.0000000000000000e+00
0.0000000000000000e+00 3.3699264999999997e+01 0.0000000000000000e+00
ITEM: ATOMS id type x y z
1 1 1.78021 0.161978 26.5661
2 1 4.23446 0.422724 27.4839
3 1 4.91761 4.02614 24.412
4 1 2.65056 3.6975 22.5157
5 1 3.05752 2.59492 27.4845
6 1 5.61548 1.86369 25.4904
7 1 3.22134 1.69052 25.2578
8 1 4.88782 2.79605 20.5606
9 1 2.09924 3.98743 25.1991
10 1 3.29571 0.488565 21.3673
11 1 2.02294 1.21655 23.0513
12 1 1.04907 0.855669 20.7085
13 1 5.21334 2.59977 18.3326
14 1 1.19277 0.343998 18.1484
15 1 4.54065 1.8527 23.1597
16 2 2.99927 2.73494 16.6486
17 2 5.90896 1.30737 15.7521
18 2 2.37972 2.96323 19.5718
19 2 3.57609 0.596452 19.0675
20 2 4.68698 2.86672 14.0598
21 2 3.47879 -0.00769266 16.3893
22 2 7.34977 3.87909 14.129
23 2 2.07737 1.36876 13.5072
24 2 6.16058 2.55017 11.2101
25 2 2.59677 3.43742 9.28584
26 2 3.90608 3.92152 11.3963
27 2 3.89638 0.816453 11.0475
28 2 2.31361 0.407146 8.66957
29 2 4.94621 1.8855 8.66757
30 2 1.39461 1.33605 6.13834
31 2 4.19527 0.0904412 6.45377
32 2 3.01544 2.13544 4.16646
33 2 0.272483 0.561568 3.7711
34 2 5.50746 3.77879 3.99974
35 2 3.66636 3.13571 6.41548
ITEM: TIMESTEP
7200
ITEM: NUMBER OF ATOMS
35
ITEM: BOX BOUNDS xy xz yz pp pp pp
0.0000000000000000e+00 7.6685730000000003e+00 2.5561910000000001e+00
0.0000000000000000e+00 4.4274529999999999e+00 0.0000000000000000e+00
0.0000000000000000e+00 3.3699264999999997e+01 0.0000000000000000e+00
ITEM: ATOMS id type x y z
1 1 4.95792 4.04269 27.0554
2 1 4.84199 0.776613 27.1286
3 1 4.26117 3.95984 24.4157
4 1 3.25063 3.37291 22.6193
5 1 2.84999 2.86782 27.1802
6 1 5.81168 1.93214 25.7429
7 1 3.00278 2.05327 24.8295
8 1 4.62676 2.47612 21.0953
9 1 6.97483 4.31395 24.8221
10 1 3.69531 0.119784 21.5752
11 1 1.73037 1.68599 22.3206
12 1 1.03422 0.219108 20.2605
13 1 5.17403 2.51372 18.2029
14 1 1.00464 0.518371 18.0349
15 1 4.77308 1.58412 23.3388
16 2 3.20132 2.84241 16.7796
17 2 0.912902 1.25152 15.8069
18 2 2.2252 2.456 19.5298
19 2 3.97721 0.494269 18.7604
20 2 4.69497 3.00494 13.9651
21 2 5.72678 4.13219 16.3724
22 2 7.07817 4.25187 13.792
23 2 2.56512 1.40039 13.533
24 2 6.37226 2.11501 11.2248
25 2 2.14368 3.2533 8.84183
26 2 4.06732 3.7982 11.5094
27 2 4.02892 0.887091 11.5116
28 2 2.18559 0.458695 8.80431
29 2 4.94432 2.07964 8.66118
30 2 1.23954 1.84317 6.2763
31 2 3.51637 0.0796444 6.56844
32 2 3.02383 2.4581 4.02699
33 2 5.39293 0.924989 3.88427
34 2 5.65304 3.54486 4.26257
35 2 3.74454 3.12314 6.628
ITEM: TIMESTEP
7300
ITEM: NUMBER OF ATOMS
35
ITEM: BOX BOUNDS xy xz yz pp pp pp
0.0000000000000000e+00 7.6685730000000003e+00 2.5561910000000001e+00
0.0000000000000000e+00 4.4274529999999999e+00 0.0000000000000000e+00
0.0000000000000000e+00 3.3699264999999997e+01 0.0000000000000000e+00
ITEM: ATOMS id type x y z
1 1 5.45986 3.84689 27.191
2 1 5.1035 0.893773 27.1977
3 1 1.44504 0.189375 25.4068
4 1 3.42647 3.63888 22.7422
5 1 2.67885 2.77585 26.5692
6 1 5.41207 2.0823 25.2166
7 1 3.19815 2.02289 24.3785
8 1 4.89973 1.66898 20.6503
9 1 6.76106 4.18521 24.571
10 1 6.02133 4.11725 21.6447
11 1 2.11608 1.75473 22.0828
12 1 3.88064 4.06732 20.4956
13 1 5.05813 2.55315 18.4217
14 1 1.72913 0.536784 18.0562
15 1 5.16614 1.49756 23.1408
16 2 2.89138 2.55208 16.5225
17 2 5.45297 1.34986 15.9933
18 2 2.3881 2.14365 19.6526
19 2 4.32687 0.311685 18.7776
20 2 4.83707 2.86467 13.7867
21 2 5.95208 4.23505 15.8938
22 2 7.45066 4.23966 13.5574
23 2 2.41313 1.70984 14.1608
24 2 1.67206 2.15069 11.488
25 2 2.09822 3.52276 8.63071
26 2 3.78956 3.44291 11.3063
27 2 4.14403 0.69751 11.0933
28 2 2.07966 0.614004 9.34163
29 2 4.58568 1.89973 9.06877
30 2 1.03297 1.85113 6.61232
31 2 3.52778 0.762419 6.55294
32 2 2.93607 2.38455 3.89105
33 2 5.44955 0.785397 4.35227
34 2 5.35961 3.87977 4.08824
35 2 3.67071 3.36484 6.26945
ITEM: TIMESTEP
7400
ITEM: NUMBER OF ATOMS
35
ITEM: BOX BOUNDS xy xz yz pp pp pp
0.0000000000000000e+00 7.6685730000000003e+00 2.5561910000000001e+00
0.0000000000000000e+00 4.4274529999999999e+00 0.0000000000000000e+00
0.0000000000000000e+00 3.3699264999999997e+01 0.0000000000000000e+00
ITEM: ATOMS id type x y z
1 1 5.97256 3.7519 27.1614
2 1 4.94968 1.05971 27.2245
3 1 1.42701 0.266509 25.4048
4 1 4.10281 4.10128 22.7593
5 1 2.69394 2.23575 26.8322
6 1 5.22573 2.59881 25.4945
7 1 2.47911 1.90029 24.5348
8 1 5.07355 1.36471 20.3189
9 1 6.5509 4.16744 24.3819
10 1 6.5034 3.44061 21.6525
11 1 3.00741 1.44683 21.925
12 1 4.50385 4.02559 20.0333
13 1 5.28127 2.78152 18.3805
14 1 1.95517 0.574238 17.6015
15 1 5.31647 1.95447 23.4973
16 2 2.91526 2.76959 16.8754
17 2 5.11474 1.29238 16.1656
18 2 2.65308 2.02206 19.6711
19 2 7.04323 4.29222 18.5576
20 2 4.87951 2.69456 13.5106
21 2 5.39727 3.78951 15.6938
22 2 0.408145 0.129187 13.8132
23 2 2.50587 1.46176 14.0789
24 2 1.39852 1.98303 11.628
25 2 2.1676 3.8189 8.6581
26 2 3.99777 3.36125 11.1272
27 2 3.82783 0.208534 11.4889
28 2 1.93392 0.669312 9.04452
29 2 4.34031 2.33062 8.81678
30 2 6.18055 2.12522 6.89655
31 2 3.47084 0.951331 6.51085
32 2 2.60037 2.20733 4.01913
33 2 5.18934 0.92165 4.31913
34 2 5.31067 4.01097 4.05387
35 2 3.77985 3.77945 6.30834
ITEM: TIMESTEP
7500
ITEM: NUMBER OF ATOMS
35
ITEM: BOX BOUNDS xy xz yz pp pp pp
0.0000000000000000e+00 7.6685730000000003e+00 2.5561910000000001e+00
0.0000000000000000e+00 4.4274529999999999e+00 0.0000000000000000e+00
0.0000000000000000e+00 3.3699264999999997e+01 0.0000000000000000e+00
ITEM: ATOMS id type x y z
1 1 5.97989 3.99094 27.2852
2 1 5.44456 1.1303 27.7502
3 1 0.795115 -0.0830758 25.5107
4 1 4.20374 4.20334 22.9645
5 1 2.62944 1.72275 27.0321
6 1 4.83128 2.55161 25.3728
7 1 2.75053 2.5286 24.2014
8 1 5.95237 1.26034 21.0197
9 1 3.84439 0.258463 24.3191
10 1 2.27172 3.27195 21.7922
11 1 3.63824 0.992039 21.9602
12 1 4.82905 3.75592 20.4535
13 1 5.26142 2.51448 18.3096
14 1 1.88325 0.435166 17.8448
15 1 5.68421 2.00958 23.1904
16 2 2.92071 2.70374 16.5895
17 2 5.14059 0.853154 16.1273
18 2 2.91632 2.1919 19.5304
19 2 6.82958 4.40476 18.6688
20 2 5.29454 2.54191 13.2529
21 2 5.28301 3.76432 15.8705
22 2 2.61397 3.96615 13.8619
23 2 2.84538 1.53941 14.3349
24 2 1.22488 1.58023 10.9614
25 2 6.90646 4.07501 9.11435
26 2 3.58788 3.28909 11.2358
27 2 3.67981 0.477031 11.6489
28 2 2.09958 1.01381 8.67729
29 2 4.41925 2.31004 8.75442
30 2 6.2193 2.63109 6.48945
31 2 3.6535 0.81443 6.4033
32 2 2.41598 2.43937 4.42952
33 2 4.90479 1.24063 4.142
34 2 5.2264 3.75814 4.11476
35 2 3.6795 3.89784 6.39656
ITEM: TIMESTEP
7600
ITEM: NUMBER OF ATOMS
35
ITEM: BOX BOUNDS xy xz yz pp pp pp
0.0000000000000000e+00 7.6685730000000003e+00 2.5561910000000001e+00
0.0000000000000000e+00 4.4274529999999999e+00 0.0000000000000000e+00
0.0000000000000000e+00 3.3699264999999997e+01 0.0000000000000000e+00
ITEM: ATOMS id type x y z
1 1 6.1445 3.75182 26.8076
2 1 5.87198 1.47125 27.8173
3 1 0.715439 0.092846 25.9803
4 1 4.38292 4.41705 23.6005
5 1 2.548 1.95629 26.1369
6 1 4.93083 2.21506 25.6228
7 1 2.93711 2.68404 24.1264
8 1 1.14277 0.98997 20.6549
9 1 3.72773 0.283296 24.8879
10 1 2.76576 3.51858 21.7541
11 1 3.58512 1.02926 21.7092
12 1 5.42107 2.96991 21.0038
13 1 5.36578 2.35555 18.1092
14 1 1.65129 0.27509 18.5987
15 1 5.6856 2.20376 23.1971
16 2 2.65798 2.08782 16.9497
17 2 5.32751 0.881946 16.0379
18 2 3.15723 2.50682 19.5162
19 2 4.13375 0.239743 19.1704
20 2 5.59035 2.46158 13.2977
21 2 5.65494 3.57128 15.9081
22 2 2.78327 4.03068 13.5832
23 2 2.62326 1.03539 13.9448
24 2 0.894028 1.55744 10.876
25 2 6.86098 3.91315 9.27137
26 2 3.20823 3.07699 11.2076
27 2 3.39162 0.621702 11.6023
28 2 2.04013 1.0835 8.34382
29 2 4.56216 2.51943 8.87173
30 2 5.93195 2.75349 6.58838
31 2 3.90752 1.13117 6.40933
32 2 2.62544 2.56617 4.24601
33 2 5.00723 0.814811 3.86046
34 2 4.78949 4.33212 4.0268
35 2 3.45965 3.99476 6.54076
ITEM: TIMESTEP
7700
ITEM: NUMBER OF ATOMS
35
ITEM: BOX BOUNDS xy xz yz pp pp pp
0.0000000000000000e+00 7.6685730000000003e+00 2.5561910000000001e+00
0.0000000000000000e+00 4.4274529999999999e+00 0.0000000000000000e+00
0.0000000000000000e+00 3.3699264999999997e+01 0.0000000000000000e+00
ITEM: ATOMS id type x y z
1 1 6.45522 4.50656 27.4254
2 1 5.72929 1.90707 27.8776
3 1 4.0003 3.94176 26.1301
4 1 1.85188 0.48036 23.6185
5 1 2.54349 1.70784 26.1959
6 1 5.35571 2.03431 25.7391
7 1 2.89704 2.39509 24.1131
8 1 1.81153 0.826414 20.6122
9 1 6.86349 4.36128 24.2835
10 1 2.45037 3.83304 21.8954
11 1 3.65993 1.23432 21.9657
12 1 5.32409 3.11788 20.9963
13 1 5.8352 1.93131 18.8596
14 1 4.08127 4.01932 17.8094
15 1 5.23356 2.34111 23.4571
16 2 2.98788 2.0068 16.9702
17 2 5.46541 0.661675 16.1571
18 2 3.13817 2.76948 19.7084
19 2 4.02278 0.192336 19.1766
20 2 5.13061 2.47787 13.5005
21 2 5.68711 3.48703 15.9915
22 2 3.0448 3.94014 13.7733
23 2 2.85858 1.21717 13.9899
24 2 5.7405 1.41783 11.0831
25 2 6.98522 4.04046 8.56581
26 2 3.20647 3.11571 11.3509
27 2 5.59411 4.25639 11.0949
28 2 1.98278 1.15143 8.7666
29 2 4.31311 2.67728 8.92235
30 2 6.06743 2.92711 6.02874
31 2 3.49899 1.34734 6.25938
32 2 2.51418 2.71726 4.00392
33 2 4.8495 1.11446 3.79363
34 2 5.05629 4.2025 4.1994
35 2 3.39244 4.03855 6.57483
ITEM: TIMESTEP
7800
ITEM: NUMBER OF ATOMS
35
ITEM: BOX BOUNDS xy xz yz pp pp pp
0.0000000000000000e+00 7.6685730000000003e+00 2.5561910000000001e+00
0.0000000000000000e+00 4.4274529999999999e+00 0.0000000000000000e+00
0.0000000000000000e+00 3.3699264999999997e+01 0.0000000000000000e+00
ITEM: ATOMS id type x y z
1 1 7.26515 4.33979 27.1606
2 1 5.5618 2.44914 27.9277
3 1 4.15481 3.72521 26.4128
4 1 1.4898 0.299936 23.7442
5 1 2.76343 1.8772 26.8119
6 1 5.78614 1.61937 25.4718
7 1 3.31202 2.42939 24.3443
8 1 1.50099 0.267326 21.0078
9 1 6.55971 4.59363 24.6779
10 1 2.34337 3.85241 22.1457
11 1 3.49688 1.48897 22.2645
12 1 5.79566 2.574 20.9112
13 1 6.08869 2.09942 18.2261
14 1 4.29516 4.08934 18.1689
15 1 6.01004 2.68067 23.4585
16 2 3.18061 2.22911 16.6815
17 2 5.42446 0.787097 16.3111
18 2 3.24072 2.59904 19.8688
19 2 4.07526 0.268178 18.7667
20 2 5.50229 2.6391 13.6193
21 2 5.79974 3.48131 16.0222
22 2 2.45692 4.04412 13.9855
23 2 2.87711 1.16391 14.211
24 2 5.3874 1.00648 11.438
25 2 6.84572 4.19031 8.4283
26 2 2.76884 2.4889 11.3488
27 2 5.70028 3.8924 10.9457
28 2 1.76987 1.34268 9.06481
29 2 4.41351 2.61562 8.58441
30 2 6.09119 2.54678 6.27979
31 2 3.2849 1.47533 6.27164
32 2 2.46225 2.87058 3.4867
33 2 4.89772 1.52031 4.11098
34 2 4.9112 4.20065 3.81682
35 2 3.62767 4.48538 6.05297
ITEM: TIMESTEP
7900
ITEM: NUMBER OF ATOMS
35
ITEM: BOX BOUNDS xy xz yz pp pp pp
0.0000000000000000e+00 7.6685730000000003e+00 2.5561910000000001e+00
0.0000000000000000e+00 4.4274529999999999e+00 0.0000000000000000e+00
0.0000000000000000e+00 3.3699264999999997e+01 0.0000000000000000e+00
ITEM: ATOMS id type x y z
1 1 7.61662 4.2422 27.0502
2 1 5.72664 2.64797 28.1716
3 1 4.46302 4.06047 26.1667
4 1 1.77165 -0.00652331 23.6326
5 1 3.1021 1.3971 27.4203
6 1 6.05446 1.71649 25.6797
7 1 2.95876 2.64448 24.9145
8 1 2.29325 -0.0786743 20.9149
9 1 4.18652 0.43625 24.8339
10 1 2.43915 4.00593 21.7117
11 1 3.49474 1.74868 22.4542
12 1 5.54966 2.13206 20.8289
13 1 6.12105 2.54211 18.3032
14 1 4.75051 4.34798 18.6725
15 1 5.7221 2.39939 23.2731
16 2 3.07891 2.48114 16.5656
17 2 5.76097 0.953445 16.1601
18 2 3.10661 2.12058 19.8211
19 2 4.75934 0.494488 18.965
20 2 5.21246 2.55244 13.5157
21 2 5.60614 3.84399 16.19
22 2 2.73264 4.11395 13.8849
23 2 2.37025 0.95445 13.8678
24 2 5.18965 0.433066 11.48
25 2 7.07301 4.30198 8.60123
26 2 2.88946 1.93652 11.4506
27 2 5.19863 3.67983 11.1664
28 2 1.55784 1.34032 8.92847
29 2 4.23308 2.75404 8.78961
30 2 5.9409 2.98447 6.41134
31 2 3.44755 1.47576 6.29368
32 2 2.26298 2.98974 3.55183
33 2 5.03944 1.67327 3.96737
34 2 4.91955 4.61553 3.32454
35 2 0.945282 -0.376653 5.90511
ITEM: TIMESTEP
8000
ITEM: NUMBER OF ATOMS
35
ITEM: BOX BOUNDS xy xz yz pp pp pp
0.0000000000000000e+00 7.6685730000000003e+00 2.5561910000000001e+00
0.0000000000000000e+00 4.4274529999999999e+00 0.0000000000000000e+00
0.0000000000000000e+00 3.3699264999999997e+01 0.0000000000000000e+00
ITEM: ATOMS id type x y z
1 1 2.71189 3.82109 27.3039
2 1 5.79457 2.59096 28.1131
3 1 5.03223 4.04123 26.0571
4 1 4.30254 4.45198 23.6739
5 1 3.40303 1.64723 27.4248
6 1 5.58971 1.69631 26.0235
7 1 2.93741 2.72014 25.1633
8 1 5.32151 4.24893 21.3945
9 1 4.52563 0.37294 23.7952
10 1 2.41858 3.97169 21.501
11 1 2.95331 2.11583 22.6772
12 1 5.77173 1.828 21.0937
13 1 6.23149 2.59774 18.3403
14 1 4.99922 4.43824 18.397
15 1 6.18642 2.62335 23.6738
16 2 3.41621 2.56975 16.7304
17 2 0.607211 1.24863 16.1342
18 2 3.05884 2.22789 19.8773
19 2 5.23092 0.214293 18.8217
20 2 4.83278 2.11793 13.8622
21 2 5.64923 4.41358 15.9763
22 2 2.4783 3.442 13.9464
23 2 2.55341 0.838954 13.6192
24 2 5.27381 0.476258 11.1522
25 2 6.6282 4.26797 8.91566
26 2 2.59536 2.01962 11.1795
27 2 5.20561 3.36212 11.3563
28 2 1.75261 1.31282 8.58034
29 2 3.97296 2.79328 8.92003
30 2 5.97497 2.97467 6.10704
31 2 3.23197 1.19373 6.08622
32 2 2.26348 3.25935 3.93577
33 2 4.86209 1.81815 3.78621
34 2 2.50812 0.425948 3.61982
35 2 3.4388 4.31911 6.02139
ITEM: TIMESTEP
8100
ITEM: NUMBER OF ATOMS
35
ITEM: BOX BOUNDS xy xz yz pp pp pp
0.0000000000000000e+00 7.6685730000000003e+00 2.5561910000000001e+00
0.0000000000000000e+00 4.4274529999999999e+00 0.0000000000000000e+00
0.0000000000000000e+00 3.3699264999999997e+01 0.0000000000000000e+00
ITEM: ATOMS id type x y z
1 1 3.00287 4.25864 27.6895
2 1 5.78182 2.72311 27.7693
3 1 5.6274 4.31409 25.9693
4 1 1.62672 0.289994 23.6472
5 1 3.60726 1.43596 27.5841
6 1 5.3418 0.816138 25.7571
7 1 3.50311 2.64407 25.0015
8 1 4.7577 4.35158 20.6604
9 1 4.19964 0.350591 23.8276
10 1 2.48088 4.42123 21.4335
11 1 3.2902 2.13987 22.3098
12 1 6.1704 2.29694 20.8806
13 1 6.10114 2.46673 18.5262
14 1 2.50103 0.427953 18.3749
15 1 5.7823 2.54195 24.2724
16 2 3.63009 2.82091 17.0754
17 2 6.09889 1.19083 16.3092
18 2 3.70496 2.14504 19.8698
19 2 -0.149941 0.141003 18.6913
20 2 4.80658 1.77741 13.7822
21 2 3.53786 -0.0376698 16.0464
22 2 2.11126 3.2128 13.9982
23 2 2.2392 0.37054 13.3719
24 2 5.17845 0.699857 11.3866
25 2 6.18373 4.14995 8.69978
26 2 2.58871 2.01756 10.8284
27 2 5.52624 3.47573 11.4005
28 2 1.28893 1.34182 8.53758
29 2 4.0834 2.60073 8.41802
30 2 5.81143 2.62845 6.21665
31 2 3.50741 1.49622 6.18119
32 2 2.35605 3.59898 3.90816
33 2 4.72895 2.06552 3.79142
34 2 2.17172 0.396061 3.99386
35 2 3.32636 4.36664 6.4477
ITEM: TIMESTEP
8200
ITEM: NUMBER OF ATOMS
35
ITEM: BOX BOUNDS xy xz yz pp pp pp
0.0000000000000000e+00 7.6685730000000003e+00 2.5561910000000001e+00
0.0000000000000000e+00 4.4274529999999999e+00 0.0000000000000000e+00
0.0000000000000000e+00 3.3699264999999997e+01 0.0000000000000000e+00
ITEM: ATOMS id type x y z
1 1 3.36758 4.02601 28.5479
2 1 6.16583 2.4513 27.001
3 1 5.50173 4.73439 25.5187
4 1 1.54923 0.329629 22.9871
5 1 3.71458 1.73341 27.7429
6 1 0.71309 0.273345 25.9238
7 1 3.17413 2.50403 25.0882
8 1 2.33236 0.449523 20.902
9 1 4.0675 0.238196 23.5097
10 1 4.76632 0.653249 21.3417
11 1 3.52738 2.66567 22.6219
12 1 6.39143 2.48787 21.3528
13 1 6.1047 2.47466 18.2674
14 1 2.38656 0.60034 18.4657
15 1 5.76856 2.21916 23.882
16 2 3.76346 2.62204 16.9235
17 2 1.32878 1.12643 15.908
18 2 3.97273 2.52067 19.797
19 2 4.92443 0.089677 18.8607
20 2 4.46135 1.87815 13.8527
21 2 6.44834 4.13929 16.2247
22 2 2.22767 3.06891 13.8107
23 2 1.79667 0.284437 13.5561
24 2 5.14998 0.374162 11.2565
25 2 6.4981 4.20823 8.55221
26 2 3.07733 2.07593 11.1393
27 2 5.27897 3.38069 10.8028
28 2 1.02092 1.23821 9.04706
29 2 3.58684 2.64288 8.70591
30 2 6.08057 2.94908 6.15786
31 2 3.41624 1.20998 6.16364
32 2 1.98721 3.71441 3.91563
33 2 4.70394 2.17313 3.85661
34 2 1.92711 0.678921 4.21416
35 2 3.33062 4.08329 6.40269
ITEM: TIMESTEP
8300
ITEM: NUMBER OF ATOMS
35
ITEM: BOX BOUNDS xy xz yz pp pp pp
0.0000000000000000e+00 7.6685730000000003e+00 2.5561910000000001e+00
0.0000000000000000e+00 4.4274529999999999e+00 0.0000000000000000e+00
0.0000000000000000e+00 3.3699264999999997e+01 0.0000000000000000e+00
ITEM: ATOMS id type x y z
1 1 3.74678 3.98252 27.7167
2 1 6.557 2.48041 26.6392
3 1 2.76212 -0.25 25.9553
4 1 2.00235 0.32565 23.7314
5 1 3.94183 1.86619 26.7707
6 1 0.188791 0.531686 25.9934
7 1 2.94585 2.36284 24.6163
8 1 2.64152 0.784079 20.7888
9 1 4.59064 -0.0881212 23.6808
10 1 5.36263 0.836813 21.298
11 1 3.46214 2.24576 22.468
12 1 6.40837 3.2451 21.3295
13 1 6.16485 2.51299 18.2465
14 1 2.67431 0.445433 18.2688
15 1 5.45091 2.5282 24.5008
16 2 3.8298 2.41868 16.4955
17 2 1.38983 1.09238 15.7526
18 2 3.80348 2.95774 20.0084
19 2 5.18251 0.335122 18.6099
20 2 4.43735 1.74229 14.1564
21 2 6.5831 3.99307 16.0918
22 2 6.78098 3.42941 13.6325
23 2 4.58828 4.23565 13.2996
24 2 0.180497 0.0626116 11.3479
25 2 6.17456 4.42943 8.66969
26 2 2.7006 1.63102 11.8422
27 2 5.29573 3.29641 10.9808
28 2 1.42904 1.20719 8.93741
29 2 3.44583 2.84895 8.73802
30 2 5.85113 2.4351 6.59948
31 2 3.50037 1.26512 6.41626
32 2 6.83462 3.72544 3.76532
33 2 4.3652 2.25865 4.14436
34 2 1.8398 1.01408 3.76703
35 2 3.76098 4.3685 6.29589
ITEM: TIMESTEP
8400
ITEM: NUMBER OF ATOMS
35
ITEM: BOX BOUNDS xy xz yz pp pp pp
0.0000000000000000e+00 7.6685730000000003e+00 2.5561910000000001e+00
0.0000000000000000e+00 4.4274529999999999e+00 0.0000000000000000e+00
0.0000000000000000e+00 3.3699264999999997e+01 0.0000000000000000e+00
ITEM: ATOMS id type x y z
1 1 3.11808 4.49689 28.2245
2 1 1.54301 2.14934 27.0289
3 1 5.7541 4.52831 25.9623
4 1 2.13778 0.0501839 23.4
5 1 4.30215 2.21033 26.5997
6 1 0.416399 -0.0358291 25.5658
7 1 2.63324 2.26761 24.6395
8 1 2.73636 0.810055 20.0852
9 1 7.19848 4.22019 22.9156
10 1 5.67625 1.07561 21.3222
11 1 3.84038 2.20043 22.4404
12 1 6.60066 3.42628 21.065
13 1 6.59987 2.85972 18.9862
14 1 2.63597 0.635039 17.9676
15 1 5.55318 2.2149 23.9949
16 2 3.8554 2.79874 16.8184
17 2 1.51478 0.962078 15.8533
18 2 4.10663 3.05772 19.693
19 2 5.12052 0.807964 18.2996
20 2 4.41162 1.28548 13.8795
21 2 6.40752 3.91206 16.0752
22 2 1.90066 2.89568 13.6105
23 2 4.00956 4.0724 13.8651
24 2 5.08861 0.206115 11.1847
25 2 3.80778 0.0518843 8.93484
26 2 2.78854 1.37615 11.501
27 2 5.37977 2.66917 11.2792
28 2 0.981533 1.35398 9.07466
29 2 3.8193 2.97837 8.95713
30 2 6.18078 2.76901 6.67772
31 2 3.40378 1.2861 6.44972
32 2 6.61598 3.98677 4.35316
33 2 4.19893 2.49132 4.08499
34 2 1.72159 1.10453 3.55546
35 2 3.456 4.09773 6.03843
ITEM: TIMESTEP
8500
ITEM: NUMBER OF ATOMS
35
ITEM: BOX BOUNDS xy xz yz pp pp pp
0.0000000000000000e+00 7.6685730000000003e+00 2.5561910000000001e+00
0.0000000000000000e+00 4.4274529999999999e+00 0.0000000000000000e+00
0.0000000000000000e+00 3.3699264999999997e+01 0.0000000000000000e+00
ITEM: ATOMS id type x y z
1 1 4.48939 0.656167 27.6038
2 1 2.24907 1.82005 27.0899
3 1 3.70496 -0.0132808 25.7728
4 1 2.13893 0.0712267 22.3405
5 1 4.73415 2.45755 26.3527
6 1 3.72965 4.58298 25.8057
7 1 2.88469 2.03438 24.7813
8 1 3.27856 1.13986 20.4956
9 1 7.01824 4.06364 23.816
10 1 0.532572 1.00383 20.802
11 1 3.40868 2.55374 22.4619
12 1 6.81829 3.33552 20.7826
13 1 1.95362 2.99425 18.2069
14 1 2.77515 0.439639 18.1945
15 1 5.54848 1.7478 23.785
16 2 3.93835 2.98488 16.7016
17 2 1.11638 1.41645 16.1726
18 2 4.26927 3.39384 19.5497
19 2 5.22758 1.02228 18.4915
20 2 4.05043 0.952306 13.9051
21 2 6.49949 3.97904 15.9437
22 2 1.54636 1.88293 13.5482
23 2 4.3441 3.77216 13.8736
24 2 2.84366 3.9061 11.5278
25 2 6.34171 4.25549 8.90972
26 2 2.71513 1.21955 10.9272
27 2 5.17209 2.85597 11.6195
28 2 1.12954 1.52096 8.79187
29 2 3.82122 3.01337 8.99635
30 2 6.11802 2.82409 6.64295
31 2 3.29331 1.36946 6.70359
32 2 6.31576 4.34393 4.178
33 2 4.22498 2.58192 3.86208
34 2 1.45559 1.25377 4.14292
35 2 3.57828 4.39741 6.36714
ITEM: TIMESTEP
8600
ITEM: NUMBER OF ATOMS
35
ITEM: BOX BOUNDS xy xz yz pp pp pp
0.0000000000000000e+00 7.6685730000000003e+00 2.5561910000000001e+00
0.0000000000000000e+00 4.4274529999999999e+00 0.0000000000000000e+00
0.0000000000000000e+00 3.3699264999999997e+01 0.0000000000000000e+00
ITEM: ATOMS id type x y z
1 1 4.65017 0.540059 27.984
2 1 2.59108 2.45971 26.9996
3 1 6.60585 4.13832 25.7798
4 1 2.47031 0.28997 22.4033
5 1 4.82079 2.15554 26.0121
6 1 1.24032 0.345652 25.3377
7 1 3.08847 1.66745 24.6588
8 1 2.98856 1.21707 20.1828
9 1 6.98058 3.96658 23.2968
10 1 5.34668 1.12828 21.6325
11 1 3.65232 2.56311 22.2256
12 1 6.63534 3.18185 20.9243
13 1 1.84354 3.11917 18.3017
14 1 2.78955 1.03992 17.8323
15 1 5.52632 1.94535 23.6131
16 2 3.99283 2.77786 16.6236
17 2 1.2086 1.22461 15.9279
18 2 4.27741 3.4651 20.0733
19 2 5.47773 1.09712 18.8257
20 2 3.85424 0.721284 13.268
21 2 6.62782 4.34541 15.9615
22 2 1.45855 1.86064 13.4945
23 2 4.31274 3.25061 14.1022
24 2 2.68422 3.84088 11.841
25 2 6.38215 4.13649 8.85834
26 2 2.61874 0.980181 11.0696
27 2 5.39509 2.70338 11.1915
28 2 1.1154 1.33401 8.91173
29 2 3.6963 3.01786 9.01707
30 2 5.7851 3.06254 6.29661
31 2 3.72067 1.55576 6.62492
32 2 6.46848 4.44035 3.93153
33 2 3.79504 2.95737 4.17954
34 2 1.27354 1.52134 4.41864
35 2 3.557 4.34733 6.62658
ITEM: TIMESTEP
8700
ITEM: NUMBER OF ATOMS
35
ITEM: BOX BOUNDS xy xz yz pp pp pp
0.0000000000000000e+00 7.6685730000000003e+00 2.5561910000000001e+00
0.0000000000000000e+00 4.4274529999999999e+00 0.0000000000000000e+00
0.0000000000000000e+00 3.3699264999999997e+01 0.0000000000000000e+00
ITEM: ATOMS id type x y z
1 1 5.42484 0.257605 27.6789
2 1 2.54612 2.46281 26.7019
3 1 6.41194 4.60291 25.5355
4 1 1.91378 0.459874 22.5576
5 1 5.18292 2.24668 26.6841
6 1 4.25938 3.80144 25.2744
7 1 2.85769 1.74093 24.4415
8 1 2.80548 1.3584 20.5714
9 1 2.54978 4.22122 23.6247
10 1 5.12211 0.720983 21.3635
11 1 4.0833 2.42959 22.4016
12 1 6.41548 3.10776 21.2454
13 1 6.70479 3.26156 18.4359
14 1 2.62807 0.593571 18.1337
15 1 5.78263 2.53499 24.2942
16 2 4.13649 2.85448 17.4918
17 2 1.67541 1.21224 15.9519
18 2 4.14273 3.3745 19.7905
19 2 5.43104 1.20328 18.7943
20 2 3.94627 0.638624 13.5294
21 2 6.73026 4.14073 15.7521
22 2 1.33241 2.1973 13.3151
23 2 3.87917 3.38255 14.0436
24 2 3.07561 3.72118 11.2717
25 2 6.19512 4.37606 8.8629
26 2 2.5874 0.817824 11.1374
27 2 5.39947 2.28109 11.1527
28 2 1.03882 1.2482 8.64733
29 2 3.57601 2.64235 9.0547
30 2 6.09653 3.25951 6.3663
31 2 3.5553 1.59908 6.39395
32 2 3.8101 0.281965 3.97459
33 2 3.51761 3.16851 4.3002
34 2 1.33341 1.44225 4.15702
35 2 3.36945 4.50621 6.63821
ITEM: TIMESTEP
8800
ITEM: NUMBER OF ATOMS
35
ITEM: BOX BOUNDS xy xz yz pp pp pp
0.0000000000000000e+00 7.6685730000000003e+00 2.5561910000000001e+00
0.0000000000000000e+00 4.4274529999999999e+00 0.0000000000000000e+00
0.0000000000000000e+00 3.3699264999999997e+01 0.0000000000000000e+00
ITEM: ATOMS id type x y z
1 1 1.30875 -0.350398 27.6297
2 1 2.58843 1.75587 26.8583
3 1 4.1635 0.198578 26.5005
4 1 2.63667 0.327737 22.9315
5 1 5.37751 2.6823 27.0631
6 1 4.10921 4.27322 24.8867
7 1 3.17697 2.06853 24.5598
8 1 2.5437 1.10574 20.6021
9 1 7.24058 4.69648 23.7705
10 1 4.9215 0.481137 21.1416
11 1 3.93311 2.74726 22.4139
12 1 6.33284 2.76387 21.5076
13 1 1.94035 2.90676 18.9074
14 1 2.90411 0.641789 18.2877
15 1 5.76722 2.35659 24.4738
16 2 4.14854 3.00312 16.6742
17 2 1.83034 1.33781 15.9419
18 2 4.07679 3.3017 20.2234
19 2 5.42709 0.855445 18.5649
20 2 4.11851 0.899258 13.624
21 2 6.79806 3.96211 16.5223
22 2 1.4683 2.39864 13.5564
23 2 3.80561 3.70748 14.1863
24 2 2.70307 3.74312 11.1996
25 2 6.07352 4.23808 8.78512
26 2 2.82846 0.544596 11.4165
27 2 4.96535 2.11426 11.036
28 2 1.12841 1.55252 8.96305
29 2 3.51775 2.92618 8.55792
30 2 5.93394 2.73074 6.45185
31 2 3.38292 1.59992 6.18548
32 2 3.52141 0.361089 3.95909
33 2 3.84371 3.12398 3.77964
34 2 0.963492 1.75279 4.00011
35 2 1.06118 0.0195866 6.0885
ITEM: TIMESTEP
8900
ITEM: NUMBER OF ATOMS
35
ITEM: BOX BOUNDS xy xz yz pp pp pp
0.0000000000000000e+00 7.6685730000000003e+00 2.5561910000000001e+00
0.0000000000000000e+00 4.4274529999999999e+00 0.0000000000000000e+00
0.0000000000000000e+00 3.3699264999999997e+01 0.0000000000000000e+00
ITEM: ATOMS id type x y z
1 1 3.97445 4.11997 28.0614
2 1 2.54461 1.72813 27.591
3 1 4.92353 -0.212225 26.3289
4 1 2.32137 0.146133 22.7746
5 1 5.18325 2.26446 26.9453
6 1 2.2423 0.246203 25.581
7 1 3.50456 2.44682 25.3634
8 1 2.52458 1.17892 20.3479
9 1 4.75245 0.178204 24.0094
10 1 5.04848 0.631755 21.3334
11 1 3.23341 2.61155 23.0337
12 1 6.08085 2.64644 21.9897
13 1 1.74624 3.08536 19.1853
14 1 3.05302 0.481879 18.3089
15 1 6.00998 2.55895 24.3859
16 2 4.44841 2.60498 16.4987
17 2 1.78569 1.3527 16.0772
18 2 4.39032 2.89372 19.6708
19 2 5.39894 0.811978 18.6322
20 2 4.27163 1.21735 14.2993
21 2 6.83488 4.06832 16.371
22 2 6.54374 2.73958 13.6044
23 2 4.21868 4.06645 13.8058
24 2 2.20345 3.5888 11.2077
25 2 6.24575 4.52054 8.57348
26 2 2.20433 0.415571 11.5584
27 2 4.5775 2.16582 11.281
28 2 1.32025 1.42892 9.01409
29 2 3.69042 3.32182 8.65808
30 2 5.88629 2.8729 6.3381
31 2 3.41645 1.3323 6.14959
32 2 3.64867 -0.0903312 3.73436
33 2 3.54996 3.30611 3.26677
34 2 5.99571 1.76083 3.72088
35 2 3.48131 4.26208 5.95299
ITEM: TIMESTEP
9000
ITEM: NUMBER OF ATOMS
35
ITEM: BOX BOUNDS xy xz yz pp pp pp
0.0000000000000000e+00 7.6685730000000003e+00 2.5561910000000001e+00
0.0000000000000000e+00 4.4274529999999999e+00 0.0000000000000000e+00
0.0000000000000000e+00 3.3699264999999997e+01 0.0000000000000000e+00
ITEM: ATOMS id type x y z
1 1 4.07207 4.02774 28.0068
2 1 2.8324 2.04918 27.804
3 1 7.28906 4.06873 26.411
4 1 1.79385 0.0891772 23.4736
5 1 5.654 1.78429 27.3559
6 1 2.52305 0.377685 26.0782
7 1 3.96323 2.5277 25.3573
8 1 2.391 0.981311 20.9976
9 1 4.63075 0.679835 23.8252
10 1 5.11836 -0.194613 21.2928
11 1 3.32716 2.21679 22.6466
12 1 5.6663 2.8758 21.5534
13 1 1.78479 2.82145 18.6642
14 1 3.23734 0.514187 18.4656
15 1 6.31922 2.51604 24.4841
16 2 4.44268 2.66449 17.0825
17 2 1.65638 1.20886 16.1245
18 2 4.33734 2.91157 19.6815
19 2 5.76308 0.662205 18.6885
20 2 4.04953 1.42845 13.8735
21 2 7.27676 3.86377 15.9693
22 2 6.73287 2.83532 13.6433
23 2 4.15173 4.18649 14.0239
24 2 1.84299 3.72837 11.0721
25 2 4.05889 0.468051 8.70695
26 2 1.81508 0.793122 11.1524
27 2 4.34538 1.98311 11.4698
28 2 1.32645 1.78223 8.72684
29 2 3.8106 2.98804 8.64773
30 2 6.06032 2.91203 6.17569
31 2 3.34108 1.55606 5.98305
32 2 6.018 4.52538 3.64244
33 2 3.33467 2.9575 3.43993
34 2 6.1607 1.26284 3.82696
35 2 3.27062 4.34561 6.07069
ITEM: TIMESTEP
9100
ITEM: NUMBER OF ATOMS
35
ITEM: BOX BOUNDS xy xz yz pp pp pp
0.0000000000000000e+00 7.6685730000000003e+00 2.5561910000000001e+00
0.0000000000000000e+00 4.4274529999999999e+00 0.0000000000000000e+00
0.0000000000000000e+00 3.3699264999999997e+01 0.0000000000000000e+00
ITEM: ATOMS id type x y z
1 1 4.81139 4.02406 27.8136
2 1 3.48341 1.81708 27.6701
3 1 7.33668 4.08156 26.5275
4 1 4.30906 4.20176 23.5119
5 1 5.69593 1.93849 26.9738
6 1 2.48245 0.729139 25.8883
7 1 4.24036 2.52151 25.4574
8 1 2.18577 0.502095 21.2257
9 1 4.21869 0.382346 23.91
10 1 7.131 4.47291 20.9539
11 1 3.37292 2.49355 22.5576
12 1 5.97619 2.36439 22.6395
13 1 2.09533 2.67932 18.3333
14 1 3.35047 0.485129 18.8685
15 1 1.69863 2.58742 24.617
16 2 4.48674 2.79679 17
17 2 1.80997 1.21172 16.1305
18 2 4.23598 2.50599 20.0931
19 2 0.948813 0.442386 18.7295
20 2 3.89342 1.23438 14.0184
21 2 7.09695 4.04489 16.0295
22 2 1.48624 2.47492 13.326
23 2 4.14338 4.0455 13.6434
24 2 6.73633 3.82354 11.1811
25 2 4.17605 0.313967 8.60916
26 2 1.67884 0.937464 10.8789
27 2 4.23085 2.50408 11.0275
28 2 1.36289 2.1158 8.295
29 2 4.01838 3.44732 8.72933
30 2 5.86473 3.11244 5.93638
31 2 3.47567 1.50448 6.29533
32 2 5.8032 4.21596 3.81163
33 2 3.45907 2.72913 3.89616
34 2 5.80212 1.36363 3.8287
35 2 0.789871 0.131022 6.35549
ITEM: TIMESTEP
9200
ITEM: NUMBER OF ATOMS
35
ITEM: BOX BOUNDS xy xz yz pp pp pp
0.0000000000000000e+00 7.6685730000000003e+00 2.5561910000000001e+00
0.0000000000000000e+00 4.4274529999999999e+00 0.0000000000000000e+00
0.0000000000000000e+00 3.3699264999999997e+01 0.0000000000000000e+00
ITEM: ATOMS id type x y z
1 1 5.25217 3.8386 27.734
2 1 3.85427 1.84599 27.6252
3 1 2.62679 4.43083 26.7205
4 1 4.21072 4.43641 23.4332
5 1 1.62635 1.76314 27.1405
6 1 2.79855 0.288518 25.607
7 1 4.44701 2.5146 25.1006
8 1 1.53771 0.553906 20.7125
9 1 4.38203 0.277155 23.8063
10 1 6.70709 3.77294 21.5049
11 1 2.90439 2.14449 22.5253
12 1 5.34963 1.98025 22.7084
13 1 2.22221 2.41807 19.2051
14 1 3.31282 0.252479 18.3376
15 1 1.96271 2.77583 24.8785
16 2 4.63383 2.58087 16.6149
17 2 1.91941 1.15887 16.0314
18 2 4.70702 2.24821 20.3054
19 2 0.775372 0.448659 18.5675
20 2 4.05501 1.08881 13.8258
21 2 6.8555 4.04029 16.2006
22 2 1.23218 2.11988 13.4498
23 2 4.08191 3.79918 13.3491
24 2 6.64194 4.16831 11.3201
25 2 4.18688 0.594609 9.06769
26 2 1.59091 1.14562 10.8024
27 2 4.07606 2.54293 11.0333
28 2 1.63578 2.25743 8.50087
29 2 4.36348 3.95407 8.53184
30 2 5.70962 3.10904 6.17045
31 2 3.45713 1.62667 6.50407
32 2 5.86213 4.27086 3.50119
33 2 3.12998 3.06856 4.0928
34 2 5.45626 1.32734 3.81653
35 2 0.767031 0.1032 6.09703
ITEM: TIMESTEP
9300
ITEM: NUMBER OF ATOMS
35
ITEM: BOX BOUNDS xy xz yz pp pp pp
0.0000000000000000e+00 7.6685730000000003e+00 2.5561910000000001e+00
0.0000000000000000e+00 4.4274529999999999e+00 0.0000000000000000e+00
0.0000000000000000e+00 3.3699264999999997e+01 0.0000000000000000e+00
ITEM: ATOMS id type x y z
1 1 5.76186 3.94817 27.7711
2 1 4.32687 1.76475 27.5472
3 1 3.31385 4.0054 26.248
4 1 4.07915 4.36512 23.3799
5 1 1.77707 1.87312 27.6363
6 1 3.03094 0.0667568 25.4345
7 1 4.95615 1.86074 25.1145
8 1 1.58351 0.200029 20.8078
9 1 4.32382 0.0965826 23.4277
10 1 6.808 4.24792 20.9712
11 1 2.86957 1.87447 22.4564
12 1 5.24684 2.37784 22.9214
13 1 2.44656 2.55461 19.1677
14 1 2.97129 0.0410761 18.9329
15 1 2.13724 2.09909 25.1334
16 2 4.42639 2.26281 16.5237
17 2 1.8502 0.892499 15.96
18 2 4.8503 2.26744 19.8237
19 2 0.289994 0.317577 18.1415
20 2 3.8834 1.05093 13.7247
21 2 7.28959 3.58619 15.9418
22 2 1.46726 2.42012 13.753
23 2 3.84711 3.80989 13.8902
24 2 6.62915 3.82038 11.543
25 2 4.75141 1.16264 8.77639
26 2 1.3982 1.10004 11.4382
27 2 3.89655 2.58159 11.1729
28 2 1.92415 2.7681 8.85649
29 2 4.51437 3.90436 8.52094
30 2 5.92733 3.17692 6.12481
31 2 3.1862 1.64359 6.07971
32 2 5.42402 4.65913 3.82359
33 2 2.67321 2.81784 3.74463
34 2 5.50337 1.73501 3.72439
35 2 0.548958 0.349761 6.25074
ITEM: TIMESTEP
9400
ITEM: NUMBER OF ATOMS
35
ITEM: BOX BOUNDS xy xz yz pp pp pp
0.0000000000000000e+00 7.6685730000000003e+00 2.5561910000000001e+00
0.0000000000000000e+00 4.4274529999999999e+00 0.0000000000000000e+00
0.0000000000000000e+00 3.3699264999999997e+01 0.0000000000000000e+00
ITEM: ATOMS id type x y z
1 1 6.01525 4.07952 27.6772
2 1 4.71545 1.95234 27.4705
3 1 3.71377 3.77565 26.4594
4 1 1.33981 0.0401238 23.9818
5 1 2.01801 1.67886 27.1833
6 1 6.27668 3.50937 25.421
7 1 4.80293 1.3654 25.1489
8 1 1.8343 0.36719 20.7912
9 1 6.45752 4.16653 23.1123
10 1 3.97932 0.0653923 20.7668
11 1 3.25631 2.33969 22.0546
12 1 5.74787 1.86528 22.1107
13 1 2.02134 2.06643 18.3524
14 1 5.68914 4.05267 18.1745
15 1 2.53327 1.8119 24.727
16 2 4.42822 2.15694 16.7126
17 2 2.10609 0.539239 16.1837
18 2 4.69043 2.48186 19.5731
19 2 0.42593 0.134928 18.3775
20 2 3.87469 1.09287 14.1554
21 2 7.02007 3.56326 16.1847
22 2 6.17382 2.51969 13.6605
23 2 4.04234 3.88951 13.7972
24 2 6.26188 3.83228 11.0314
25 2 4.90954 1.47491 8.53545
26 2 1.18317 0.733303 11.578
27 2 3.99745 2.44669 11.5002
28 2 2.4024 2.85014 8.8325
29 2 4.81224 4.29408 8.74815
30 2 5.86295 3.27512 6.30144
31 2 3.00666 1.83376 6.39986
32 2 2.33823 0.212036 4.13649
33 2 2.75885 3.36091 3.36018
34 2 5.16346 1.87189 3.84449
35 2 0.60208 0.272471 6.13708
ITEM: TIMESTEP
9500
ITEM: NUMBER OF ATOMS
35
ITEM: BOX BOUNDS xy xz yz pp pp pp
0.0000000000000000e+00 7.6685730000000003e+00 2.5561910000000001e+00
0.0000000000000000e+00 4.4274529999999999e+00 0.0000000000000000e+00
0.0000000000000000e+00 3.3699264999999997e+01 0.0000000000000000e+00
ITEM: ATOMS id type x y z
1 1 6.38997 4.18574 27.5762
2 1 5.08342 1.84752 27.2622
3 1 3.45529 4.08076 26.7242
4 1 3.82593 3.77793 23.9878
5 1 2.78987 1.56963 26.2784
6 1 6.26444 3.24359 25.2992
7 1 5.17835 1.05251 24.9991
8 1 2.26855 0.70673 20.8054
9 1 6.2619 4.02212 22.9649
10 1 6.94776 3.598 20.7353
11 1 3.3393 2.96195 21.9209
12 1 5.43158 1.65287 22.1769
13 1 2.26106 2.01075 18.4609
14 1 5.82524 4.31861 18.4299
15 1 2.74981 1.63525 23.7729
16 2 4.65246 2.14508 16.8035
17 2 1.7975 0.673685 16.033
18 2 4.26868 2.14078 19.8153
19 2 3.33348 4.40946 18.685
20 2 3.91831 0.928985 13.9953
21 2 7.00387 3.43667 15.9551
22 2 6.36142 2.3899 13.539
23 2 3.79701 3.93106 13.7035
24 2 6.15406 3.89214 11.2071
25 2 5.07814 1.56804 8.90407
26 2 1.03759 0.868699 10.9942
27 2 3.5315 2.04132 11.4912
28 2 2.67782 3.04983 9.03748
29 2 2.44431 0.322263 8.78942
30 2 5.66934 3.364 6.50675
31 2 3.26194 1.90821 6.35388
32 2 2.64399 0.518143 4.01592
33 2 2.33938 3.61557 3.69071
34 2 4.70223 1.99426 4.2257
35 2 0.488795 0.103881 6.01919
ITEM: TIMESTEP
9600
ITEM: NUMBER OF ATOMS
35
ITEM: BOX BOUNDS xy xz yz pp pp pp
0.0000000000000000e+00 7.6685730000000003e+00 2.5561910000000001e+00
0.0000000000000000e+00 4.4274529999999999e+00 0.0000000000000000e+00
0.0000000000000000e+00 3.3699264999999997e+01 0.0000000000000000e+00
ITEM: ATOMS id type x y z
1 1 6.34156 4.27555 27.3232
2 1 5.59906 1.94992 26.8987
3 1 3.79262 3.84744 26.9686
4 1 4.10266 3.46044 24.4427
5 1 3.05577 1.49957 25.7475
6 1 6.73928 3.38717 25.1828
7 1 5.11662 1.09569 24.6648
8 1 2.30699 0.97155 21.2597
9 1 6.34709 3.74094 22.7058
10 1 6.19565 3.2107 20.2109
11 1 3.85506 3.48833 21.966
12 1 5.2358 1.17108 22.2201
13 1 1.96652 2.17247 18.1232
14 1 5.78299 4.65384 17.7702
15 1 2.24489 1.45761 23.5945
16 2 4.48639 2.22364 16.6703
17 2 1.64642 0.669326 16.0439
18 2 4.59396 1.45049 19.9318
19 2 0.942828 -0.0618539 18.6966
20 2 3.93635 0.952245 13.903
21 2 2.18295 3.50246 15.861
22 2 1.29542 2.06651 13.6982
23 2 3.75158 3.70032 13.5145
24 2 6.01582 3.55839 11.4162
25 2 5.01261 1.92321 8.70106
26 2 0.96207 0.718338 11.3177
27 2 3.3833 2.24609 11.3514
28 2 2.61156 3.56951 8.98301
29 2 2.66083 0.46613 8.74031
30 2 5.7237 3.24334 6.59903
31 2 3.10644 1.63821 6.47507
32 2 2.36265 0.773926 3.94031
33 2 2.09348 3.37259 4.14501
34 2 4.84164 2.56632 4.16484
35 2 0.556589 0.394258 6.42511
ITEM: TIMESTEP
9700
ITEM: NUMBER OF ATOMS
35
ITEM: BOX BOUNDS xy xz yz pp pp pp
0.0000000000000000e+00 7.6685730000000003e+00 2.5561910000000001e+00
0.0000000000000000e+00 4.4274529999999999e+00 0.0000000000000000e+00
0.0000000000000000e+00 3.3699264999999997e+01 0.0000000000000000e+00
ITEM: ATOMS id type x y z
1 1 6.76837 4.25215 27.4046
2 1 5.59697 1.92159 26.8753
3 1 3.97231 3.70665 26.9166
4 1 4.47418 3.29721 24.0562
5 1 2.81357 1.33519 26.0585
6 1 6.9792 3.4433 25.0829
7 1 5.42355 1.20037 24.5806
8 1 1.83383 1.46348 20.7282
9 1 6.27024 3.32743 22.6224
10 1 6.25459 3.54762 20.1919
11 1 3.68825 3.34893 21.2319
12 1 4.86903 1.24999 22.3982
13 1 1.74681 1.96518 18.2699
14 1 3.92417 -0.0271815 17.796
15 1 2.64464 1.24872 23.3083
16 2 4.59335 2.37091 16.4982
17 2 1.925 0.632261 15.9842
18 2 4.29277 1.46668 19.5865
19 2 4.00314 3.71701 18.8886
20 2 3.64655 0.715427 13.9546
21 2 2.05041 3.47864 15.7698
22 2 6.14262 2.0858 13.7302
23 2 3.99852 3.44518 13.7841
24 2 5.87216 3.69083 11.4368
25 2 5.10485 2.32401 8.93684
26 2 0.748194 0.598528 11.3855
27 2 3.65403 2.0054 11.1246
28 2 2.47292 3.68475 8.74258
29 2 2.53763 0.640615 9.24439
30 2 5.80502 3.31291 6.36728
31 2 3.14865 1.80464 6.40963
32 2 1.76014 0.947652 4.1162
33 2 2.34733 3.95621 4.49231
34 2 4.55275 2.31666 4.06874
35 2 0.78113 0.443563 6.60426
ITEM: TIMESTEP
9800
ITEM: NUMBER OF ATOMS
35
ITEM: BOX BOUNDS xy xz yz pp pp pp
0.0000000000000000e+00 7.6685730000000003e+00 2.5561910000000001e+00
0.0000000000000000e+00 4.4274529999999999e+00 0.0000000000000000e+00
0.0000000000000000e+00 3.3699264999999997e+01 0.0000000000000000e+00
ITEM: ATOMS id type x y z
1 1 7.2329 3.67333 27.3072
2 1 5.41734 1.88145 27.2764
3 1 4.10996 3.73118 26.1447
4 1 4.10296 3.37472 23.5881
5 1 3.3761 1.24605 25.5511
6 1 6.60076 3.47943 24.9895
7 1 5.86206 1.2274 24.9165
8 1 1.93923 1.00792 20.7426
9 1 6.38148 2.84678 22.9098
10 1 5.97895 3.63742 20.6543
11 1 3.27698 3.24412 21.6193
12 1 4.76573 1.24712 22.0985
13 1 1.46668 2.17436 18.6705
14 1 4.43671 -0.358757 17.9059
15 1 2.76821 1.04474 23.2396
16 2 4.81158 2.00655 16.3211
17 2 2.18641 0.640087 16.3359
18 2 4.36955 1.40061 19.6086
19 2 4.13051 3.89632 18.3798
20 2 3.45176 0.575731 13.7359
21 2 2.11928 3.1922 15.6168
22 2 6.24512 1.80792 13.4155
23 2 3.711 3.47809 13.7565
24 2 6.14342 3.53922 11.391
25 2 5.01227 2.46681 8.9948
26 2 0.812165 0.354066 11.3663
27 2 3.40186 2.2192 11.5635
28 2 2.27788 3.74618 8.97947
29 2 2.22639 0.887229 9.14742
30 2 5.63913 3.58248 6.30848
31 2 3.66286 1.91078 6.77571
32 2 2.02233 1.38542 4.34754
33 2 1.72623 4.06486 4.06133
34 2 4.30788 2.42436 4.06692
35 2 1.01929 0.699882 6.92061
ITEM: TIMESTEP
9900
ITEM: NUMBER OF ATOMS
35
ITEM: BOX BOUNDS xy xz yz pp pp pp
0.0000000000000000e+00 7.6685730000000003e+00 2.5561910000000001e+00
0.0000000000000000e+00 4.4274529999999999e+00 0.0000000000000000e+00
0.0000000000000000e+00 3.3699264999999997e+01 0.0000000000000000e+00
ITEM: ATOMS id type x y z
1 1 2.1458 3.25695 27.4841
2 1 5.58308 1.3035 27.0209
3 1 4.7743 4.04753 26.1574
4 1 3.39736 2.98286 23.6637
5 1 3.35907 1.92197 25.7057
6 1 6.85815 3.81429 25.1212
7 1 5.84056 0.942913 24.752
8 1 1.97622 0.80886 21.1698
9 1 6.36732 2.85394 23.1057
10 1 5.60052 2.98648 20.9021
11 1 2.95154 3.60626 20.4691
12 1 4.9288 0.398736 22.284
13 1 1.87959 2.19825 18.5592
14 1 3.81751 -0.161452 17.9175
15 1 2.64377 0.393508 23.5054
16 2 4.99819 1.72174 16.0882
17 2 2.3587 0.44264 16.0409
18 2 4.27506 1.30031 19.6083
19 2 4.31178 3.78751 18.5242
20 2 3.78212 0.44898 13.7668
21 2 2.20354 3.1763 15.8997
22 2 0.90521 1.8672 13.8394
23 2 3.77845 3.48349 13.7452
24 2 5.97583 3.32994 11.296
25 2 4.53906 2.62154 9.26027
26 2 1.01551 0.45187 11.1888
27 2 3.38424 1.73378 11.4139
28 2 2.19264 4.07534 8.82424
29 2 2.4049 1.17825 9.02036
30 2 6.25997 3.67298 6.59331
31 2 3.2919 2.03721 6.71315
32 2 1.91418 1.39472 4.52904
33 2 6.78543 4.29631 3.78074
34 2 4.43218 3.21306 4.35388
35 2 0.636618 0.783243 6.53491
ITEM: TIMESTEP
10000
ITEM: NUMBER OF ATOMS
35
ITEM: BOX BOUNDS xy xz yz pp pp pp
0.0000000000000000e+00 7.6685730000000003e+00 2.5561910000000001e+00
0.0000000000000000e+00 4.4274529999999999e+00 0.0000000000000000e+00
0.0000000000000000e+00 3.3699264999999997e+01 0.0000000000000000e+00
ITEM: ATOMS id type x y z
1 1 2.04532 3.12924 27.8035
2 1 5.37734 1.02618 27.0507
3 1 4.86855 3.98351 26.568
4 1 3.93341 2.54225 23.4052
5 1 3.35137 1.8634 25.8677
6 1 7.07331 3.73403 25.3081
7 1 0.703077 1.31131 24.8974
8 1 2.06007 0.984329 21.2439
9 1 6.22458 2.44107 22.6268
10 1 4.97876 3.44094 20.9287
11 1 2.36408 2.81709 20.3782
12 1 4.73468 0.372657 22.7203
13 1 2.30041 1.47637 18.0344
14 1 6.72562 4.03577 18.0674
15 1 2.69242 0.233788 23.9158
16 2 4.95453 1.76025 16.7648
17 2 2.18723 0.0215809 15.7545
18 2 4.28941 1.24459 19.7632
19 2 3.96942 3.52955 18.4692
20 2 3.98342 0.371831 13.8456
21 2 2.71597 3.0524 15.9515
22 2 6.36346 2.06612 13.7628
23 2 3.72735 3.25213 13.4728
24 2 6.15726 3.18993 11.4351
25 2 4.78164 2.94871 8.84125
26 2 0.837284 0.354377 11.4836
27 2 3.54217 1.61396 11.4047
28 2 7.22168 4.50443 9.14758
29 2 1.93526 1.26634 8.65624
30 2 5.73016 3.48439 6.53861
31 2 3.16209 2.14837 6.43968
32 2 1.95841 1.8277 3.79015
33 2 4.72309 0.607111 4.1595
34 2 4.35814 3.44518 4.5105
35 2 0.563292 0.739371 6.47943
ITEM: TIMESTEP
10100
ITEM: NUMBER OF ATOMS
35
ITEM: BOX BOUNDS xy xz yz pp pp pp
0.0000000000000000e+00 7.6685730000000003e+00 2.5561910000000001e+00
0.0000000000000000e+00 4.4274529999999999e+00 0.0000000000000000e+00
0.0000000000000000e+00 3.3699264999999997e+01 0.0000000000000000e+00
ITEM: ATOMS id type x y z
1 1 1.73204 2.97908 27.2693
2 1 5.01958 1.13034 27.8233
3 1 4.59577 3.4865 26.5953
4 1 3.63167 2.35378 23.1146
5 1 3.52423 1.36474 25.6629
6 1 7.50491 3.76189 25.0858
7 1 5.86672 1.84798 25.1776
8 1 2.09001 1.01503 21.3899
9 1 6.23314 2.9214 23.076
10 1 4.63048 3.157 21.2359
11 1 1.56282 2.98466 20.1896
12 1 5.16102 0.450354 22.44
13 1 2.20892 1.38354 18.5536
14 1 6.35473 3.5605 17.8821
15 1 2.16948 -0.00921464 24.2705
16 2 5.06381 1.18403 17.1542
17 2 2.4294 -0.102406 15.8865
18 2 4.64256 0.882132 20.016
19 2 3.7607 3.60653 18.6149
20 2 4.25317 0.530356 14.0405
21 2 2.59766 2.69894 15.9779
22 2 1.42656 1.62103 13.9081
23 2 4.09801 3.10853 13.4729
24 2 6.18625 3.16681 11.1868
25 2 4.42551 3.05822 8.92618
26 2 1.09073 0.416384 11.3059
27 2 3.46819 1.80863 10.9777
28 2 4.39661 0.0971652 8.90623
29 2 1.88077 1.67139 9.07129
30 2 5.72425 3.62589 6.23635
31 2 3.09015 1.98022 6.47701
32 2 2.00854 2.50325 3.61986
33 2 4.48949 1.08918 4.293
34 2 4.53265 3.82797 3.58386
35 2 0.721279 0.579312 6.68187
ITEM: TIMESTEP
10200
ITEM: NUMBER OF ATOMS
35
ITEM: BOX BOUNDS xy xz yz pp pp pp
0.0000000000000000e+00 7.6685730000000003e+00 2.5561910000000001e+00
0.0000000000000000e+00 4.4274529999999999e+00 0.0000000000000000e+00
0.0000000000000000e+00 3.3699264999999997e+01 0.0000000000000000e+00
ITEM: ATOMS id type x y z
1 1 2.00527 2.86307 27.0193
2 1 4.99945 1.08036 27.1944
3 1 4.18858 3.60713 26.6226
4 1 3.21517 1.88031 23.9336
5 1 3.07018 0.979349 26.0071
6 1 7.22715 3.99688 24.9126
7 1 5.62422 1.9124 25.1425
8 1 3.04003 1.12293 21.444
9 1 6.33685 2.8503 22.9266
10 1 3.55228 3.5509 21.5236
11 1 6.11932 2.93883 20.7589
12 1 5.25947 0.733825 22.7548
13 1 2.67485 0.998493 18.7365
14 1 5.97795 3.06624 18.3339
15 1 4.64353 4.26722 23.9256
16 2 5.19064 0.980761 16.8938
17 2 4.94853 3.91612 16.1365
18 2 4.89018 0.711082 19.9533
19 2 3.70288 3.29045 18.928
20 2 6.91507 4.40407 14.0658
21 2 2.75404 2.52316 16.2029
22 2 1.70498 1.65788 13.7731
23 2 4.37005 3.27544 13.5335
24 2 6.17398 3.49942 11.5522
25 2 4.16644 3.28101 8.70914
26 2 0.975916 0.307281 11.1872
27 2 3.80324 1.75367 11.434
28 2 4.11628 0.0902266 8.48361
29 2 1.55343 1.84005 8.75802
30 2 5.79109 3.49521 5.99876
31 2 3.25251 2.27709 6.3352
32 2 2.01187 2.95705 4.04786
33 2 4.34851 1.39423 3.99033
34 2 4.54143 4.37731 3.5713
35 2 0.896917 0.516479 6.26645
ITEM: TIMESTEP
10300
ITEM: NUMBER OF ATOMS
35
ITEM: BOX BOUNDS xy xz yz pp pp pp
0.0000000000000000e+00 7.6685730000000003e+00 2.5561910000000001e+00
0.0000000000000000e+00 4.4274529999999999e+00 0.0000000000000000e+00
0.0000000000000000e+00 3.3699264999999997e+01 0.0000000000000000e+00
ITEM: ATOMS id type x y z
1 1 1.43124 3.17638 27.3124
2 1 5.42876 0.800217 26.8605
3 1 4.04689 2.86958 26.465
4 1 3.13358 2.08777 24.6494
5 1 2.58333 1.07102 26.6074
6 1 6.76456 4.33902 25.134
7 1 5.80737 1.83811 24.9139
8 1 2.18938 0.805493 21.6212
9 1 6.71682 2.84376 22.8937
10 1 3.7453 3.12196 21.6398
11 1 5.71884 3.55967 20.3473
12 1 4.58718 1.15979 22.5606
13 1 2.35742 0.281343 18.4618
14 1 6.50221 2.79544 18.3602
15 1 4.4382 4.34737 23.9006
16 2 5.22926 0.882579 16.634
17 2 5.23325 3.73029 16.1479
18 2 5.35694 0.903378 19.9004
19 2 3.76756 2.58442 19.037
20 2 7.11287 4.54035 14.2904
21 2 2.78064 2.06959 16.2907
22 2 1.77711 1.56374 13.6915
23 2 4.27706 3.14139 13.8561
24 2 6.26661 3.34805 11.4292
25 2 4.051 3.43374 8.78145
26 2 1.09677 0.248986 11.1147
27 2 3.85627 1.76914 11.4975
28 2 3.94722 0.604292 8.52033
29 2 1.20142 1.78037 8.57931
30 2 5.64463 3.59759 6.35255
31 2 3.26638 2.15508 6.26794
32 2 2.19969 3.12589 3.73734
33 2 4.60605 1.64153 3.65736
34 2 4.62954 4.72675 3.85711
35 2 0.679821 0.964704 6.00553
ITEM: TIMESTEP
10400
ITEM: NUMBER OF ATOMS
35
ITEM: BOX BOUNDS xy xz yz pp pp pp
0.0000000000000000e+00 7.6685730000000003e+00 2.5561910000000001e+00
0.0000000000000000e+00 4.4274529999999999e+00 0.0000000000000000e+00
0.0000000000000000e+00 3.3699264999999997e+01 0.0000000000000000e+00
ITEM: ATOMS id type x y z
1 1 6.26492 3.04615 27.0802
2 1 5.17617 0.345358 27.5408
3 1 3.74744 2.7477 26.5668
4 1 3.22992 2.38288 23.9593
5 1 2.51062 1.05887 27.2808
6 1 6.7622 4.42621 24.8435
7 1 5.5894 2.14641 25.0824
8 1 2.2966 1.37016 22.1386
9 1 5.80241 3.09462 22.7886
10 1 3.6898 3.10963 21.4138
11 1 6.44207 3.815 20.3689
12 1 4.74787 0.805547 22.4416
13 1 2.38796 0.141009 18.1615
14 1 6.49864 2.87524 18.3418
15 1 4.30813 4.18594 24.0883
16 2 5.51039 0.438729 16.9389
17 2 5.46212 3.36404 16.0404
18 2 5.70025 0.765856 19.8124
19 2 3.6191 2.19319 18.9239
20 2 4.38475 0.258801 13.9189
21 2 2.9337 1.98651 16.0826
22 2 1.69876 1.46363 13.7571
23 2 4.13866 2.85418 13.791
24 2 6.39002 3.07147 11.068
25 2 3.64596 3.50597 8.81805
26 2 1.41973 0.392614 11.3338
27 2 3.80133 1.84381 11.2255
28 2 3.71936 0.666207 9.13435
29 2 1.36519 2.11489 8.81096
30 2 5.72401 4.00145 6.23994
31 2 2.93719 2.33017 5.98124
32 2 2.14662 3.4004 3.80682
33 2 4.92668 2.00081 3.67396
34 2 2.48905 0.263843 3.80751
35 2 0.244368 0.88102 6.35318
ITEM: TIMESTEP
10500
ITEM: NUMBER OF ATOMS
35
ITEM: BOX BOUNDS xy xz yz pp pp pp
0.0000000000000000e+00 7.6685730000000003e+00 2.5561910000000001e+00
0.0000000000000000e+00 4.4274529999999999e+00 0.0000000000000000e+00
0.0000000000000000e+00 3.3699264999999997e+01 0.0000000000000000e+00
ITEM: ATOMS id type x y z
1 1 6.09319 2.76484 27.2186
2 1 4.7821 0.777675 27.2182
3 1 3.29866 3.30156 26.2534
4 1 2.99281 2.39446 23.9639
5 1 2.43278 0.159622 27.152
6 1 6.70028 4.23643 24.8288
7 1 5.08149 2.14991 25.1705
8 1 2.6679 1.01259 21.6383
9 1 5.31938 3.14958 23.023
10 1 3.72943 2.98925 21.113
11 1 6.16292 3.6329 20.6648
12 1 5.26578 0.283807 22.5285
13 1 5.52883 4.49349 18.2007
14 1 1.59497 2.28739 17.8219
15 1 1.94937 0.721486 25.1844
16 2 0.211708 0.0161232 16.8592
17 2 5.56715 2.96772 15.7339
18 2 1.01179 0.890628 19.7665
19 2 4.09871 2.23494 18.84
20 2 6.48656 4.23697 13.5893
21 2 3.22054 1.88423 16.1906
22 2 1.51759 1.4357 14.0467
23 2 4.02648 3.27261 13.5799
24 2 6.57843 3.33856 11.4136
25 2 3.62711 3.69925 8.57596
26 2 1.41475 0.349387 11.3792
27 2 3.99318 1.88571 11.1689
28 2 3.54747 0.333003 8.8502
29 2 1.21848 1.99753 8.59826
30 2 5.27926 3.94301 6.49031
31 2 2.7098 2.48871 6.19229
32 2 2.50935 3.89316 3.63479
33 2 5.16302 2.15555 4.2742
34 2 2.2748 0.791156 3.96256
35 2 5.50542 0.831023 6.41322
ITEM: TIMESTEP
10600
ITEM: NUMBER OF ATOMS
35
ITEM: BOX BOUNDS xy xz yz pp pp pp
0.0000000000000000e+00 7.6685730000000003e+00 2.5561910000000001e+00
0.0000000000000000e+00 4.4274529999999999e+00 0.0000000000000000e+00
0.0000000000000000e+00 3.3699264999999997e+01 0.0000000000000000e+00
ITEM: ATOMS id type x y z
1 1 1.25833 1.93169 27.5513
2 1 4.13401 1.07528 26.9148
3 1 3.1479 3.24074 26.4675
4 1 2.81283 2.43747 23.2085
5 1 2.21871 -0.00296261 27.9156
6 1 6.59691 4.11162 25.0383
7 1 4.66295 2.49223 24.844
8 1 2.79312 0.574342 21.6903
9 1 5.52025 2.94287 22.9281
10 1 4.20281 2.95693 21.0717
11 1 7.00515 3.21557 20.0479
12 1 5.20361 0.605408 22.7264
13 1 5.89598 4.45992 18.4671
14 1 1.84041 1.87248 17.859
15 1 1.63111 1.31611 25.0563
16 2 0.614783 -0.0364391 16.5268
17 2 5.43458 3.28025 16.0515
18 2 1.03017 0.653272 19.9987
19 2 4.27692 2.41059 18.5314
20 2 4.00964 0.407371 13.8184
21 2 3.38293 1.31273 15.9863
22 2 1.2626 1.457 14.009
23 2 3.55423 2.98363 13.793
24 2 6.73814 3.20229 11.0234
25 2 3.56552 3.2826 8.98533
26 2 1.41464 0.459693 11.0959
27 2 4.10803 1.65588 10.8585
28 2 3.7472 0.500264 8.54269
29 2 1.05103 1.83026 8.88779
30 2 5.14981 3.87464 6.43228
31 2 2.63648 2.34793 6.55761
32 2 2.66115 4.19414 3.87832
33 2 4.94969 2.76602 4.17987
34 2 2.55975 1.29395 4.15305
35 2 5.1048 0.736611 6.31767
ITEM: TIMESTEP
10700
ITEM: NUMBER OF ATOMS
35
ITEM: BOX BOUNDS xy xz yz pp pp pp
0.0000000000000000e+00 7.6685730000000003e+00 2.5561910000000001e+00
0.0000000000000000e+00 4.4274529999999999e+00 0.0000000000000000e+00
0.0000000000000000e+00 3.3699264999999997e+01 0.0000000000000000e+00
ITEM: ATOMS id type x y z
1 1 6.08017 1.8069 27.1944
2 1 3.46035 1.10195 27.0289
3 1 2.83363 3.95169 26.7159
4 1 3.59126 2.34568 22.9101
5 1 4.95701 3.45163 28.041
6 1 6.37856 4.22679 24.8066
7 1 4.41578 2.47169 25.1087
8 1 3.38731 0.542418 20.9035
9 1 6.0169 3.1851 22.7084
10 1 4.89004 2.57365 20.8364
11 1 2.18539 2.61813 20.5354
12 1 0.258795 0.0845383 22.6958
13 1 3.65428 0.00281196 18.6767
14 1 1.52772 2.00309 18.1797
15 1 1.48613 1.24555 25.0788
16 2 3.16786 4.46893 16.6762
17 2 5.91574 3.00735 16.0357
18 2 0.772084 0.4797 19.9391
19 2 4.27471 2.66436 18.4272
20 2 3.7846 0.00132886 13.265
21 2 3.34967 1.63773 16.0298
22 2 0.9762 1.74416 13.8828
23 2 3.44213 3.09432 13.6185
24 2 6.59568 3.17487 11.1764
25 2 3.73352 3.24493 8.98297
26 2 1.77472 0.184993 11.577
27 2 4.18525 1.75056 11.3853
28 2 3.74471 0.206325 8.85135
29 2 1.10694 1.69579 8.73246
30 2 4.83619 3.89601 6.34957
31 2 2.37228 2.54427 6.59071
32 2 2.47328 4.14109 4.05074
33 2 5.07802 3.06886 3.58877
34 2 2.80626 1.4332 4.19355
35 2 4.95782 1.16958 6.40313
ITEM: TIMESTEP
10800
ITEM: NUMBER OF ATOMS
35
ITEM: BOX BOUNDS xy xz yz pp pp pp
0.0000000000000000e+00 7.6685730000000003e+00 2.5561910000000001e+00
0.0000000000000000e+00 4.4274529999999999e+00 0.0000000000000000e+00
0.0000000000000000e+00 3.3699264999999997e+01 0.0000000000000000e+00
ITEM: ATOMS id type x y z
1 1 0.946293 1.73347 26.832
2 1 3.30262 1.13406 26.9839
3 1 2.3508 3.80277 26.8539
4 1 4.25258 1.25654 22.9238
5 1 4.545 3.54603 27.6619
6 1 6.36853 4.50312 24.9801
7 1 4.41864 2.7829 25.4613
8 1 3.37772 0.374814 20.6263
9 1 6.10262 3.40677 22.9813
10 1 5.0283 2.4472 20.7387
11 1 2.29783 2.29357 21.4114
12 1 1.25217 0.0333498 22.3641
13 1 3.48091 0.155333 18.0433
14 1 1.84487 1.78068 18.6591
15 1 1.61546 1.12217 24.3263
16 2 0.653158 0.408993 16.6155
17 2 6.1809 3.02715 16.1309
18 2 0.603956 0.0809438 20.0382
19 2 4.24165 2.83909 18.2761
20 2 5.90467 4.37588 14.0191
21 2 3.44644 1.69756 15.9066
22 2 5.75276 1.37759 13.6052
23 2 3.53727 3.19929 13.9486
24 2 6.92598 2.84361 11.1003
25 2 3.91426 3.17922 8.75497
26 2 1.69683 0.256823 11.4416
27 2 4.28221 1.91198 11.267
28 2 3.60957 0.186176 9.12923
29 2 1.22319 1.44982 8.90005
30 2 4.62676 4.24715 6.0296
31 2 2.07898 3.02064 6.39214
32 2 2.53601 4.28861 4.00859
33 2 5.32291 2.83306 3.72157
34 2 2.65714 1.38127 4.1926
35 2 4.85332 1.43857 6.47966
ITEM: TIMESTEP
10900
ITEM: NUMBER OF ATOMS
35
ITEM: BOX BOUNDS xy xz yz pp pp pp
0.0000000000000000e+00 7.6685730000000003e+00 2.5561910000000001e+00
0.0000000000000000e+00 4.4274529999999999e+00 0.0000000000000000e+00
0.0000000000000000e+00 3.3699264999999997e+01 0.0000000000000000e+00
ITEM: ATOMS id type x y z
1 1 5.63877 1.29242 26.5259
2 1 3.63567 1.4582 27.4038
3 1 2.04085 3.04169 26.9446
4 1 4.8452 1.01374 22.9275
5 1 4.71333 4.06565 27.2441
6 1 4.0998 0.215854 25.299
7 1 3.67341 3.4569 24.3173
8 1 2.88425 0.230784 20.5114
9 1 6.21787 3.22346 23.3743
10 1 5.02743 2.11699 20.828
11 1 2.70606 2.24679 21.6577
12 1 4.06289 4.08287 22.2843
13 1 3.68672 0.246308 18.3301
14 1 1.62723 2.2856 18.9939
15 1 1.87971 1.51161 24.6916
16 2 1.17868 0.176672 16.3998
17 2 6.18802 3.10152 16.3979
18 2 2.93714 4.12627 19.7627
19 2 4.24824 2.69965 18.3962
20 2 3.16706 0.264861 13.7083
21 2 3.40681 1.54915 16.213
22 2 5.78758 1.52793 13.8563
23 2 3.11682 3.04594 13.8593
24 2 2.05977 3.30657 11.5091
25 2 3.76571 2.89836 8.42386
26 2 1.77972 0.0062509 10.9716
27 2 4.42934 1.46446 11.295
28 2 3.88995 0.180087 8.93851
29 2 1.25699 1.58829 8.7902
30 2 2.01028 0.23206 6.32391
31 2 6.83034 3.15359 6.51874
32 2 0.216508 0.0161223 4.00909
33 2 5.27106 2.66607 4.193
34 2 2.71295 1.68738 3.89906
35 2 4.52723 1.45652 6.32118
ITEM: TIMESTEP
11000
ITEM: NUMBER OF ATOMS
35
ITEM: BOX BOUNDS xy xz yz pp pp pp
0.0000000000000000e+00 7.6685730000000003e+00 2.5561910000000001e+00
0.0000000000000000e+00 4.4274529999999999e+00 0.0000000000000000e+00
0.0000000000000000e+00 3.3699264999999997e+01 0.0000000000000000e+00
ITEM: ATOMS id type x y z
1 1 5.75327 1.0849 26.6379
2 1 3.57712 1.68603 27.778
3 1 2.02002 3.10569 26.9712
4 1 4.3659 1.54086 23.2512
5 1 4.8559 3.51306 26.2085
6 1 4.13766 0.280478 25.1718
7 1 3.45723 3.38611 24.7721
8 1 3.16004 0.12285 20.5747
9 1 6.02138 3.27419 23.0849
10 1 5.51297 2.28081 21.1472
11 1 2.64567 2.21895 21.7007
12 1 4.09922 4.42409 22.4782
13 1 3.359 -0.108715 18.1598
14 1 1.77149 1.38703 18.5078
15 1 1.90488 1.61792 24.4993
16 2 3.61077 4.18138 16.5945
17 2 6.36464 3.07249 16.0406
18 2 2.88738 4.34514 20.0581
19 2 4.38367 2.35851 18.6089
20 2 2.86503 0.185402 13.3175
21 2 3.63597 1.5103 15.8944
22 2 5.78854 1.73662 14.0173
23 2 3.23298 3.25377 13.8936
24 2 6.84767 2.87487 11.4645
25 2 3.80631 2.99804 8.66196
26 2 4.60081 4.31818 10.8245
27 2 4.64684 1.65081 11.4602
28 2 6.74579 4.43937 8.76299
29 2 1.15424 1.78089 8.99895
30 2 1.59986 0.44961 6.56101
31 2 6.77024 3.09131 6.36111
32 2 2.8781 4.28499 4.11074
33 2 5.40021 3.46012 4.29505
34 2 2.85862 1.5227 3.80152
35 2 4.07389 1.57996 6.19647
ITEM: TIMESTEP
11100
ITEM: NUMBER OF ATOMS
35
ITEM: BOX BOUNDS xy xz yz pp pp pp
0.0000000000000000e+00 7.6685730000000003e+00 2.5561910000000001e+00
0.0000000000000000e+00 4.4274529999999999e+00 0.0000000000000000e+00
0.0000000000000000e+00 3.3699264999999997e+01 0.0000000000000000e+00
ITEM: ATOMS id type x y z
1 1 1.63734 0.794649 27.0591
2 1 3.85356 1.10679 27.3772
3 1 2.66397 3.5629 26.8071
4 1 4.26173 1.62812 22.7757
5 1 5.14159 3.07457 26.4573
6 1 3.40275 0.687626 25.2987
7 1 3.02133 3.35643 24.7851
8 1 3.10698 0.211537 20.6296
9 1 6.31119 3.8407 23.1254
10 1 5.39703 2.2921 20.9204
11 1 2.70623 2.54415 21.3889
12 1 0.983378 0.396034 22.4071
13 1 6.52765 3.99198 18.5891
14 1 2.07028 1.82399 18.3348
15 1 0.695843 1.73819 24.8758
16 2 3.51445 4.23989 16.9317
17 2 6.19274 2.79073 15.8535
18 2 3.29588 4.40131 19.9489
19 2 4.31763 1.93867 18.6927
20 2 3.20363 0.234987 13.3916
21 2 3.81725 1.12543 15.7775
22 2 5.68528 1.52721 13.6576
23 2 3.13898 3.43447 13.8422
24 2 2.30937 2.6495 11.3762
25 2 3.92713 2.87394 8.81832
26 2 4.47684 4.3787 11.0008
27 2 4.40917 1.47035 11.5515
28 2 3.85105 0.334701 8.92693
29 2 1.22615 1.74567 8.92089
30 2 1.32771 0.158281 6.79969
31 2 6.66271 3.26422 6.50403
32 2 0.365365 0.320643 4.2123
33 2 5.40095 3.22033 3.97061
34 2 2.75395 1.8633 3.67676
35 2 3.96225 1.83334 6.10936
ITEM: TIMESTEP
11200
ITEM: NUMBER OF ATOMS
35
ITEM: BOX BOUNDS xy xz yz pp pp pp
0.0000000000000000e+00 7.6685730000000003e+00 2.5561910000000001e+00
0.0000000000000000e+00 4.4274529999999999e+00 0.0000000000000000e+00
0.0000000000000000e+00 3.3699264999999997e+01 0.0000000000000000e+00
ITEM: ATOMS id type x y z
1 1 1.98619 1.24131 27.0247
2 1 4.97583 1.18171 27.954
3 1 2.70363 3.21678 27.3156
4 1 4.08413 2.23596 23.0436
5 1 5.21015 3.24502 26.798
6 1 2.45559 0.928655 24.1907
7 1 2.93187 3.46207 24.5653
8 1 4.16836 0.640436 21.1853
9 1 6.11987 3.2757 23.2141
10 1 5.11352 2.79236 20.7647
11 1 2.55188 2.46096 21.1066
12 1 1.49824 0.217986 22.3444
13 1 5.95285 4.25307 18.245
14 1 2.18794 2.0097 18.2049
15 1 5.26745 1.19233 25.0239
16 2 3.56763 4.12059 16.7822
17 2 5.8542 2.61631 16.1619
18 2 3.62943 4.33711 19.59
19 2 4.54073 1.99077 18.3783
20 2 3.39322 0.0108594 13.6507
21 2 3.61976 1.04571 16.2053
22 2 1.00783 1.58062 13.5214
23 2 3.23686 2.85401 14.2143
24 2 1.97612 3.04568 11.3428
25 2 3.64329 3.18014 8.78925
26 2 4.54381 4.24649 11.4805
27 2 4.81395 1.22105 10.9166
28 2 3.51442 0.000523507 9.0006
29 2 1.34549 1.74891 8.78531
30 2 1.67382 0.336555 6.3337
31 2 6.28317 3.14469 6.39565
32 2 0.304234 0.508599 4.28586
33 2 5.13106 3.2135 3.84975
34 2 2.6213 2.27441 3.88751
35 2 3.9154 1.87111 6.3389
ITEM: TIMESTEP
11300
ITEM: NUMBER OF ATOMS
35
ITEM: BOX BOUNDS xy xz yz pp pp pp
0.0000000000000000e+00 7.6685730000000003e+00 2.5561910000000001e+00
0.0000000000000000e+00 4.4274529999999999e+00 0.0000000000000000e+00
0.0000000000000000e+00 3.3699264999999997e+01 0.0000000000000000e+00
ITEM: ATOMS id type x y z
1 1 2.19895 1.11439 26.5123
2 1 5.17505 1.58894 27.8566
3 1 3.1231 3.68526 27.476
4 1 3.94518 2.03296 23.1169
5 1 5.94015 3.36455 26.1638
6 1 1.82908 0.839515 24.1276
7 1 3.16811 3.25884 25.1526
8 1 4.22708 0.385574 21.2709
9 1 6.46133 3.27349 23.5768
10 1 5.55512 2.79064 21.1788
11 1 2.59955 1.93863 20.607
12 1 1.62169 0.321728 22.0962
13 1 5.95669 4.41274 19.1925
14 1 2.36824 2.48525 18.2246
15 1 4.38681 1.44119 25.626
16 2 3.36224 4.2165 16.4252
17 2 5.93423 2.55159 15.9631
18 2 3.59482 4.45259 19.3406
19 2 4.93794 2.0181 18.6393
20 2 6.28856 4.20948 13.924
21 2 3.17294 0.952053 16.2117
22 2 0.861084 1.18861 13.7386
23 2 3.81742 2.8493 14.0511
24 2 2.04491 2.78904 11.3864
25 2 3.36823 3.35758 8.95051
26 2 4.62132 4.12018 11.5831
27 2 4.58302 1.55952 10.9459
28 2 5.99842 4.31286 8.66424
29 2 1.21073 1.50804 8.65117
30 2 1.61652 0.305552 6.12201
31 2 6.63329 3.23335 6.15203
32 2 4.69547 0.609784 4.03399
33 2 4.96539 3.90605 3.80477
34 2 2.63927 2.04326 4.16819
35 2 4.02111 1.81553 6.73392
ITEM: TIMESTEP
11400
ITEM: NUMBER OF ATOMS
35
ITEM: BOX BOUNDS xy xz yz pp pp pp
0.0000000000000000e+00 7.6685730000000003e+00 2.5561910000000001e+00
0.0000000000000000e+00 4.4274529999999999e+00 0.0000000000000000e+00
0.0000000000000000e+00 3.3699264999999997e+01 0.0000000000000000e+00
ITEM: ATOMS id type x y z
1 1 2.28555 1.39519 27.216
2 1 4.97532 2.35008 27.465
3 1 3.32334 3.85632 27.6056
4 1 3.7874 2.10098 23.2321
5 1 6.26585 3.11543 25.988
6 1 1.51428 1.37595 24.3687
7 1 3.84355 3.37723 25.3529
8 1 7.03264 4.26822 21.654
9 1 6.11338 3.46113 23.5101
10 1 5.51576 2.08193 21.2833
11 1 2.92796 2.28982 20.552
12 1 4.35443 4.14008 21.6603
13 1 3.80305 0.0798437 18.5013
14 1 2.25504 2.36299 18.3632
15 1 4.45939 0.98399 25.2868
16 2 3.05236 4.26034 16.5497
17 2 5.94262 2.62375 16.1747
18 2 1.1627 0.0764383 19.259
19 2 4.98291 2.48359 18.654
20 2 6.46466 3.98831 13.6514
21 2 3.15705 0.787526 16.3472
22 2 1.23986 1.04267 13.708
23 2 3.9221 2.61142 13.607
24 2 2.04938 2.8145 11.5824
25 2 3.32185 3.06271 9.11889
26 2 1.95294 0.0448782 11.24
27 2 4.37429 1.06442 11.1973
28 2 5.86656 4.39528 8.76459
29 2 1.09705 1.5876 8.66024
30 2 1.37249 0.0594326 6.27006
31 2 6.68035 3.46464 6.32758
32 2 4.89013 0.875268 3.93875
33 2 4.6543 3.58183 3.715
34 2 2.22506 2.43117 4.03655
35 2 4.37363 1.93114 6.73652
ITEM: TIMESTEP
11500
ITEM: NUMBER OF ATOMS
35
ITEM: BOX BOUNDS xy xz yz pp pp pp
0.0000000000000000e+00 7.6685730000000003e+00 2.5561910000000001e+00
0.0000000000000000e+00 4.4274529999999999e+00 0.0000000000000000e+00
0.0000000000000000e+00 3.3699264999999997e+01 0.0000000000000000e+00
ITEM: ATOMS id type x y z
1 1 2.662 1.01541 26.8292
2 1 4.60124 2.30851 27.5956
3 1 0.147858 0.264343 27.3324
4 1 3.67458 2.14814 23.1898
5 1 6.70886 3.02057 26.1959
6 1 1.83294 1.21489 24.5476
7 1 4.03401 3.49394 25.6586
8 1 6.91003 4.21671 20.9053
9 1 5.64431 3.81329 23.9012
10 1 5.96926 1.80489 21.3582
11 1 3.38362 1.89756 20.7837
12 1 4.59022 4.19202 21.5756
13 1 3.77883 0.0144721 18.8802
14 1 2.45643 2.59575 18.2208
15 1 4.69216 0.935312 24.9785
16 2 3.32559 4.01016 16.5196
17 2 5.58669 2.33226 16.0622
18 2 1.36434 0.523725 19.2051
19 2 4.8823 2.60367 18.5981
20 2 6.43011 4.0146 13.9744
21 2 3.08526 1.12397 16.0768
22 2 1.68817 1.05963 13.7971
23 2 4.07918 2.29183 13.6572
24 2 1.47894 2.62531 11.2629
25 2 3.43454 2.83873 9.06226
26 2 2.0047 -0.0895985 11.1212
27 2 4.5986 1.07046 11.3333
28 2 3.44362 0.081284 8.85502
29 2 5.85573 1.56847 8.99265
30 2 1.61535 0.526295 6.29378
31 2 6.48021 3.36391 6.49835
32 2 5.0957 0.778957 4.11863
33 2 4.53214 3.52229 3.97884
34 2 1.95839 2.57954 4.00281
35 2 3.98259 1.89039 6.15898
ITEM: TIMESTEP
11600
ITEM: NUMBER OF ATOMS
35
ITEM: BOX BOUNDS xy xz yz pp pp pp
0.0000000000000000e+00 7.6685730000000003e+00 2.5561910000000001e+00
0.0000000000000000e+00 4.4274529999999999e+00 0.0000000000000000e+00
0.0000000000000000e+00 3.3699264999999997e+01 0.0000000000000000e+00
ITEM: ATOMS id type x y z
1 1 3.09135 0.204776 26.3445
2 1 4.46269 3.48477 28.0505
3 1 0.288447 0.60243 27.3698
4 1 3.81056 2.75577 23.1064
5 1 6.22851 2.34506 26.3586
6 1 2.05642 1.15279 23.909
7 1 3.19768 3.21417 25.1999
8 1 7.20733 3.81588 20.6928
9 1 6.59854 3.63144 23.7533
10 1 5.86075 1.9705 22.1177
11 1 3.31539 1.54446 20.7146
12 1 4.49631 4.1675 21.4507
13 1 4.07763 0.290624 18.0521
14 1 2.46663 2.86349 18.2643
15 1 4.70245 1.19483 25.137
16 2 3.61671 4.04412 16.1499
17 2 5.58883 2.18397 16.1689
18 2 1.31503 0.559947 19.0636
19 2 4.91427 2.70265 18.7122
20 2 6.95977 3.7685 14.319
21 2 2.94596 1.37909 16.1606
22 2 1.44411 0.947236 13.588
23 2 4.25843 2.7769 13.7139
24 2 2.00514 2.5109 11.3019
25 2 3.2532 2.99135 8.65432
26 2 4.42925 3.81532 11.4149
27 2 4.00755 1.07977 11.5209
28 2 3.42353 0.101486 8.83713
29 2 5.70654 1.57045 8.78729
30 2 1.45306 0.528492 6.72171
31 2 6.42067 3.32596 6.4985
32 2 4.56549 0.57031 4.09044
33 2 4.9009 3.98588 4.24477
34 2 2.19267 2.06634 3.95974
35 2 3.80528 2.12836 6.1642
ITEM: TIMESTEP
11700
ITEM: NUMBER OF ATOMS
35
ITEM: BOX BOUNDS xy xz yz pp pp pp
0.0000000000000000e+00 7.6685730000000003e+00 2.5561910000000001e+00
0.0000000000000000e+00 4.4274529999999999e+00 0.0000000000000000e+00
0.0000000000000000e+00 3.3699264999999997e+01 0.0000000000000000e+00
ITEM: ATOMS id type x y z
1 1 2.79007 0.221438 25.8072
2 1 4.42026 3.55282 27.8182
3 1 4.58144 0.419696 27.3286
4 1 3.48319 2.70016 23.2158
5 1 1.42467 2.20246 26.4077
6 1 2.1812 0.598091 23.6916
7 1 3.57802 3.52058 25.8632
8 1 7.12498 3.62618 20.3171
9 1 6.70362 3.79296 23.102
10 1 5.60427 1.15116 21.6352
11 1 3.54885 1.85536 20.6286
12 1 4.84325 3.75541 21.3532
13 1 3.98057 0.473625 17.8537
14 1 2.81748 2.48561 18.0786
15 1 5.17003 1.63235 24.3119
16 2 3.60136 4.068 16.5019
17 2 5.80769 2.47455 16.5616
18 2 1.26145 0.745446 19.0755
19 2 5.16793 2.86325 19.1685
20 2 6.72125 4.08018 14.183
21 2 3.17389 1.26835 15.5952
22 2 1.54282 1.15914 13.4682
23 2 4.46964 2.60801 13.8603
24 2 1.74845 2.49192 11.3542
25 2 2.92876 3.12774 8.76073
26 2 4.19855 3.79973 10.9565
27 2 4.40917 0.570662 11.5927
28 2 2.99898 0.259648 9.0918
29 2 5.66249 1.8071 9.35189
30 2 1.15327 0.442437 6.58633
31 2 6.41569 3.57235 6.40836
32 2 5.02894 0.658658 4.09004
33 2 4.64179 3.52402 4.28241
34 2 2.15373 2.1159 3.92767
35 2 3.98315 1.83912 6.34671
ITEM: TIMESTEP
11800
ITEM: NUMBER OF ATOMS
35
ITEM: BOX BOUNDS xy xz yz pp pp pp
0.0000000000000000e+00 7.6685730000000003e+00 2.5561910000000001e+00
0.0000000000000000e+00 4.4274529999999999e+00 0.0000000000000000e+00
0.0000000000000000e+00 3.3699264999999997e+01 0.0000000000000000e+00
ITEM: ATOMS id type x y z
1 1 3.65216 0.665788 24.8711
2 1 4.82944 3.50837 27.3099
3 1 4.48246 0.450995 27.3617
4 1 3.33091 2.03558 23.1255
5 1 6.35625 2.10647 26.5345
6 1 1.74155 0.112625 23.593
7 1 3.07001 3.40814 25.3748
8 1 2.08795 3.60153 20.5901
9 1 6.88833 3.93552 23.0391
10 1 0.67078 1.65139 21.7729
11 1 3.17071 1.0897 20.715
12 1 4.51226 3.40718 21.4645
13 1 3.96737 0.400042 18.2262
14 1 2.87876 2.34261 18.4492
15 1 5.57912 2.35646 24.4361
16 2 3.67611 4.46537 16.3298
17 2 5.90382 2.68241 16.4589
18 2 1.25941 0.58414 19.0496
19 2 5.26692 2.92948 19.2014
20 2 7.05158 3.69379 13.8331
21 2 3.30731 1.46974 16.0277
22 2 1.80373 0.827628 13.868
23 2 4.30872 2.73742 13.5185
24 2 1.65057 2.33097 11.5029
25 2 2.50345 3.31038 8.92858
26 2 4.35839 3.77009 11.3146
27 2 4.44077 0.878838 11.5771
28 2 2.87311 0.573342 8.85414
29 2 5.09723 1.78627 8.87079
30 2 1.3983 0.735567 6.54611
31 2 6.4394 3.21315 6.4365
32 2 5.05912 0.609852 4.05273
33 2 4.70423 3.19652 4.12602
34 2 2.21313 2.29972 4.2404
35 2 3.7261 1.70305 6.61956
ITEM: TIMESTEP
11900
ITEM: NUMBER OF ATOMS
35
ITEM: BOX BOUNDS xy xz yz pp pp pp
0.0000000000000000e+00 7.6685730000000003e+00 2.5561910000000001e+00
0.0000000000000000e+00 4.4274529999999999e+00 0.0000000000000000e+00
0.0000000000000000e+00 3.3699264999999997e+01 0.0000000000000000e+00
ITEM: ATOMS id type x y z
1 1 4.0859 1.46105 25.2082
2 1 4.96221 3.80024 26.098
3 1 4.72259 0.474106 27.3621
4 1 3.00564 1.68224 23.3118
5 1 1.81121 1.40769 26.6444
6 1 4.2073 4.5936 24.0841
7 1 2.57674 3.15579 25.5509
8 1 1.91052 2.82914 20.4357
9 1 7.12491 4.11308 22.8373
10 1 5.83968 1.72387 22.2135
11 1 3.47737 0.701316 20.6097
12 1 4.28083 3.86794 21.4476
13 1 3.73614 0.41942 18.3873
14 1 2.48152 2.87145 18.2585
15 1 5.87012 2.76143 24.4322
16 2 3.41776 4.37686 16.3805
17 2 5.98184 3.16918 16.2635
18 2 1.47474 0.523162 18.8513
19 2 5.03762 2.59388 18.8823
20 2 7.0276 3.71253 13.8674
21 2 3.71394 1.66093 16.4351
22 2 2.03586 0.824812 13.9728
23 2 4.5505 1.96404 13.9653
24 2 1.88184 2.29404 11.3035
25 2 2.35705 3.73187 9.06727
26 2 4.47941 3.91837 11.3553
27 2 4.15336 1.00868 11.2516
28 2 2.17757 0.416608 8.93628
29 2 5.19598 2.07498 8.76837
30 2 1.12147 -0.00292299 6.40383
31 2 6.26042 3.46102 6.64527
32 2 4.72749 0.388579 4.25866
33 2 5.11046 3.65549 4.23105
34 2 2.42021 1.85976 4.16747
35 2 3.80448 2.03856 6.34354
ITEM: TIMESTEP
12000
ITEM: NUMBER OF ATOMS
35
ITEM: BOX BOUNDS xy xz yz pp pp pp
0.0000000000000000e+00 7.6685730000000003e+00 2.5561910000000001e+00
0.0000000000000000e+00 4.4274529999999999e+00 0.0000000000000000e+00
0.0000000000000000e+00 3.3699264999999997e+01 0.0000000000000000e+00
ITEM: ATOMS id type x y z
1 1 4.1992 1.35038 25.4294
2 1 5.56788 3.37829 26.4114
3 1 4.67301 0.339637 27.6828
4 1 3.52661 2.37359 23.0263
5 1 1.76452 1.38405 26.6309
6 1 4.19279 4.67895 24.1528
7 1 2.68741 3.51473 25.6891
8 1 2.19533 2.74647 20.724
9 1 6.66533 4.11959 22.6439
10 1 5.80191 1.61361 21.8188
11 1 3.82523 0.952511 20.5651
12 1 4.53099 3.92979 21.6629
13 1 4.00499 -0.183043 18.836
14 1 2.30949 2.39511 18.057
15 1 5.90105 2.54235 24.112
16 2 3.50094 4.76709 16.3415
17 2 5.86997 3.26936 16.1299
18 2 1.45967 0.537108 19.0693
19 2 4.5758 2.43867 18.6901
20 2 7.22799 3.61747 13.6752
21 2 3.43689 1.55957 16.0806
22 2 2.29244 0.735166 13.9006
23 2 5.0066 2.07332 13.9204
24 2 1.63488 2.32782 11.4937
25 2 2.36439 3.67715 9.11233
26 2 4.33605 3.64096 11.7887
27 2 4.43505 0.913505 11.2094
28 2 2.31436 0.942171 8.80581
29 2 4.78394 2.42769 8.9302
30 2 1.07617 0.345212 6.59384
31 2 6.18247 3.30136 6.66744
32 2 5.06447 0.455486 4.05643
33 2 4.82877 3.38898 4.11623
34 2 2.28777 1.98686 4.05942
35 2 3.63534 1.52056 6.512
ITEM: TIMESTEP
12100
ITEM: NUMBER OF ATOMS
35
ITEM: BOX BOUNDS xy xz yz pp pp pp
0.0000000000000000e+00 7.6685730000000003e+00 2.5561910000000001e+00
0.0000000000000000e+00 4.4274529999999999e+00 0.0000000000000000e+00
0.0000000000000000e+00 3.3699264999999997e+01 0.0000000000000000e+00
ITEM: ATOMS id type x y z
1 1 4.03585 0.706025 25.3896
2 1 5.19204 3.30509 27.0187
3 1 4.65558 0.404861 27.4151
4 1 3.45655 2.45716 23.3302
5 1 1.55595 0.95775 26.1412
6 1 2.08281 0.392576 23.7738
7 1 3.12603 3.38749 25.5553
8 1 2.09509 3.40949 20.5263
9 1 7.32629 4.49358 23.2199
10 1 1.18632 1.73831 21.9438
11 1 3.54129 1.40864 20.9441
12 1 4.91077 3.30297 21.5688
13 1 6.29218 4.69401 18.1681
14 1 2.3362 2.1519 18.0794
15 1 5.94826 2.56108 24.6978
16 2 0.815463 0.310457 16.5662
17 2 5.60002 3.21335 16.1457
18 2 1.26065 0.508603 19.3944
19 2 4.71387 2.31012 18.6335
20 2 2.71418 3.72344 14.034
21 2 3.514 1.72102 15.7618
22 2 2.51404 0.684475 13.4918
23 2 5.117 2.25258 13.6449
24 2 1.69066 2.13871 11.391
25 2 2.18605 4.0904 8.7784
26 2 4.06124 3.65223 11.3074
27 2 4.33707 0.590281 11.5426
28 2 2.37582 1.07584 9.37012
29 2 4.8128 2.68059 8.99472
30 2 1.02395 0.175521 6.64856
31 2 6.13694 2.82729 6.36595
32 2 4.98922 0.550662 3.91023
33 2 4.67307 3.19237 4.32372
34 2 2.17226 2.23996 4.17954
35 2 3.58315 1.47764 6.55263
ITEM: TIMESTEP
12200
ITEM: NUMBER OF ATOMS
35
ITEM: BOX BOUNDS xy xz yz pp pp pp
0.0000000000000000e+00 7.6685730000000003e+00 2.5561910000000001e+00
0.0000000000000000e+00 4.4274529999999999e+00 0.0000000000000000e+00
0.0000000000000000e+00 3.3699264999999997e+01 0.0000000000000000e+00
ITEM: ATOMS id type x y z
1 1 4.20244 0.643716 25.4261
2 1 5.20707 2.74186 27.078
3 1 4.73116 0.286981 27.514
4 1 3.4956 2.0138 23.32
5 1 1.75607 1.19798 26.2176
6 1 2.00568 0.0247231 24.1232
7 1 3.29393 2.89336 25.8874
8 1 6.74154 3.88911 20.1336
9 1 4.7863 0.125412 22.7453
10 1 1.59313 1.58297 21.831
11 1 3.84604 1.567 20.8358
12 1 4.65632 3.61591 21.9685
13 1 3.13026 0.76189 18.3071
14 1 2.35631 2.92414 18.0832
15 1 5.87298 2.41586 24.1954
16 2 0.739021 0.355199 16.9331
17 2 5.79133 3.31346 15.8832
18 2 1.25759 0.365489 19.7938
19 2 4.89184 2.64126 18.8604
20 2 2.84505 3.90734 14.3268
21 2 3.43358 1.60673 15.835
22 2 2.48888 0.536452 13.4151
23 2 5.33646 2.16374 13.609
24 2 1.52402 2.46616 11.4761
25 2 7.23522 4.40297 8.75109
26 2 3.89238 3.42999 10.8738
27 2 4.23267 0.585189 11.3386
28 2 2.17034 1.04287 8.99086
29 2 5.26843 2.42565 8.78146
30 2 3.53805 4.06059 6.44752
31 2 6.25378 2.85507 6.61635
32 2 4.55559 0.581023 4.38134
33 2 4.73658 3.76958 4.16174
34 2 2.2427 1.89567 4.10616
35 2 3.54981 1.37933 6.49332
ITEM: TIMESTEP
12300
ITEM: NUMBER OF ATOMS
35
ITEM: BOX BOUNDS xy xz yz pp pp pp
0.0000000000000000e+00 7.6685730000000003e+00 2.5561910000000001e+00
0.0000000000000000e+00 4.4274529999999999e+00 0.0000000000000000e+00
0.0000000000000000e+00 3.3699264999999997e+01 0.0000000000000000e+00
ITEM: ATOMS id type x y z
1 1 4.55046 0.870189 25.4938
2 1 5.71082 2.87581 26.6174
3 1 7.3606 4.14074 28.0381
4 1 3.28475 1.68591 23.7215
5 1 2.33085 0.44897 26.8014
6 1 4.02562 3.80074 24.2315
7 1 2.83992 2.83297 26.2945
8 1 6.58257 3.49545 20.008
9 1 4.85859 0.176208 22.6367
10 1 1.22716 1.96392 21.8116
11 1 3.58987 1.99799 20.9808
12 1 4.69754 4.11435 22.2056
13 1 3.39695 0.660718 18.6197
14 1 2.42693 3.50863 17.9342
15 1 6.16937 2.23294 24.1627
16 2 1.03769 0.879149 17.028
17 2 5.78132 3.38583 16.0504
18 2 1.09063 0.507443 19.9975
19 2 4.88452 2.66388 18.5128
20 2 2.57723 3.58267 13.8841
21 2 3.25266 1.74868 16.0703
22 2 2.71457 0.535841 13.5207
23 2 5.03664 1.89024 13.8854
24 2 1.41989 2.23549 11.1704
25 2 2.50914 3.61058 8.9214
26 2 4.0207 3.78412 11.3838
27 2 4.16338 0.995869 11.027
28 2 2.32699 1.10027 8.89907
29 2 4.69895 2.63843 8.77961
30 2 3.80298 4.22585 6.468
31 2 6.07844 2.74583 6.13777
32 2 4.87454 0.611169 4.32415
33 2 4.89596 3.54256 3.68884
34 2 2.08436 2.1592 4.04575
35 2 3.5274 1.19844 6.61535
ITEM: TIMESTEP
12400
ITEM: NUMBER OF ATOMS
35
ITEM: BOX BOUNDS xy xz yz pp pp pp
0.0000000000000000e+00 7.6685730000000003e+00 2.5561910000000001e+00
0.0000000000000000e+00 4.4274529999999999e+00 0.0000000000000000e+00
0.0000000000000000e+00 3.3699264999999997e+01 0.0000000000000000e+00
ITEM: ATOMS id type x y z
1 1 4.48369 0.0633766 25.821
2 1 5.59136 2.07857 26.7134
3 1 7.34442 4.17508 27.9185
4 1 2.79796 1.21035 24.0886
5 1 2.09769 0.286823 27.3822
6 1 4.10068 3.86389 25.0142
7 1 3.18341 2.27976 26.4231
8 1 6.77641 3.39358 20.4237
9 1 7.64778 4.38945 23.0898
10 1 5.89661 2.12705 22.4146
11 1 3.81329 2.18341 21.1531
12 1 5.20901 4.36086 21.6341
13 1 2.91227 0.759936 18.4142
14 1 1.83438 3.30922 18.1347
15 1 6.51023 3.17988 24.3955
16 2 0.929946 0.928505 16.3456
17 2 5.70333 3.91155 16.0706
18 2 0.870586 0.704228 19.6988
19 2 4.8841 2.62959 18.6303
20 2 2.43785 3.14685 13.7203
21 2 3.60929 2.28979 16.062
22 2 2.73665 0.519598 13.9157
23 2 5.22858 1.71044 13.8377
24 2 6.54425 2.61538 11.4507
25 2 7.20502 3.72831 8.85493
26 2 3.90684 4.20407 11.7158
27 2 3.99058 0.867018 11.121
28 2 1.97889 0.500135 9.13638
29 2 5.01104 2.33389 8.61999
30 2 3.64622 4.37099 6.19435
31 2 6.09247 2.76234 6.25971
32 2 5.17983 0.614419 3.76049
33 2 4.8646 3.34591 3.82151
34 2 2.59378 2.22554 3.80439
35 2 3.77199 1.18498 6.17392
ITEM: TIMESTEP
12500
ITEM: NUMBER OF ATOMS
35
ITEM: BOX BOUNDS xy xz yz pp pp pp
0.0000000000000000e+00 7.6685730000000003e+00 2.5561910000000001e+00
0.0000000000000000e+00 4.4274529999999999e+00 0.0000000000000000e+00
0.0000000000000000e+00 3.3699264999999997e+01 0.0000000000000000e+00
ITEM: ATOMS id type x y z
1 1 4.40498 0.370236 25.7568
2 1 5.79361 2.12351 27.2513
3 1 7.16061 3.8801 28.3025
4 1 3.22378 1.41092 23.9923
5 1 4.69007 3.99933 27.6697
6 1 4.11113 3.9742 25.2862
7 1 2.98682 2.04222 26.7955
8 1 1.71553 3.0304 20.525
9 1 3.2225 3.67507 22.6846
10 1 5.9471 2.20915 22.2938
11 1 3.85771 2.10055 21.2253
12 1 2.63455 0.379517 21.5429
13 1 2.87254 0.83321 18.2653
14 1 2.36645 3.47809 18.306
15 1 5.59501 2.01717 24.8599
16 2 0.703296 1.00791 16.1979
17 2 6.27296 4.00299 16.2235
18 2 0.690013 0.720018 19.7634
19 2 4.62189 2.98658 18.9346
20 2 2.56987 3.29939 13.9561
21 2 3.79374 2.76141 16.1915
22 2 2.49499 0.298749 13.7065
23 2 5.16943 1.76605 13.5637
24 2 6.21967 2.87518 11.2659
25 2 7.02931 3.67888 8.61629
26 2 3.77642 3.88341 11.2434
27 2 3.90817 1.33708 11.4626
28 2 2.10117 0.437931 8.76194
29 2 4.65236 1.87262 8.80187
30 2 3.62858 4.32801 6.2029
31 2 6.62463 2.76086 6.21298
32 2 5.15315 0.54539 3.45107
33 2 5.35399 3.66497 4.12548
34 2 2.59043 1.88643 3.78656
35 2 3.61826 1.23033 6.11613
ITEM: TIMESTEP
12600
ITEM: NUMBER OF ATOMS
35
ITEM: BOX BOUNDS xy xz yz pp pp pp
0.0000000000000000e+00 7.6685730000000003e+00 2.5561910000000001e+00
0.0000000000000000e+00 4.4274529999999999e+00 0.0000000000000000e+00
0.0000000000000000e+00 3.3699264999999997e+01 0.0000000000000000e+00
ITEM: ATOMS id type x y z
1 1 6.23892 3.63048 25.929
2 1 5.60436 1.35985 27.4713
3 1 7.12876 3.96308 28.1025
4 1 3.47586 1.31472 23.6736
5 1 4.48252 4.15391 27.7042
6 1 4.15724 3.80916 25.1621
7 1 3.25546 2.06674 26.6221
8 1 2.09307 3.08666 20.9157
9 1 2.82873 4.15496 23.033
10 1 6.11373 1.86722 22.9621
11 1 3.89017 2.0351 21.1563
12 1 5.17478 4.10145 21.9232
13 1 3.20204 1.54896 18.5597
14 1 7.33204 3.61804 18.0696
15 1 5.68718 1.59444 25.2752
16 2 1.38081 1.37128 16.7949
17 2 6.23443 4.06143 15.7319
18 2 0.70914 0.832651 19.9496
19 2 4.72455 3.26378 18.8611
20 2 2.42214 3.4955 13.4694
21 2 3.87707 2.74649 16.3222
22 2 2.30179 0.25307 13.479
23 2 4.9623 1.93052 13.9127
24 2 6.17124 2.57261 10.9695
25 2 2.18568 3.18428 8.67567
26 2 3.38945 4.40192 10.8181
27 2 3.34206 1.15269 11.2032
28 2 2.33818 0.576571 8.51744
29 2 4.54359 2.24809 8.80155
30 2 3.81697 4.09262 6.15915
31 2 6.31192 2.46481 6.22479
32 2 5.26076 0.536476 3.99307
33 2 5.34798 3.58696 4.00599
34 2 2.52214 2.04729 3.70777
35 2 4.06773 1.25346 6.35471
ITEM: TIMESTEP
12700
ITEM: NUMBER OF ATOMS
35
ITEM: BOX BOUNDS xy xz yz pp pp pp
0.0000000000000000e+00 7.6685730000000003e+00 2.5561910000000001e+00
0.0000000000000000e+00 4.4274529999999999e+00 0.0000000000000000e+00
0.0000000000000000e+00 3.3699264999999997e+01 0.0000000000000000e+00
ITEM: ATOMS id type x y z
1 1 6.75953 3.4985 25.487
2 1 5.21185 1.82663 27.9518
3 1 7.03957 3.32987 27.9991
4 1 3.02955 1.19432 24.2464
5 1 4.60284 4.03705 27.0722
6 1 4.19641 3.22128 24.5892
7 1 3.1399 1.49314 26.4521
8 1 1.77883 3.49609 20.5033
9 1 2.32922 4.08141 23.0555
10 1 1.40423 2.0857 22.8762
11 1 4.07875 1.40156 21.9147
12 1 4.56319 3.89865 22.0614
13 1 3.697 1.38238 19.6399
14 1 7.42208 4.32131 17.9563
15 1 5.49011 1.00615 25.2461
16 2 1.49403 1.29465 17.0189
17 2 6.34946 4.47488 15.7023
18 2 1.21578 1.03304 20.2516
19 2 5.05617 3.59171 18.6156
20 2 2.2845 3.34419 13.0488
21 2 3.75831 2.79861 16.1212
22 2 2.01359 0.557949 13.556
23 2 4.91857 1.79766 13.8939
24 2 5.64076 2.85623 11.3707
25 2 2.37109 3.6321 8.48554
26 2 0.595492 -0.0190677 10.8472
27 2 3.25508 1.11239 10.8039
28 2 2.28664 0.42305 8.51369
29 2 5.14374 2.09174 8.80434
30 2 3.99652 3.65564 6.23348
31 2 6.48412 2.57962 6.23964
32 2 5.23785 0.634017 4.1426
33 2 5.04825 3.41814 3.68078
34 2 2.76795 2.14785 4.08001
35 2 3.72006 0.933773 6.36859
ITEM: TIMESTEP
12800
ITEM: NUMBER OF ATOMS
35
ITEM: BOX BOUNDS xy xz yz pp pp pp
0.0000000000000000e+00 7.6685730000000003e+00 2.5561910000000001e+00
0.0000000000000000e+00 4.4274529999999999e+00 0.0000000000000000e+00
0.0000000000000000e+00 3.3699264999999997e+01 0.0000000000000000e+00
ITEM: ATOMS id type x y z
1 1 7.12001 3.003 25.1892
2 1 5.35899 1.6735 27.6676
3 1 1.91936 3.60147 27.4921
4 1 2.6402 0.591378 24.5159
5 1 4.04861 3.53205 26.2557
6 1 4.63518 2.67187 24.093
7 1 3.04022 1.02835 26.7985
8 1 7.02442 4.10775 20.6819
9 1 2.6271 3.909 23.0962
10 1 0.959965 1.63574 22.6512
11 1 3.29241 1.51906 22.3114
12 1 4.94761 3.70554 21.6114
13 1 3.53385 2.21011 19.7733
14 1 7.66968 4.53015 18.2879
15 1 5.52282 1.10966 25.6012
16 2 1.53786 1.63579 16.8923
17 2 3.84954 -0.106991 15.8636
18 2 1.47673 1.23557 20.1741
19 2 5.14688 3.54677 18.2654
20 2 2.48122 3.29657 13.6262
21 2 3.72463 2.97051 16.0274
22 2 2.22453 0.571887 13.8873
23 2 4.69645 1.85744 13.6453
24 2 5.38125 3.07855 11.3664
25 2 2.35699 3.50363 8.6
26 2 3.06094 4.4387 11.0728
27 2 3.07415 1.64067 11.0217
28 2 2.42983 0.402369 8.65555
29 2 5.15724 1.89912 8.75038
30 2 3.90646 3.6504 6.05672
31 2 6.3572 2.40178 6.24037
32 2 5.21137 0.658599 4.08699
33 2 5.29147 3.54266 3.68546
34 2 2.71444 1.85475 3.945
35 2 3.7002 0.787018 6.27558
ITEM: TIMESTEP
12900
ITEM: NUMBER OF ATOMS
35
ITEM: BOX BOUNDS xy xz yz pp pp pp
0.0000000000000000e+00 7.6685730000000003e+00 2.5561910000000001e+00
0.0000000000000000e+00 4.4274529999999999e+00 0.0000000000000000e+00
0.0000000000000000e+00 3.3699264999999997e+01 0.0000000000000000e+00
ITEM: ATOMS id type x y z
1 1 1.67632 2.44304 25.0496
2 1 5.97056 1.76885 27.9058
3 1 7.10428 3.93687 27.2987
4 1 3.03345 0.0101562 24.0386
5 1 4.43389 2.51726 26.3441
6 1 4.21909 2.43091 24.0004
7 1 2.29963 0.93338 26.5639
8 1 7.17253 4.52138 20.6652
9 1 2.4364 3.72927 23.0582
10 1 0.804977 1.58773 22.5873
11 1 3.11019 1.35894 21.7125
12 1 4.91605 3.27193 21.1257
13 1 3.55084 2.36577 19.1211
14 1 5.12374 0.158778 18.1216
15 1 5.1734 0.339071 25.1368
16 2 1.44664 1.7229 16.5468
17 2 6.51133 4.47095 16.0854
18 2 1.34219 1.50637 19.7332
19 2 5.41584 3.92835 18.5333
20 2 2.19543 3.34744 13.8169
21 2 4.0666 2.94955 16.2032
22 2 2.26909 0.445055 13.9583
23 2 5.04919 1.89659 13.8078
24 2 5.84105 3.43254 11.2658
25 2 2.4621 2.93332 8.78598
26 2 0.0927551 0.759606 11.3486
27 2 2.7416 1.87145 11.4194
28 2 2.58756 0.14818 8.84393
29 2 4.78706 1.87239 8.8265
30 2 3.66891 3.72769 6.0791
31 2 6.25691 2.1315 6.29192
32 2 5.2704 0.575483 3.81996
33 2 5.61283 3.47013 3.92345
34 2 2.5482 1.83438 3.59417
35 2 3.88021 0.905229 6.41278
ITEM: TIMESTEP
13000
ITEM: NUMBER OF ATOMS
35
ITEM: BOX BOUNDS xy xz yz pp pp pp
0.0000000000000000e+00 7.6685730000000003e+00 2.5561910000000001e+00
0.0000000000000000e+00 4.4274529999999999e+00 0.0000000000000000e+00
0.0000000000000000e+00 3.3699264999999997e+01 0.0000000000000000e+00
ITEM: ATOMS id type x y z
1 1 6.0787 2.23569 24.8965
2 1 5.8585 1.89759 28.3332
3 1 2.52785 3.93839 27.014
4 1 4.91972 4.35373 23.4364
5 1 4.14747 2.08184 26.741
6 1 3.49846 1.7714 24.1561
7 1 5.36982 4.21688 25.8835
8 1 2.93668 4.08341 20.2555
9 1 2.18765 3.38374 22.314
10 1 0.809685 1.26571 22.4124
11 1 3.43 1.34507 21.0929
12 1 4.57147 3.4929 21.483
13 1 3.60515 1.627 18.1824
14 1 2.92132 4.30852 17.9541
15 1 2.96575 4.09725 24.465
16 2 1.57963 1.62475 16.3879
17 2 3.99874 0.39931 15.9714
18 2 1.20333 2.12097 19.5913
19 2 5.21596 4.23953 19.0422
20 2 2.36362 3.53084 13.7414
21 2 4.409 3.26456 16.1473
22 2 2.26425 0.294784 13.7697
23 2 5.09861 2.01455 14.0425
24 2 5.07661 3.88391 11.3396
25 2 2.27229 3.01704 8.92778
26 2 5.61555 0.97278 11.4095
27 2 2.96126 2.17597 11.7324
28 2 2.29165 0.0594457 8.74869
29 2 4.95811 1.34713 8.89065
30 2 3.54941 3.71818 6.27148
31 2 1.33982 2.14223 6.53704
32 2 5.34578 0.493302 3.55453
33 2 5.39948 3.28726 4.41193
34 2 2.93574 1.93861 3.84982
35 2 3.64061 0.726776 6.37233
ITEM: TIMESTEP
13100
ITEM: NUMBER OF ATOMS
35
ITEM: BOX BOUNDS xy xz yz pp pp pp
0.0000000000000000e+00 7.6685730000000003e+00 2.5561910000000001e+00
0.0000000000000000e+00 4.4274529999999999e+00 0.0000000000000000e+00
0.0000000000000000e+00 3.3699264999999997e+01 0.0000000000000000e+00
ITEM: ATOMS id type x y z
1 1 6.05853 1.39318 24.7787
2 1 6.23771 1.91502 27.0269
3 1 3.01092 4.08275 26.7124
4 1 5.00072 3.61036 23.9161
5 1 3.5874 1.59476 26.496
6 1 3.64005 1.93252 24.1643
7 1 5.4466 3.88472 26.2814
8 1 2.63439 3.85093 20.3243
9 1 2.01866 2.77417 22.2349
10 1 5.50779 0.862906 22.447
11 1 3.40738 1.22886 20.6771
12 1 4.65848 3.35104 21.1747
13 1 4.25404 2.07496 18.2101
14 1 2.26397 3.59654 18.1754
15 1 2.22173 3.91404 24.4955
16 2 1.67593 2.07653 16.5301
17 2 4.28986 0.586608 15.9032
18 2 6.42616 2.06846 19.7549
19 2 5.04962 4.49195 18.6317
20 2 2.49159 3.58313 13.8027
21 2 4.33827 3.70308 16.2121
22 2 2.39981 0.674385 13.6655
23 2 5.00138 2.11252 13.7188
24 2 5.64113 3.59653 11.1106
25 2 2.08567 3.13516 9.34042
26 2 5.63684 0.936989 11.3859
27 2 3.05406 2.35 11.43
28 2 4.69895 4.40671 8.62317
29 2 4.59175 1.47504 8.81655
30 2 3.36083 3.57492 6.51107
31 2 6.12614 2.03696 6.71677
32 2 0.45346 0.396729 4.09821
33 2 5.4051 3.28287 4.40805
34 2 3.00827 1.9857 4.29292
35 2 3.80167 0.621192 6.3154
ITEM: TIMESTEP
13200
ITEM: NUMBER OF ATOMS
35
ITEM: BOX BOUNDS xy xz yz pp pp pp
0.0000000000000000e+00 7.6685730000000003e+00 2.5561910000000001e+00
0.0000000000000000e+00 4.4274529999999999e+00 0.0000000000000000e+00
0.0000000000000000e+00 3.3699264999999997e+01 0.0000000000000000e+00
ITEM: ATOMS id type x y z
1 1 1.2978 1.02367 24.5933
2 1 1.70079 1.94504 26.6142
3 1 2.64975 4.17945 26.6954
4 1 4.77123 3.28594 23.5397
5 1 4.27954 1.67041 26.3037
6 1 3.76565 1.1789 24.0324
7 1 5.23003 3.95331 26.5502
8 1 2.38509 3.84788 20.419
9 1 1.77926 2.27965 22.4694
10 1 0.165622 0.318815 22.5564
11 1 3.6169 1.48813 21.2211
12 1 5.11847 3.6038 21.3385
13 1 4.3878 2.26808 18.5513
14 1 2.69046 4.06464 18.1916
15 1 7.03939 3.50253 24.7186
16 2 1.51941 2.34722 16.4612
17 2 4.39805 0.995933 15.9175
18 2 1.05642 1.72527 19.9471
19 2 2.52768 0.324847 18.1096
20 2 2.45726 3.58584 13.7656
21 2 3.9936 3.59279 15.8608
22 2 2.50032 0.812721 13.7202
23 2 5.14173 2.444 13.5466
24 2 5.99328 3.82052 11.4436
25 2 1.95674 3.11169 8.61031
26 2 0.67071 0.603148 11.1655
27 2 3.26111 2.04997 11.3161
28 2 2.01254 0.120781 9.07615
29 2 4.25574 1.7972 9.09128
30 2 3.55592 3.16827 6.61928
31 2 5.95364 1.97574 6.69798
32 2 0.64181 0.462331 4.61334
33 2 5.67573 3.39088 4.25305
34 2 2.76622 1.98408 4.2353
35 2 3.45608 0.438818 6.57888
ITEM: TIMESTEP
13300
ITEM: NUMBER OF ATOMS
35
ITEM: BOX BOUNDS xy xz yz pp pp pp
0.0000000000000000e+00 7.6685730000000003e+00 2.5561910000000001e+00
0.0000000000000000e+00 4.4274529999999999e+00 0.0000000000000000e+00
0.0000000000000000e+00 3.3699264999999997e+01 0.0000000000000000e+00
ITEM: ATOMS id type x y z
1 1 0.803866 0.523728 24.7663
2 1 2.10883 1.95499 27.3544
3 1 2.94441 4.17084 27.2297
4 1 4.40683 2.90691 23.7502
5 1 4.50841 2.38915 26.0142
6 1 3.2036 0.433409 23.9775
7 1 5.62106 4.51129 26.1102
8 1 2.60326 3.69562 19.8917
9 1 1.31627 2.00087 22.468
10 1 0.405066 -0.283998 22.1861
11 1 4.0852 1.89401 21.4146
12 1 5.3214 4.43327 20.7408
13 1 4.15088 2.50121 18.4071
14 1 2.79086 4.72893 17.8052
15 1 2.43106 2.79356 24.8121
16 2 1.38192 2.43611 16.5913
17 2 4.08172 0.890853 15.8348
18 2 0.959572 1.40271 19.7807
19 2 2.7972 0.452062 18.3845
20 2 2.34252 4.02603 13.5451
21 2 4.11455 3.63536 15.8825
22 2 2.34974 0.975672 14.0188
23 2 5.13514 2.18276 13.5374
24 2 5.86153 3.69178 11.2719
25 2 6.8825 3.31667 9.02767
26 2 0.92496 0.638928 11.5548
27 2 3.15543 2.33969 11.4813
28 2 1.86468 0.184373 8.90323
29 2 4.75944 1.66413 9.05263
30 2 3.58741 3.08529 6.43695
31 2 5.9583 1.64316 6.67535
32 2 0.353132 0.405249 4.32584
33 2 5.67371 3.54906 4.1931
34 2 3.26301 1.86517 4.14196
35 2 3.13136 0.351724 6.69393
ITEM: TIMESTEP
13400
ITEM: NUMBER OF ATOMS
35
ITEM: BOX BOUNDS xy xz yz pp pp pp
0.0000000000000000e+00 7.6685730000000003e+00 2.5561910000000001e+00
0.0000000000000000e+00 4.4274529999999999e+00 0.0000000000000000e+00
0.0000000000000000e+00 3.3699264999999997e+01 0.0000000000000000e+00
ITEM: ATOMS id type x y z
1 1 0.141481 0.292671 24.4299
2 1 2.15267 2.1346 27.5805
3 1 3.66073 4.6235 26.7782
4 1 4.45964 2.36462 23.9751
5 1 4.777 2.51529 26.5149
6 1 3.327 0.292627 23.3899
7 1 3.71362 0.150667 26.3023
8 1 2.72312 3.33677 19.5166
9 1 1.63212 1.88985 22.5099
10 1 2.86638 3.96706 22.1169
11 1 3.97505 2.03928 21.546
12 1 2.97344 -0.408307 20.9836
13 1 4.14577 2.64388 18.1998
14 1 0.369437 0.306477 17.878
15 1 1.63591 1.96588 25.1489
16 2 6.77282 2.50309 16.6764
17 2 3.88556 0.804469 16.003
18 2 5.78158 1.70672 19.8928
19 2 3.2346 0.340542 18.6313
20 2 7.02722 3.84935 13.7524
21 2 4.25595 3.63114 15.8264
22 2 2.1695 1.31099 13.9095
23 2 4.67581 2.7061 13.7767
24 2 5.61694 3.87072 11.3086
25 2 2.3466 3.08359 9.02251
26 2 0.792365 1.05813 11.3806
27 2 3.29155 2.25642 11.4398
28 2 1.9881 0.155882 8.97758
29 2 4.41679 1.63264 9.18693
30 2 3.02104 3.19666 6.52184
31 2 5.96687 1.61185 6.37295
32 2 0.630745 0.26924 3.84175
33 2 5.61655 3.21051 4.2977
34 2 3.2688 1.85982 4.10489
35 2 3.70438 0.270282 6.43042
ITEM: TIMESTEP
13500
ITEM: NUMBER OF ATOMS
35
ITEM: BOX BOUNDS xy xz yz pp pp pp
0.0000000000000000e+00 7.6685730000000003e+00 2.5561910000000001e+00
0.0000000000000000e+00 4.4274529999999999e+00 0.0000000000000000e+00
0.0000000000000000e+00 3.3699264999999997e+01 0.0000000000000000e+00
ITEM: ATOMS id type x y z
1 1 2.75759 3.93333 24.3548
2 1 2.59216 2.87231 27.0817
3 1 1.44929 0.205801 26.4196
4 1 4.5855 1.84952 24.6157
5 1 5.08381 2.19126 26.9427
6 1 5.18114 4.41685 24.1388
7 1 3.97878 0.0936714 26.1406
8 1 3.10062 3.18355 19.7409
9 1 6.20291 2.16522 22.6505
10 1 4.96641 0.151399 22.1802
11 1 3.23371 1.51652 21.7435
12 1 4.94653 3.75052 21.7085
13 1 4.79388 2.5333 18.0801
14 1 0.9516 0.561212 18.1212
15 1 1.7389 2.0883 24.9398
16 2 1.9557 2.63323 16.8568
17 2 3.97755 0.932275 16.1872
18 2 0.930462 1.51839 20.0977
19 2 3.22123 0.284628 18.9136
20 2 6.98146 4.30469 13.8063
21 2 4.09568 4.04769 15.9457
22 2 1.80251 1.22339 13.8817
23 2 4.28703 2.83454 13.4455
24 2 5.81591 4.00518 11.4014
25 2 1.77267 3.01908 9.0081
26 2 5.65974 1.00231 11.3233
27 2 3.08027 2.37705 11.2222
28 2 2.20221 0.168017 8.81458
29 2 4.7386 1.44471 8.62818
30 2 3.73287 3.1554 6.42102
31 2 0.914288 1.55228 6.3683
32 2 0.998428 0.0887481 3.84591
33 2 5.72316 2.99226 4.07047
34 2 2.99734 1.69691 4.07123
35 2 3.27166 0.408933 6.34655
ITEM: TIMESTEP
13600
ITEM: NUMBER OF ATOMS
35
ITEM: BOX BOUNDS xy xz yz pp pp pp
0.0000000000000000e+00 7.6685730000000003e+00 2.5561910000000001e+00
0.0000000000000000e+00 4.4274529999999999e+00 0.0000000000000000e+00
0.0000000000000000e+00 3.3699264999999997e+01 0.0000000000000000e+00
ITEM: ATOMS id type x y z
1 1 3.02646 3.59273 24.3079
2 1 3.28187 2.4302 26.9508
3 1 1.52518 0.184526 26.6755
4 1 4.06946 1.7652 24.4952
5 1 5.65962 2.176 27.1075
6 1 5.44814 4.27007 24.3732
7 1 4.05925 0.0012238 26.9701
8 1 3.00267 2.83722 19.6254
9 1 5.90973 2.28836 23.0002
10 1 6.44598 4.21675 21.3627
11 1 3.15362 1.67108 22.2258
12 1 4.1381 3.90763 21.7638
13 1 4.9887 2.74965 18.3753
14 1 0.852685 0.364593 18.2551
15 1 1.55903 1.84734 25.0961
16 2 1.91306 2.70879 17.0424
17 2 4.32679 1.33166 16.3557
18 2 0.902469 1.76904 20.5001
19 2 3.60574 0.411985 19.3841
20 2 4.27903 -0.0159912 13.8509
21 2 4.48306 4.11791 15.8282
22 2 1.53668 1.78826 13.766
23 2 4.18471 2.75006 13.4522
24 2 5.67974 4.0304 11.3012
25 2 6.77387 3.12949 8.41569
26 2 0.634723 0.63848 11.2344
27 2 2.87757 2.40604 10.7822
28 2 1.70655 0.0088655 8.92735
29 2 4.47866 1.2604 8.65479
30 2 3.69396 3.10838 6.49317
31 2 1.13729 1.73705 6.06367
32 2 3.05274 4.3937 4.22203
33 2 5.98928 3.03329 3.73311
34 2 3.51853 1.57533 3.88688
35 2 3.73498 0.0816755 6.15561
ITEM: TIMESTEP
13700
ITEM: NUMBER OF ATOMS
35
ITEM: BOX BOUNDS xy xz yz pp pp pp
0.0000000000000000e+00 7.6685730000000003e+00 2.5561910000000001e+00
0.0000000000000000e+00 4.4274529999999999e+00 0.0000000000000000e+00
0.0000000000000000e+00 3.3699264999999997e+01 0.0000000000000000e+00
ITEM: ATOMS id type x y z
1 1 2.86976 4.2096 24.1861
2 1 2.93653 1.60888 27.2136
3 1 4.50385 3.99635 26.8456
4 1 4.21749 2.02865 25.2894
5 1 5.74989 2.32981 27.4084
6 1 5.58038 3.69054 24.9258
7 1 7.28224 4.42575 27.0659
8 1 2.58938 3.08004 19.9507
9 1 5.57696 1.71464 23.0883
10 1 6.60451 3.99172 22.1405
11 1 3.22507 1.95614 22.603
12 1 3.95287 4.29414 21.8849
13 1 4.83758 2.98708 18.2139
14 1 1.19979 0.72863 18.129
15 1 1.77884 1.55654 25.2657
16 2 2.13448 2.76088 16.9163
17 2 4.47513 1.5491 16.1788
18 2 5.45308 1.80783 20.3083
19 2 3.65178 0.711245 18.9
20 2 4.25736 0.0948294 14.048
21 2 4.91411 4.23595 15.9118
22 2 1.61321 1.64738 13.9488
23 2 3.98707 2.93604 13.2752
24 2 5.50191 3.7921 11.3053
25 2 6.58923 2.70075 8.48648
26 2 5.40279 0.946101 11.3257
27 2 2.88238 2.32922 11.0457
28 2 4.08363 4.37475 8.64859
29 2 3.9228 1.39313 8.78777
30 2 3.92971 2.88526 6.42512
31 2 1.43327 1.68111 5.80961
32 2 3.50501 4.1966 4.00999
33 2 5.85683 3.07385 3.48643
34 2 3.6379 1.59329 3.76713
35 2 3.82263 0.179151 6.19115
ITEM: TIMESTEP
13800
ITEM: NUMBER OF ATOMS
35
ITEM: BOX BOUNDS xy xz yz pp pp pp
0.0000000000000000e+00 7.6685730000000003e+00 2.5561910000000001e+00
0.0000000000000000e+00 4.4274529999999999e+00 0.0000000000000000e+00
0.0000000000000000e+00 3.3699264999999997e+01 0.0000000000000000e+00
ITEM: ATOMS id type x y z
1 1 3.46657 3.4709 24.6145
2 1 3.2549 1.86057 28.2883
3 1 4.55266 3.8418 27.081
4 1 4.7481 1.71306 25.3923
5 1 5.73807 1.56308 27.5512
6 1 5.81885 4.08796 24.4239
7 1 6.9386 3.93262 26.5592
8 1 2.57353 3.18311 19.7648
9 1 5.35331 2.09673 23.0541
10 1 7.04099 4.4805 22.1899
11 1 2.65703 2.1117 22.2394
12 1 4.4737 4.16918 21.8281
13 1 4.54179 3.01035 18.3634
14 1 0.863663 0.8843 18.2509
15 1 1.74631 1.46068 25.2534
16 2 2.35348 3.20744 16.63
17 2 4.65749 1.52207 15.9031
18 2 5.24459 2.05886 20.4701
19 2 3.27785 0.692588 18.8212
20 2 4.29839 -0.0113063 13.6037
21 2 4.85016 4.3934 15.9978
22 2 1.64361 1.51671 13.9463
23 2 4.16286 3.18107 13.8331
24 2 5.36326 3.87802 11.1415
25 2 6.19942 2.69393 8.92971
26 2 5.1767 1.03647 11.3753
27 2 2.54985 2.30723 11.4006
28 2 3.78342 4.31697 8.55441
29 2 3.8862 1.33315 8.68689
30 2 4.3879 2.90054 6.01892
31 2 1.54508 1.52635 5.95921
32 2 3.69125 4.38703 3.70216
33 2 6.23907 2.935 3.52061
34 2 3.50499 1.28894 3.78977
35 2 3.93567 -0.0188479 6.26575
ITEM: TIMESTEP
13900
ITEM: NUMBER OF ATOMS
35
ITEM: BOX BOUNDS xy xz yz pp pp pp
0.0000000000000000e+00 7.6685730000000003e+00 2.5561910000000001e+00
0.0000000000000000e+00 4.4274529999999999e+00 0.0000000000000000e+00
0.0000000000000000e+00 3.3699264999999997e+01 0.0000000000000000e+00
ITEM: ATOMS id type x y z
1 1 3.47357 3.70201 24.4039
2 1 3.55664 1.88757 27.7003
3 1 4.39058 3.81192 26.6412
4 1 4.43091 1.04292 25.9288
5 1 5.92351 1.13049 27.7412
6 1 6.30167 4.56638 23.7053
7 1 6.83941 3.05191 26.6306
8 1 2.58386 3.58041 19.6531
9 1 5.4123 2.23499 23.4672
10 1 4.36871 -0.08996 21.7504
11 1 2.77041 2.05662 21.8176
12 1 4.4483 4.51187 21.2478
13 1 4.19128 2.87647 17.9177
14 1 0.585881 1.09124 18.283
15 1 2.31887 1.53108 25.0844
16 2 2.15499 3.16458 16.4201
17 2 4.78173 1.41449 15.8749
18 2 5.42039 2.24648 20.6618
19 2 3.07705 0.682544 19.2762
20 2 6.4635 4.41134 13.4287
21 2 2.40261 0.378681 16.5179
22 2 1.78607 1.73015 13.811
23 2 4.16608 3.13671 13.7306
24 2 4.74501 4.13484 11.1925
25 2 6.20566 3.00552 8.8778
26 2 5.13318 0.904287 11.0838
27 2 2.77902 2.48032 11.3117
28 2 3.46666 4.06461 8.68564
29 2 3.5353 1.38656 8.6905
30 2 4.23205 2.95777 5.71895
31 2 1.71266 1.25879 6.52519
32 2 0.940274 0.121539 3.65622
33 2 6.71048 2.67079 3.89707
34 2 3.72691 1.06032 3.99057
35 2 7.17679 4.09445 6.21119
ITEM: TIMESTEP
14000
ITEM: NUMBER OF ATOMS
35
ITEM: BOX BOUNDS xy xz yz pp pp pp
0.0000000000000000e+00 7.6685730000000003e+00 2.5561910000000001e+00
0.0000000000000000e+00 4.4274529999999999e+00 0.0000000000000000e+00
0.0000000000000000e+00 3.3699264999999997e+01 0.0000000000000000e+00
ITEM: ATOMS id type x y z
1 1 3.42719 3.8902 23.5791
2 1 3.16273 1.24617 27.3884
3 1 4.8565 3.5592 25.5962
4 1 5.28232 0.894984 25.7373
5 1 0.941649 0.863904 27.9974
6 1 3.45835 0.14178 23.5709
7 1 6.69271 3.00871 26.7674
8 1 2.27718 3.12533 19.1229
9 1 5.34016 2.25936 23.5299
10 1 6.57577 4.52474 21.4262
11 1 3.6093 2.19045 22.0941
12 1 1.31566 0.264414 21.6782
13 1 4.60282 2.9214 17.8798
14 1 5.5861 0.913735 18.4307
15 1 2.32688 1.75504 24.9142
16 2 1.74519 3.15273 16.4534
17 2 4.89209 1.478 15.7124
18 2 5.53449 2.23615 20.4081
19 2 3.05997 0.848117 19.1843
20 2 4.06716 0.394249 13.5753
21 2 2.56126 0.559476 16.634
22 2 1.51703 1.46459 13.8667
23 2 3.74826 3.24671 13.6802
24 2 5.23208 4.12027 11.1741
25 2 5.75691 2.98054 8.68749
26 2 4.80122 1.26824 10.9537
27 2 2.35964 2.64944 11.0392
28 2 3.44858 4.21312 8.83779
29 2 3.52775 1.46363 8.67403
30 2 4.87284 2.68801 6.08059
31 2 1.95328 1.14817 6.65981
32 2 1.42299 -0.273323 3.7254
33 2 1.46228 2.58656 4.26874
34 2 3.66366 0.896541 4.18883
35 2 7.17521 4.10693 6.55189
ITEM: TIMESTEP
14100
ITEM: NUMBER OF ATOMS
35
ITEM: BOX BOUNDS xy xz yz pp pp pp
0.0000000000000000e+00 7.6685730000000003e+00 2.5561910000000001e+00
0.0000000000000000e+00 4.4274529999999999e+00 0.0000000000000000e+00
0.0000000000000000e+00 3.3699264999999997e+01 0.0000000000000000e+00
ITEM: ATOMS id type x y z
1 1 2.86681 4.14809 23.5345
2 1 3.65804 0.548702 26.3286
3 1 4.65804 3.36746 25.8914
4 1 5.76101 1.21618 25.3453
5 1 0.729135 0.212658 27.4318
6 1 3.13115 0.263891 23.7842
7 1 6.87305 2.81214 27.3529
8 1 2.13531 3.03991 19.1567
9 1 5.72431 1.82072 22.8483
10 1 6.95997 4.09963 21.0888
11 1 2.95446 2.50677 21.7501
12 1 1.86564 0.322845 21.1101
13 1 4.65965 2.88022 18.0974
14 1 0.673336 0.712568 17.9892
15 1 2.81004 2.26599 25.1163
16 2 2.33632 3.31258 16.42
17 2 4.64809 1.81764 15.9781
18 2 5.00414 2.27728 20.3634
19 2 3.11156 0.802233 18.8217
20 2 3.81841 0.26159 13.5296
21 2 2.17716 0.551213 15.9743
22 2 1.40248 1.84126 13.4439
23 2 3.68606 3.29073 13.9766
24 2 5.00799 4.3737 11.3145
25 2 6.00919 2.92928 8.80673
26 2 4.91161 1.66267 11.4701
27 2 2.33137 2.57658 11.1388
28 2 3.38419 4.63555 9.32914
29 2 3.35766 1.46303 8.77441
30 2 4.45168 2.51631 6.55018
31 2 2.15751 0.894473 6.16927
32 2 4.07068 3.48931 4.25796
33 2 1.55953 2.40332 4.00881
34 2 4.15802 0.92075 4.34217
35 2 7.38215 4.10728 6.70025
ITEM: TIMESTEP
14200
ITEM: NUMBER OF ATOMS
35
ITEM: BOX BOUNDS xy xz yz pp pp pp
0.0000000000000000e+00 7.6685730000000003e+00 2.5561910000000001e+00
0.0000000000000000e+00 4.4274529999999999e+00 0.0000000000000000e+00
0.0000000000000000e+00 3.3699264999999997e+01 0.0000000000000000e+00
ITEM: ATOMS id type x y z
1 1 2.71311 4.36474 23.0406
2 1 3.94006 0.423649 25.6977
3 1 5.02618 2.81696 26.2467
4 1 5.97082 1.3427 24.715
5 1 0.651698 -0.0476698 27.2132
6 1 2.47342 0.0497994 23.772
7 1 1.97108 1.83362 27.117
8 1 2.15897 2.98521 19.3754
9 1 5.83151 2.49922 22.6499
10 1 3.96508 -0.318802 21.2381
11 1 3.17022 1.81156 22.3265
12 1 1.53332 0.372673 20.7421
13 1 4.22656 3.49101 17.9857
14 1 0.977875 1.29145 18.4067
15 1 2.88201 3.04284 25.0174
16 2 2.20078 3.34316 16.4464
17 2 4.78418 1.70529 15.8702
18 2 4.77932 2.31975 20.1133
19 2 3.56929 0.726214 18.2924
20 2 3.73207 0.261073 13.7829
21 2 2.06048 0.634161 15.7382
22 2 1.25153 2.13539 13.7634
23 2 3.66769 3.30153 13.727
24 2 4.7833 4.50726 11.5573
25 2 6.08365 3.13251 9.01535
26 2 4.84173 1.48498 11.6426
27 2 2.55863 3.14622 11.3285
28 2 0.637557 0.323153 9.01569
29 2 3.17137 1.3799 8.99808
30 2 4.61361 2.27549 6.93668
31 2 2.13886 0.91504 6.38641
32 2 4.1238 3.42179 4.29079
33 2 1.59175 2.26626 4.04676
34 2 4.6864 0.533559 4.17335
35 2 7.23877 3.82737 6.69459
ITEM: TIMESTEP
14300
ITEM: NUMBER OF ATOMS
35
ITEM: BOX BOUNDS xy xz yz pp pp pp
0.0000000000000000e+00 7.6685730000000003e+00 2.5561910000000001e+00
0.0000000000000000e+00 4.4274529999999999e+00 0.0000000000000000e+00
0.0000000000000000e+00 3.3699264999999997e+01 0.0000000000000000e+00
ITEM: ATOMS id type x y z
1 1 0.13568 -0.0973408 22.3796
2 1 4.19979 0.586799 25.0291
3 1 5.14192 2.7766 26.6268
4 1 1.05 1.56676 24.8299
5 1 2.88132 4.054 26.8996
6 1 4.86508 3.98104 24.0768
7 1 2.47305 1.49233 26.7713
8 1 2.35277 3.38774 19.4871
9 1 5.89606 2.28828 22.4283
10 1 5.88619 4.62677 20.8676
11 1 3.13665 1.92609 22.6066
12 1 1.49445 1.01958 20.4165
13 1 4.05779 3.2892 17.7993
14 1 1.2016 1.67664 18.3455
15 1 2.8078 2.95436 24.7076
16 2 1.77539 3.28277 16.3431
17 2 4.72865 1.75392 16.0733
18 2 4.55266 2.4315 20.1477
19 2 3.91797 0.64967 18.4051
20 2 3.9703 0.600775 13.8764
21 2 2.31153 0.436789 16.0368
22 2 6.24129 2.04247 13.7589
23 2 3.63364 3.3812 13.7587
24 2 2.4517 0.355718 11.6067
25 2 5.48364 3.21133 9.28917
26 2 5.07049 1.52273 11.2343
27 2 1.97911 3.18681 11.3259
28 2 0.734834 0.0749154 8.65854
29 2 3.28213 1.66618 9.28833
30 2 4.85836 2.10344 6.72954
31 2 2.25284 0.790421 6.68279
32 2 4.62684 3.33919 4.46881
33 2 1.89838 1.95505 4.28665
34 2 4.23785 0.593856 4.20892
35 2 7.03235 3.58283 6.43803
ITEM: TIMESTEP
14400
ITEM: NUMBER OF ATOMS
35
ITEM: BOX BOUNDS xy xz yz pp pp pp
0.0000000000000000e+00 7.6685730000000003e+00 2.5561910000000001e+00
0.0000000000000000e+00 4.4274529999999999e+00 0.0000000000000000e+00
0.0000000000000000e+00 3.3699264999999997e+01 0.0000000000000000e+00
ITEM: ATOMS id type x y z
1 1 3.39523 4.1239 22.4755
2 1 3.97468 0.562037 24.663
3 1 5.00936 3.21648 26.4219
4 1 1.19264 1.50904 24.861
5 1 2.62332 4.27051 26.5598
6 1 4.93679 3.70005 23.7374
7 1 2.77088 1.26135 26.6843
8 1 2.07247 2.67776 20.291
9 1 6.1287 2.38997 22.5609
10 1 3.57518 0.106714 21.1591
11 1 3.37731 1.73227 22.8506
12 1 1.16445 0.574904 20.2969
13 1 3.68129 3.92994 18.2968
14 1 6.25744 2.0463 17.9836
15 1 3.26135 3.14273 24.8069
16 2 2.38412 3.2464 16.07
17 2 4.64201 1.68682 16.1642
18 2 4.53938 2.76245 20.5667
19 2 3.32402 0.766141 18.564
20 2 3.8802 0.572913 13.6164
21 2 2.09602 0.417705 15.8224
22 2 6.31067 2.24921 13.7125
23 2 3.79549 3.47511 13.8578
24 2 2.18722 0.284173 11.6183
25 2 5.64597 3.33525 8.88526
26 2 4.89986 1.62724 11.2395
27 2 2.61794 3.24491 11.4201
28 2 0.27394 0.131244 8.99131
29 2 2.77068 1.73193 9.04315
30 2 4.50739 1.86512 6.64663
31 2 2.37136 0.303781 6.83853
32 2 4.50743 3.57763 4.40516
33 2 1.94822 1.84927 4.32333
34 2 4.55588 0.538576 4.19441
35 2 2.41393 3.39574 6.50587
ITEM: TIMESTEP
14500
ITEM: NUMBER OF ATOMS
35
ITEM: BOX BOUNDS xy xz yz pp pp pp
0.0000000000000000e+00 7.6685730000000003e+00 2.5561910000000001e+00
0.0000000000000000e+00 4.4274529999999999e+00 0.0000000000000000e+00
0.0000000000000000e+00 3.3699264999999997e+01 0.0000000000000000e+00
ITEM: ATOMS id type x y z
1 1 -0.0552505 -0.195732 22.7592
2 1 4.36968 0.835948 24.8388
3 1 5.44733 3.29503 26.0146
4 1 1.52269 1.0629 25.1664
5 1 5.17354 0.622536 27.7443
6 1 5.54561 3.75529 23.424
7 1 2.83956 1.51882 27.1924
8 1 2.2153 2.3545 20.4476
9 1 1.82764 2.01144 22.5081
10 1 3.17678 0.299283 21.2598
11 1 4.3433 2.14058 23.0173
12 1 0.327529 0.3495 20.2344
13 1 3.21355 3.80488 18.3714
14 1 5.574 2.97069 18.2161
15 1 2.80624 2.93156 24.9741
16 2 2.28692 3.19613 16.0191
17 2 4.71721 1.56464 16.126
18 2 4.69713 2.74752 20.5024
19 2 3.17376 0.887019 18.4622
20 2 3.95339 0.762834 13.6579
21 2 2.26598 0.396863 16.1296
22 2 6.32121 2.31626 13.7661
23 2 3.86574 3.55095 13.7273
24 2 2.65413 0.237323 11.1642
25 2 5.2951 3.21041 8.91557
26 2 4.97775 1.90481 11.3837
27 2 2.32384 3.06206 11.2939
28 2 4.98477 0.608366 9.12619
29 2 2.43783 1.57089 8.94375
30 2 5.06789 1.52614 6.6402
31 2 2.13411 0.122823 6.40513
32 2 4.61648 3.28007 4.05197
33 2 1.83264 2.13694 4.37698
34 2 4.84452 0.360586 4.22064
35 2 2.3271 3.13851 6.68773
ITEM: TIMESTEP
14600
ITEM: NUMBER OF ATOMS
35
ITEM: BOX BOUNDS xy xz yz pp pp pp
0.0000000000000000e+00 7.6685730000000003e+00 2.5561910000000001e+00
0.0000000000000000e+00 4.4274529999999999e+00 0.0000000000000000e+00
0.0000000000000000e+00 3.3699264999999997e+01 0.0000000000000000e+00
ITEM: ATOMS id type x y z
1 1 3.13997 3.8159 22.5685
2 1 4.27662 1.32388 26.0216
3 1 6.00693 2.86837 26.0894
4 1 1.55346 0.591029 25.9787
5 1 5.59634 1.3445 27.6653
6 1 5.57304 4.24128 23.6693
7 1 2.81284 1.88204 27.7315
8 1 1.90333 3.06806 19.9313
9 1 1.62943 2.10235 23.6047
10 1 2.894 0.902941 20.8974
11 1 4.58007 1.79963 22.9862
12 1 0.471753 0.594171 20.3324
13 1 3.23306 3.96692 18.0708
14 1 5.83232 2.54759 18.2625
15 1 2.8498 3.46192 25.0579
16 2 1.99722 3.07215 16.1486
17 2 4.9751 1.41626 15.9688
18 2 4.53085 2.77709 20.5545
19 2 3.43818 1.09097 18.5972
20 2 3.65062 0.827096 13.8381
21 2 2.30975 0.0567982 16.1599
22 2 1.38727 2.21192 13.6467
23 2 3.75791 4.05171 13.6964
24 2 2.69701 0.42156 11.3512
25 2 4.33177 3.27914 8.87244
26 2 4.97104 1.73226 11.4852
27 2 2.48722 3.12444 11.1046
28 2 4.87771 0.188041 8.99177
29 2 2.43423 1.55735 8.79736
30 2 5.03669 1.61863 6.50122
31 2 2.62245 0.0235841 6.00518
32 2 4.73297 2.9395 3.80762
33 2 2.31677 1.88342 4.1642
34 2 4.41336 0.263053 4.20128
35 2 2.18105 3.22936 6.76032
ITEM: TIMESTEP
14700
ITEM: NUMBER OF ATOMS
35
ITEM: BOX BOUNDS xy xz yz pp pp pp
0.0000000000000000e+00 7.6685730000000003e+00 2.5561910000000001e+00
0.0000000000000000e+00 4.4274529999999999e+00 0.0000000000000000e+00
0.0000000000000000e+00 3.3699264999999997e+01 0.0000000000000000e+00
ITEM: ATOMS id type x y z
1 1 3.30435 4.10443 22.7749
2 1 4.03547 1.29299 25.268
3 1 5.99185 3.27742 26.376
4 1 2.04068 0.654917 26.6237
5 1 5.62248 1.75271 28.7083
6 1 5.50501 3.96543 23.7517
7 1 3.0829 2.78877 27.5125
8 1 6.92423 3.56009 20.8564
9 1 1.47541 1.49805 24.2827
10 1 2.89017 0.814053 21.5968
11 1 4.48855 1.59374 23.1057
12 1 0.984275 1.41335 20.5675
13 1 3.71763 4.14176 18.3754
14 1 5.7912 2.45414 18.1982
15 1 3.32881 3.61889 25.0898
16 2 2.56354 2.85222 16.2558
17 2 4.82671 1.45347 15.9925
18 2 4.43739 3.22773 20.5313
19 2 3.55558 0.833913 18.4118
20 2 3.57622 0.916032 13.6141
21 2 4.9526 4.33343 16.0481
22 2 6.18594 2.67058 13.579
23 2 3.56915 3.75763 13.834
24 2 2.25294 0.204361 11.342
25 2 4.92573 2.97424 8.7338
26 2 4.95053 1.57559 11.192
27 2 2.70474 3.21422 11.3526
28 2 4.36723 0.283226 8.86598
29 2 1.83166 1.42343 8.82615
30 2 4.74635 1.74156 6.32387
31 2 2.27992 0.136793 6.371
32 2 4.81282 3.06271 3.88874
33 2 2.21504 1.5739 4.02426
34 2 7.4636 4.3961 3.82667
35 2 2.55303 3.13821 6.15702
ITEM: TIMESTEP
14800
ITEM: NUMBER OF ATOMS
35
ITEM: BOX BOUNDS xy xz yz pp pp pp
0.0000000000000000e+00 7.6685730000000003e+00 2.5561910000000001e+00
0.0000000000000000e+00 4.4274529999999999e+00 0.0000000000000000e+00
0.0000000000000000e+00 3.3699264999999997e+01 0.0000000000000000e+00
ITEM: ATOMS id type x y z
1 1 3.30996 4.2051 23.0474
2 1 4.50886 1.09951 25.7391
3 1 5.9776 3.20423 26.3443
4 1 2.29984 1.21768 27.3695
5 1 5.07554 2.12492 28.154
6 1 6.15136 3.79067 24.3198
7 1 3.6353 3.57354 27.5733
8 1 6.79428 3.97249 20.601
9 1 2.07794 1.37471 24.9392
10 1 2.72171 1.17536 22.2973
11 1 5.00007 2.30014 22.5006
12 1 1.0128 1.35046 20.5144
13 1 3.34866 4.16201 18.1922
14 1 5.97686 2.55743 18.4257
15 1 3.24209 3.44262 25.0796
16 2 2.55246 2.65701 16.3522
17 2 5.17008 1.38737 16.1575
18 2 4.34832 3.34844 20.4768
19 2 3.57915 0.822652 18.7165
20 2 3.53605 1.09957 13.437
21 2 5.34525 4.43404 15.9991
22 2 5.86539 2.42843 13.7366
23 2 3.35881 3.86219 13.8489
24 2 2.46546 0.111419 11.0766
25 2 4.37495 3.07193 8.69168
26 2 4.8978 1.63019 11.1954
27 2 1.95305 2.92301 11.0435
28 2 4.58091 0.0135831 8.54345
29 2 1.98046 1.55133 8.84664
30 2 4.7579 1.26229 5.97755
31 2 2.00941 0.335268 6.51704
32 2 5.15797 3.12965 4.16639
33 2 2.25726 1.37754 3.84462
34 2 2.5741 4.36009 3.59474
35 2 2.20877 3.04319 6.24268
ITEM: TIMESTEP
14900
ITEM: NUMBER OF ATOMS
35
ITEM: BOX BOUNDS xy xz yz pp pp pp
0.0000000000000000e+00 7.6685730000000003e+00 2.5561910000000001e+00
0.0000000000000000e+00 4.4274529999999999e+00 0.0000000000000000e+00
0.0000000000000000e+00 3.3699264999999997e+01 0.0000000000000000e+00
ITEM: ATOMS id type x y z
1 1 3.60819 4.20882 22.4863
2 1 5.21393 1.14267 25.6259
3 1 6.14063 3.63718 26.7576
4 1 2.6906 1.63721 27.3142
5 1 4.9805 1.84189 28.6519
6 1 6.66279 4.46795 23.7725
7 1 3.27091 4.4049 27.6908
8 1 6.75734 3.94193 21.1027
9 1 2.20286 0.953475 25.0667
10 1 2.96332 1.7256 22.4316
11 1 5.54729 2.37574 23.0253
12 1 1.42895 1.44391 20.6352
13 1 1.10582 -0.0593275 18.1944
14 1 6.02194 3.02934 18.3431
15 1 4.04418 3.1257 25.5802
16 2 2.64718 2.62394 16.1785
17 2 5.29858 1.16954 16.2007
18 2 4.1095 3.01098 20.3881
19 2 3.29781 1.47002 18.8459
20 2 3.13945 0.974538 13.619
21 2 5.53018 4.19956 16.091
22 2 6.09634 2.3342 13.6943
23 2 3.04757 4.12282 13.5229
24 2 4.46078 4.32404 11.1289
25 2 4.46861 2.92917 8.63001
26 2 4.4148 1.42655 11.04
27 2 2.18352 3.18244 11.2103
28 2 4.52111 0.28027 8.59354
29 2 1.99839 1.4312 8.65266
30 2 4.35423 1.25147 6.00072
31 2 4.56154 4.26368 6.20207
32 2 5.34741 3.05724 4.1069
33 2 2.86695 1.64715 3.85706
34 2 2.53634 4.32337 3.63255
35 2 1.77899 2.71491 6.31465
ITEM: TIMESTEP
15000
ITEM: NUMBER OF ATOMS
35
ITEM: BOX BOUNDS xy xz yz pp pp pp
0.0000000000000000e+00 7.6685730000000003e+00 2.5561910000000001e+00
0.0000000000000000e+00 4.4274529999999999e+00 0.0000000000000000e+00
0.0000000000000000e+00 3.3699264999999997e+01 0.0000000000000000e+00
ITEM: ATOMS id type x y z
1 1 4.62853 4.50398 23.0583
2 1 5.5066 1.04377 25.7778
3 1 6.21478 4.22117 26.9065
4 1 2.28183 1.93247 27.0732
5 1 5.40288 2.76788 28.4711
6 1 7.31252 4.10524 23.246
7 1 3.75784 4.09282 27.6874
8 1 6.36403 4.59575 20.9933
9 1 2.90675 1.18771 24.9006
10 1 3.24969 2.16973 22.7839
11 1 5.84465 2.24943 23.5436
12 1 1.18955 1.36245 20.8451
13 1 3.50809 4.2379 18.4341
14 1 6.44184 3.48514 18.7238
15 1 3.99307 3.24962 25.4565
16 2 3.14294 2.59186 16.0122
17 2 5.32562 1.06513 16.0724
18 2 4.35396 2.99847 20.4976
19 2 2.96647 1.51122 18.3895
20 2 3.08935 0.911783 13.6461
21 2 5.28749 3.90465 15.9789
22 2 5.44879 2.6461 13.4456
23 2 3.14988 3.9534 13.7805
24 2 1.7815 0.192394 11.1837
25 2 4.94521 2.97625 8.65043
26 2 4.26841 1.60202 11.1457
27 2 1.67291 2.82176 11.1004
28 2 4.38802 -0.0565114 8.75972
29 2 1.73624 1.15244 8.7431
30 2 4.18687 1.22281 6.44411
31 2 3.98937 3.98145 6.12364
32 2 5.47399 2.88708 3.38167
33 2 2.9965 1.69094 3.85828
34 2 0.447758 0.247662 4.00339
35 2 1.69905 2.56264 6.2633
ITEM: TIMESTEP
15100
ITEM: NUMBER OF ATOMS
35
ITEM: BOX BOUNDS xy xz yz pp pp pp
0.0000000000000000e+00 7.6685730000000003e+00 2.5561910000000001e+00
0.0000000000000000e+00 4.4274529999999999e+00 0.0000000000000000e+00
0.0000000000000000e+00 3.3699264999999997e+01 0.0000000000000000e+00
ITEM: ATOMS id type x y z
1 1 5.41075 4.0651 22.8447
2 1 5.65299 1.6092 25.9035
3 1 3.75187 0.0441881 26.8573
4 1 2.94027 2.41483 26.9893
5 1 5.38359 2.49605 27.9615
6 1 7.72028 4.4702 22.8724
7 1 3.64273 4.35783 27.7457
8 1 4.25392 0.703233 20.4728
9 1 3.24332 1.48927 24.6445
10 1 4.00717 2.0125 22.564
11 1 6.19707 2.03082 23.8346
12 1 1.70451 1.47316 20.9802
13 1 0.498145 0.0965027 18.4951
14 1 5.96329 2.78832 18.6711
15 1 4.33296 3.92906 25.0943
16 2 2.68049 2.34408 15.9096
17 2 5.73356 1.01714 16.17
18 2 4.14833 3.30966 20.4599
19 2 3.12697 1.14639 18.327
20 2 2.78908 1.10833 13.5767
21 2 5.72915 4.00327 16.1254
22 2 5.33365 2.38541 13.7294
23 2 2.6393 4.05561 13.5338
24 2 1.63452 0.0162219 11.3599
25 2 4.18427 2.55321 8.78486
26 2 4.03083 1.56492 11.1593
27 2 6.48507 3.04119 11.1799
28 2 7.4253 4.01226 9.01857
29 2 2.06128 1.31867 8.62621
30 2 4.11385 0.937381 6.5913
31 2 4.13567 3.85032 6.37319
32 2 5.66344 3.19747 3.40097
33 2 3.02588 1.59685 4.04914
34 2 0.482238 0.495628 3.92948
35 2 6.38491 2.61439 5.86754
ITEM: TIMESTEP
15200
ITEM: NUMBER OF ATOMS
35
ITEM: BOX BOUNDS xy xz yz pp pp pp
0.0000000000000000e+00 7.6685730000000003e+00 2.5561910000000001e+00
0.0000000000000000e+00 4.4274529999999999e+00 0.0000000000000000e+00
0.0000000000000000e+00 3.3699264999999997e+01 0.0000000000000000e+00
ITEM: ATOMS id type x y z
1 1 5.66645 4.27774 22.043
2 1 5.87592 2.29661 25.6622
3 1 6.56663 4.14367 26.7775
4 1 3.23728 2.58869 26.4081
5 1 4.66529 2.23042 28.4514
6 1 3.60175 4.19147 22.9624
7 1 1.66001 0.774079 27.4346
8 1 4.70965 0.48842 20.6098
9 1 4.13345 1.26726 24.4455
10 1 4.36618 1.81645 22.2944
11 1 1.74505 2.39611 23.3453
12 1 1.9891 2.4264 20.9031
13 1 2.88335 3.48113 18.0216
14 1 5.56151 2.02021 18.4099
15 1 4.42812 4.4524 25.2371
16 2 3.2169 2.55708 16.0486
17 2 5.57169 0.855779 16.1504
18 2 4.22221 3.72002 20.0877
19 2 3.10585 1.00786 18.6286
20 2 2.32867 0.846044 13.6545
21 2 5.7096 4.08844 16.2523
22 2 5.18437 2.4659 14.0201
23 2 7.36073 4.13693 13.6345
24 2 3.7717 4.249 11.2159
25 2 4.99872 2.48318 8.79319
26 2 3.56038 1.44405 11.2868
27 2 6.36177 2.89082 11.3728
28 2 7.0863 4.11501 8.89833
29 2 1.85146 1.14518 8.38765
30 2 4.12513 0.637386 6.4682
31 2 3.95618 3.99384 6.28721
32 2 5.54647 3.74664 3.70559
33 2 3.30038 1.90019 4.38587
34 2 0.407758 0.181875 3.89441
35 2 6.38589 2.37495 6.02669
ITEM: TIMESTEP
15300
ITEM: NUMBER OF ATOMS
35
ITEM: BOX BOUNDS xy xz yz pp pp pp
0.0000000000000000e+00 7.6685730000000003e+00 2.5561910000000001e+00
0.0000000000000000e+00 4.4274529999999999e+00 0.0000000000000000e+00
0.0000000000000000e+00 3.3699264999999997e+01 0.0000000000000000e+00
ITEM: ATOMS id type x y z
1 1 5.98043 4.73721 22.1294
2 1 5.84129 2.5983 25.4685
3 1 6.95302 4.79815 27.0694
4 1 3.46751 2.83157 25.7426
5 1 4.33339 2.36452 27.8314
6 1 3.35175 4.30591 22.7575
7 1 2.02758 1.18628 27.459
8 1 5.28167 0.786369 20.3013
9 1 4.47913 0.266146 24.7977
10 1 4.97434 2.36186 22.3036
11 1 2.18273 2.29913 23.3617
12 1 1.97503 2.66769 20.6425
13 1 2.31497 3.84782 18.1576
14 1 5.67492 2.23948 18.1139
15 1 2.28036 0.347643 25.1
16 2 3.37767 2.19932 15.9253
17 2 5.83435 0.889469 16.2525
18 2 4.71739 3.37324 20.0317
19 2 2.99042 1.08269 18.5477
20 2 2.12174 0.858168 13.854
21 2 5.4788 3.95692 16.5284
22 2 4.6327 2.60789 13.4404
23 2 7.34479 3.95915 13.9907
24 2 3.53402 4.30629 11.0027
25 2 4.62146 2.67217 8.73912
26 2 3.42205 1.41134 11.3396
27 2 5.86086 2.50601 11.2892
28 2 7.34391 3.96543 8.95931
29 2 2.30967 0.925958 8.75337
30 2 3.93532 0.687687 6.51966
31 2 4.01468 3.71633 6.39435
32 2 5.58054 3.64256 4.00412
33 2 3.24182 2.16752 4.23668
34 2 0.393437 0.617074 3.80619
35 2 6.38887 2.16613 6.20585
ITEM: TIMESTEP
15400
ITEM: NUMBER OF ATOMS
35
ITEM: BOX BOUNDS xy xz yz pp pp pp
0.0000000000000000e+00 7.6685730000000003e+00 2.5561910000000001e+00
0.0000000000000000e+00 4.4274529999999999e+00 0.0000000000000000e+00
0.0000000000000000e+00 3.3699264999999997e+01 0.0000000000000000e+00
ITEM: ATOMS id type x y z
1 1 3.71279 0.719723 21.5921
2 1 5.88236 2.50959 25.5297
3 1 7.44671 4.22297 27.1004
4 1 3.66234 2.66096 24.9279
5 1 4.41993 3.58342 27.0158
6 1 3.90159 4.39675 22.5655
7 1 1.89815 1.6266 27.295
8 1 5.481 0.785877 20.198
9 1 4.76216 0.413064 24.3294
10 1 5.27879 2.73096 23.3289
11 1 2.34327 2.03945 23.12
12 1 2.27308 2.58275 20.9276
13 1 3.10117 3.86354 18.3193
14 1 5.95474 2.09288 18.3405
15 1 2.16011 0.453021 25.2344
16 2 3.07906 2.13171 16.1725
17 2 0.573306 0.953246 15.835
18 2 4.65731 3.29896 20.3445
19 2 3.22393 1.39991 18.7179
20 2 1.99283 1.15682 13.6273
21 2 5.59389 3.5696 16.2548
22 2 4.4779 2.41716 13.5613
23 2 6.80872 3.81505 13.8912
24 2 3.37626 4.24806 11.6526
25 2 4.69077 2.12284 8.84836
26 2 3.36231 1.10366 11.3642
27 2 6.14097 2.88745 10.8637
28 2 2.23966 3.88357 8.71432
29 2 2.10405 0.967512 9.0278
30 2 3.81922 0.672736 6.41003
31 2 3.8579 3.594 6.33115
32 2 5.86377 3.7455 4.23125
33 2 2.90154 2.04084 3.93997
34 2 5.56975 1.1405 3.99376
35 2 1.28153 2.04566 6.53486
ITEM: TIMESTEP
15500
ITEM: NUMBER OF ATOMS
35
ITEM: BOX BOUNDS xy xz yz pp pp pp
0.0000000000000000e+00 7.6685730000000003e+00 2.5561910000000001e+00
0.0000000000000000e+00 4.4274529999999999e+00 0.0000000000000000e+00
0.0000000000000000e+00 3.3699264999999997e+01 0.0000000000000000e+00
ITEM: ATOMS id type x y z
1 1 3.82424 0.556733 21.8307
2 1 6.12632 2.3727 25.1899
3 1 4.55674 0.321376 26.311
4 1 3.66128 2.5517 25.7523
5 1 4.98349 3.84232 27.2903
6 1 1.03997 0.279012 22.5395
7 1 2.43989 1.91719 27.5097
8 1 0.857662 0.971647 20.3138
9 1 4.53238 0.527302 24.1116
10 1 5.49874 2.76866 22.8059
11 1 3.00453 2.48976 22.7712
12 1 2.24866 3.07389 20.2259
13 1 3.71854 3.97793 18.074
14 1 6.09313 2.42297 18.311
15 1 2.25898 0.345404 24.5886
16 2 2.93706 2.13449 16.1349
17 2 5.26747 0.587393 15.8961
18 2 4.72101 3.35277 20.5958
19 2 3.79315 0.732058 19.0322
20 2 1.8008 1.34628 13.6044
21 2 5.51006 3.81635 16.0613
22 2 4.32403 2.42307 13.8735
23 2 6.53841 4.10465 13.6383
24 2 3.42145 4.05728 11.7234
25 2 4.56264 2.14941 8.98654
26 2 3.70588 1.32585 11.2658
27 2 6.16315 2.80339 11.1165
28 2 2.13035 3.63501 8.51134
29 2 1.97052 0.276979 9.02282
30 2 3.74737 0.866246 6.51973
31 2 3.60817 3.48776 5.98382
32 2 5.72971 3.92712 4.15196
33 2 2.97625 2.4052 3.83882
34 2 5.54032 0.938421 4.39249
35 2 1.29906 1.91479 6.7392
ITEM: TIMESTEP
15600
ITEM: NUMBER OF ATOMS
35
ITEM: BOX BOUNDS xy xz yz pp pp pp
0.0000000000000000e+00 7.6685730000000003e+00 2.5561910000000001e+00
0.0000000000000000e+00 4.4274529999999999e+00 0.0000000000000000e+00
0.0000000000000000e+00 3.3699264999999997e+01 0.0000000000000000e+00
ITEM: ATOMS id type x y z
1 1 3.88517 0.617925 21.2874
2 1 6.34104 2.41704 25.2212
3 1 4.96389 0.96285 26.8862
4 1 3.32243 2.87971 25.5928
5 1 5.69651 3.83351 27.0813
6 1 1.83079 0.633013 22.3156
7 1 2.44806 1.90709 27.3155
8 1 1.68446 1.17812 19.8622
9 1 4.4091 0.44085 24.1117
10 1 5.82352 3.05829 22.9576
11 1 3.23203 2.90357 22.9233
12 1 2.51496 3.1374 20.3991
13 1 4.08449 4.10961 18.3755
14 1 5.79486 2.30838 17.7918
15 1 2.17553 0.289953 24.5881
16 2 2.60997 2.12337 16.4346
17 2 5.28568 0.384532 16.3085
18 2 5.04369 2.99213 20.4089
19 2 3.95082 0.443425 18.6678
20 2 1.3752 1.51447 13.954
21 2 5.18581 3.80155 15.9633
22 2 3.96354 2.89304 13.9042
23 2 6.6606 4.46062 13.4042
24 2 3.9287 4.10518 11.3547
25 2 4.3167 1.89337 8.61179
26 2 3.52503 1.2655 11.2648
27 2 6.13216 2.28636 11.4293
28 2 2.06972 3.32693 8.97612
29 2 2.32734 0.329563 9.1183
30 2 3.45971 0.602796 6.5648
31 2 3.80234 3.50788 6.43681
32 2 5.4097 3.89799 4.15904
33 2 3.04392 2.49324 3.68258
34 2 5.43107 1.12563 4.16763
35 2 1.04438 2.04375 6.59917
ITEM: TIMESTEP
15700
ITEM: NUMBER OF ATOMS
35
ITEM: BOX BOUNDS xy xz yz pp pp pp
0.0000000000000000e+00 7.6685730000000003e+00 2.5561910000000001e+00
0.0000000000000000e+00 4.4274529999999999e+00 0.0000000000000000e+00
0.0000000000000000e+00 3.3699264999999997e+01 0.0000000000000000e+00
ITEM: ATOMS id type x y z
1 1 4.24502 0.724726 21.3541
2 1 5.78543 2.5851 24.8753
3 1 5.16663 1.05619 26.8986
4 1 3.71623 3.13534 25.5759
5 1 5.96738 4.046 26.9444
6 1 1.78282 1.05812 22.1985
7 1 2.56599 1.71894 27.2127
8 1 1.90714 0.849512 19.7374
9 1 5.00519 0.5059 24.333
10 1 6.0149 3.29493 22.7326
11 1 3.46677 2.7778 22.9359
12 1 3.10618 3.35635 20.7286
13 1 3.504 3.46603 18.6262
14 1 6.10225 2.35358 18.0996
15 1 2.46434 0.859354 25.059
16 2 2.64252 1.93017 16.5234
17 2 4.91606 0.660573 15.9712
18 2 5.70816 2.89253 20.4744
19 2 3.95093 0.402061 18.3932
20 2 1.30037 1.62029 14.2301
21 2 5.31464 3.55653 15.8444
22 2 3.50002 2.94723 13.7649
23 2 3.93651 0.162917 13.7143
24 2 3.70688 3.82996 11.3336
25 2 5.02577 1.71462 8.7797
26 2 3.55361 1.05537 11.2222
27 2 6.04301 2.44949 11.6944
28 2 2.08219 3.29402 9.4076
29 2 2.02927 0.457022 8.54684
30 2 3.63034 0.451822 6.22006
31 2 3.33983 3.57132 6.65201
32 2 5.1382 3.96335 3.85461
33 2 2.69458 2.46055 4.27968
34 2 5.31192 1.06325 3.9611
35 2 6.38674 2.19075 6.33117
ITEM: TIMESTEP
15800
ITEM: NUMBER OF ATOMS
35
ITEM: BOX BOUNDS xy xz yz pp pp pp
0.0000000000000000e+00 7.6685730000000003e+00 2.5561910000000001e+00
0.0000000000000000e+00 4.4274529999999999e+00 0.0000000000000000e+00
0.0000000000000000e+00 3.3699264999999997e+01 0.0000000000000000e+00
ITEM: ATOMS id type x y z
1 1 4.40224 1.23156 21.33
2 1 6.17359 2.83855 25.1118
3 1 5.07567 1.33833 26.2194
4 1 4.02917 3.8869 26.0991
5 1 5.94235 3.51454 27.4427
6 1 1.45159 0.924289 22.5762
7 1 2.6241 1.88484 27.5895
8 1 1.84348 0.689617 20.062
9 1 5.40218 0.251133 24.2087
10 1 5.85419 3.61103 22.7969
11 1 4.15845 2.62125 23.677
12 1 3.49743 3.25823 20.9604
13 1 3.82566 3.01831 18.0738
14 1 5.95977 1.92551 18.174
15 1 2.93385 1.13646 24.9151
16 2 2.72919 1.73139 16.1659
17 2 5.18958 0.444109 16.1408
18 2 6.09022 3.19622 20.4246
19 2 4.06175 0.521038 18.8174
20 2 1.21894 1.30213 13.9153
21 2 5.03924 3.39902 16.1539
22 2 3.86937 2.95973 13.8374
23 2 3.39001 0.0497929 13.4022
24 2 3.51525 4.19329 11.2679
25 2 4.88864 1.89494 9.19366
26 2 3.40171 0.963948 10.9934
27 2 5.75045 2.5331 11.7094
28 2 2.08287 3.40217 8.85487
29 2 2.60122 0.411258 8.43457
30 2 3.68928 0.79677 6.21936
31 2 3.55173 3.4555 6.74075
32 2 4.8571 3.93607 3.71767
33 2 2.53993 2.60275 4.1709
34 2 5.09575 0.824305 3.87528
35 2 5.81579 1.93598 6.48797
ITEM: TIMESTEP
15900
ITEM: NUMBER OF ATOMS
35
ITEM: BOX BOUNDS xy xz yz pp pp pp
0.0000000000000000e+00 7.6685730000000003e+00 2.5561910000000001e+00
0.0000000000000000e+00 4.4274529999999999e+00 0.0000000000000000e+00
0.0000000000000000e+00 3.3699264999999997e+01 0.0000000000000000e+00
ITEM: ATOMS id type x y z
1 1 4.87784 1.08926 21.4259
2 1 1.99538 2.93772 25.4715
3 1 4.87423 1.50827 26.7875
4 1 3.80769 3.70401 26.8102
5 1 6.17399 3.5954 28.1118
6 1 2.19488 1.73886 22.5143
7 1 2.31951 1.51978 27.2586
8 1 2.08708 0.775166 20.1529
9 1 0.454796 0.469781 24.3682
10 1 6.41169 4.14007 22.9376
11 1 4.40731 2.66488 24.3947
12 1 3.39229 3.07682 21.4044
13 1 3.21228 3.44252 19.0652
14 1 1.64032 1.86344 18.0151
15 1 2.86308 0.659774 24.7831
16 2 2.90012 1.68632 15.9093
17 2 2.7138 4.32281 16.4787
18 2 5.84906 3.03873 20.2672
19 2 4.1947 0.885573 18.6924
20 2 0.83377 1.1864 13.8946
21 2 5.39665 3.34526 16.3278
22 2 3.73431 2.72402 13.6398
23 2 6.50484 4.12975 13.571
24 2 2.98971 4.2874 11.16
25 2 4.73393 2.21418 8.75799
26 2 2.85961 1.34543 11.2799
27 2 5.78211 2.78353 11.0776
28 2 2.45902 3.3016 8.65928
29 2 2.4526 0.524834 8.72779
30 2 3.16117 0.580911 5.98611
31 2 3.60781 3.37851 6.18374
32 2 4.91366 3.67161 4.02238
33 2 2.25097 2.4796 3.93644
34 2 4.81705 0.987397 3.86918
35 2 6.2132 2.16396 6.58426
ITEM: TIMESTEP
16000
ITEM: NUMBER OF ATOMS
35
ITEM: BOX BOUNDS xy xz yz pp pp pp
0.0000000000000000e+00 7.6685730000000003e+00 2.5561910000000001e+00
0.0000000000000000e+00 4.4274529999999999e+00 0.0000000000000000e+00
0.0000000000000000e+00 3.3699264999999997e+01 0.0000000000000000e+00
ITEM: ATOMS id type x y z
1 1 5.01333 0.872665 21.5344
2 1 1.76638 2.94839 25.1464
3 1 4.84453 1.46423 26.8371
4 1 3.6878 3.36878 27.3669
5 1 6.33844 3.70681 27.3085
6 1 2.20406 1.40898 23.1452
7 1 2.4464 1.03112 27.3641
8 1 2.41716 1.34633 20.804
9 1 0.500592 0.728787 24.7637
10 1 6.175 3.76463 22.8551
11 1 4.31169 2.9065 24.8054
12 1 4.20379 3.41948 22.2458
13 1 3.34983 3.8101 19.1503
14 1 1.88218 1.46737 18.0832
15 1 3.37488 0.670453 25.3762
16 2 3.32874 1.38383 15.7045
17 2 3.01989 4.26847 16.4385
18 2 5.80757 3.07048 19.8196
19 2 4.19456 1.32206 18.5184
20 2 1.23548 1.20107 13.9713
21 2 5.32401 3.05635 16.6827
22 2 3.87082 2.89274 13.4872
23 2 6.24977 3.82972 13.9211
24 2 2.80162 4.54081 11.0921
25 2 4.64125 1.87836 8.49884
26 2 2.79497 1.51213 11.4147
27 2 5.42274 3.05993 10.9883
28 2 2.16196 3.58563 8.53161
29 2 1.97003 0.533026 8.90388
30 2 3.78004 0.596134 6.55562
31 2 3.4039 3.62177 5.88675
32 2 4.76294 3.69333 3.43762
33 2 2.08496 2.19564 3.72876
34 2 4.77336 0.860755 4.09704
35 2 6.10607 2.03082 6.19311
ITEM: TIMESTEP
16100
ITEM: NUMBER OF ATOMS
35
ITEM: BOX BOUNDS xy xz yz pp pp pp
0.0000000000000000e+00 7.6685730000000003e+00 2.5561910000000001e+00
0.0000000000000000e+00 4.4274529999999999e+00 0.0000000000000000e+00
0.0000000000000000e+00 3.3699264999999997e+01 0.0000000000000000e+00
ITEM: ATOMS id type x y z
1 1 5.36639 1.14131 21.2158
2 1 1.66404 2.53867 24.8461
3 1 5.08425 1.09683 27.2738
4 1 3.68783 3.59104 27.2276
5 1 6.32049 3.47543 26.8884
6 1 2.46583 0.887228 22.8143
7 1 2.43765 1.42469 27.7481
8 1 2.95012 1.97657 20.5763
9 1 0.225682 0.570535 24.6751
10 1 6.74621 3.63084 22.7127
11 1 4.54329 2.94016 25.0558
12 1 3.84503 3.16016 22.5482
13 1 3.35762 3.81883 19.4922
14 1 1.8648 1.14384 18.0756
15 1 3.10544 0.659393 25.5259
16 2 3.37879 1.35003 16.0206
17 2 3.15067 4.01295 16.2255
18 2 5.89718 3.37336 19.6198
19 2 4.29483 1.44896 18.5807
20 2 1.15261 1.2614 13.9419
21 2 5.8216 2.99868 16.8123
22 2 4.04357 2.76317 13.6529
23 2 6.65878 4.20513 13.8455
24 2 5.19527 0.473985 11.4933
25 2 4.39488 2.06122 8.8331
26 2 2.68342 1.53094 11.1804
27 2 5.05883 3.12888 11.1638
28 2 6.92003 3.15131 8.66324
29 2 1.66525 0.551581 8.7355
30 2 3.28232 0.533671 6.33933
31 2 3.90607 3.64431 5.92475
32 2 4.70022 3.88219 3.45595
33 2 2.31346 1.99311 3.68357
34 2 4.5267 0.534212 3.85162
35 2 5.95541 2.10821 5.88664
ITEM: TIMESTEP
16200
ITEM: NUMBER OF ATOMS
35
ITEM: BOX BOUNDS xy xz yz pp pp pp
0.0000000000000000e+00 7.6685730000000003e+00 2.5561910000000001e+00
0.0000000000000000e+00 4.4274529999999999e+00 0.0000000000000000e+00
0.0000000000000000e+00 3.3699264999999997e+01 0.0000000000000000e+00
ITEM: ATOMS id type x y z
1 1 5.40392 1.27457 20.9168
2 1 1.9046 2.64594 24.4092
3 1 5.01812 1.26183 26.8642
4 1 3.77949 3.77806 26.9271
5 1 6.28537 3.11311 27.4442
6 1 2.36163 0.75064 22.8047
7 1 2.61866 1.52221 27.894
8 1 2.97669 1.75673 20.4675
9 1 0.248041 0.237349 24.1776
10 1 7.00206 3.41411 21.957
11 1 4.45482 2.43628 24.9416
12 1 4.54041 2.45109 22.6531
13 1 3.28457 3.61213 19.2331
14 1 2.04078 1.43562 18.2943
15 1 2.67593 0.40951 25.4358
16 2 3.34291 1.20189 16.1142
17 2 3.57457 4.11544 16.3239
18 2 5.9662 3.83266 19.8142
19 2 4.59813 1.42104 18.4264
20 2 1.54008 1.71845 14.0911
21 2 6.05069 3.03022 16.7092
22 2 3.89401 2.53056 13.808
23 2 6.62542 4.21367 13.8389
24 2 5.16434 0.264678 11.2215
25 2 4.01599 1.90332 8.70438
26 2 2.48559 2.04757 11.4178
27 2 5.17886 3.59697 11.5681
28 2 6.64377 3.25809 8.79
29 2 1.34408 0.208843 8.39136
30 2 3.42628 0.841282 6.25333
31 2 3.02371 3.3657 6.18517
32 2 4.69374 3.37832 3.69622
33 2 2.42136 2.19699 3.61603
34 2 4.72972 0.407587 3.82566
35 2 5.95369 2.16105 5.90725
ITEM: TIMESTEP
16300
ITEM: NUMBER OF ATOMS
35
ITEM: BOX BOUNDS xy xz yz pp pp pp
0.0000000000000000e+00 7.6685730000000003e+00 2.5561910000000001e+00
0.0000000000000000e+00 4.4274529999999999e+00 0.0000000000000000e+00
0.0000000000000000e+00 3.3699264999999997e+01 0.0000000000000000e+00
ITEM: ATOMS id type x y z
1 1 0.947517 0.452696 20.5369
2 1 1.4376 2.55279 24.5787
3 1 5.17116 1.18803 26.4109
4 1 3.62706 3.18749 27.0054
5 1 6.31948 3.4337 27.0424
6 1 3.04164 0.265736 22.7558
7 1 2.68116 1.06474 27.1924
8 1 3.1329 1.80851 20.754
9 1 0.379199 0.477028 24.2421
10 1 2.56852 3.59161 22.4271
11 1 3.6334 2.52524 24.6614
12 1 5.04374 2.27254 22.4126
13 1 3.39462 3.44422 18.5344
14 1 2.35823 1.40582 18.5817
15 1 2.94408 0.113132 25.2137
16 2 3.74757 1.42161 16.0937
17 2 3.74806 4.40844 16.3698
18 2 5.56429 3.77109 19.721
19 2 4.96873 1.39402 18.3525
20 2 1.23267 1.07353 14.0012
21 2 6.12288 3.00252 16.5559
22 2 4.26002 3.10744 13.8306
23 2 6.4451 4.4443 13.8917
24 2 5.35644 0.766192 10.8422
25 2 3.83506 1.59322 8.88386
26 2 2.38649 2.21989 11.584
27 2 5.19347 3.89811 11.3673
28 2 6.0877 3.31732 8.86728
29 2 1.38105 0.370469 8.56181
30 2 2.94843 0.525485 6.16696
31 2 2.94865 3.61982 6.27316
32 2 5.03937 3.27234 4.18327
33 2 2.19483 1.73661 3.50144
34 2 5.05955 0.510029 3.8637
35 2 5.34154 2.05519 6.5185
ITEM: TIMESTEP
16400
ITEM: NUMBER OF ATOMS
35
ITEM: BOX BOUNDS xy xz yz pp pp pp
0.0000000000000000e+00 7.6685730000000003e+00 2.5561910000000001e+00
0.0000000000000000e+00 4.4274529999999999e+00 0.0000000000000000e+00
0.0000000000000000e+00 3.3699264999999997e+01 0.0000000000000000e+00
ITEM: ATOMS id type x y z
1 1 1.11979 0.271764 20.8805
2 1 6.07573 2.56569 24.6377
3 1 4.89209 0.861937 27.0307
4 1 4.11239 3.24167 26.6608
5 1 6.61852 3.39351 26.911
6 1 3.32707 0.373606 22.0099
7 1 2.42898 0.859952 26.7382
8 1 3.40956 2.01869 20.452
9 1 -0.00530008 0.182536 24.2908
10 1 2.93158 3.14731 22.4191
11 1 3.93793 2.46969 24.4293
12 1 5.85446 2.22339 22.0641
13 1 3.02329 3.25247 18.6207
14 1 2.44895 0.693836 18.0672
15 1 2.48999 0.504346 24.3453
16 2 3.93139 1.87984 16.0996
17 2 1.21857 0.163337 16.0495
18 2 5.96356 3.2132 19.7656
19 2 4.84908 1.11953 18.8032
20 2 1.33534 1.62319 13.5951
21 2 6.60553 3.28323 16.4468
22 2 4.02453 2.84988 13.6789
23 2 3.94662 -0.0433296 13.5637
24 2 5.03574 1.24961 11.4403
25 2 3.47766 1.9471 9.10906
26 2 2.70442 2.5034 11.5713
27 2 5.04189 4.0209 11.1166
28 2 6.44 3.12561 8.90652
29 2 1.23671 0.295079 8.84159
30 2 2.16977 0.762055 6.26818
31 2 2.70884 3.18708 6.19219
32 2 5.2587 3.19263 4.19662
33 2 2.45976 1.69975 3.90358
34 2 4.96409 0.270102 4.03458
35 2 5.07097 1.91558 6.82771
ITEM: TIMESTEP
16500
ITEM: NUMBER OF ATOMS
35
ITEM: BOX BOUNDS xy xz yz pp pp pp
0.0000000000000000e+00 7.6685730000000003e+00 2.5561910000000001e+00
0.0000000000000000e+00 4.4274529999999999e+00 0.0000000000000000e+00
0.0000000000000000e+00 3.3699264999999997e+01 0.0000000000000000e+00
ITEM: ATOMS id type x y z
1 1 1.5499 0.0294766 20.5229
2 1 6.48851 2.34183 24.5116
3 1 5.18362 1.24747 27.005
4 1 3.85865 3.59466 26.4795
5 1 6.48484 3.04891 26.8973
6 1 3.95231 0.153733 22.0029
7 1 2.81716 1.03124 26.0618
8 1 3.42996 1.93886 20.3546
9 1 4.78087 0.162625 24.6549
10 1 2.95313 3.01337 22.5695
11 1 3.94797 2.21717 24.4774
12 1 5.34644 1.99932 22.3539
13 1 3.42866 2.984 18.0771
14 1 2.40576 0.24284 18.2248
15 1 1.89891 0.0612854 23.5277
16 2 4.14256 1.62715 16.0715
17 2 1.32358 0.440938 15.7149
18 2 6.44723 3.08131 19.836
19 2 5.09078 0.915334 18.5276
20 2 1.66708 1.91593 13.7405
21 2 6.36932 3.25529 16.4038
22 2 3.93613 3.2247 13.7804
23 2 6.35504 4.60494 13.8417
24 2 5.01749 1.19118 11.4491
25 2 3.97215 1.65612 8.97137
26 2 2.29174 2.9753 11.052
27 2 5.01741 4.27568 11.4821
28 2 6.12191 3.52924 8.76439
29 2 1.02268 0.207877 9.09099
30 2 2.32608 0.160481 6.71895
31 2 2.09597 3.34967 6.50197
32 2 5.19414 2.96448 4.30472
33 2 2.84934 1.90369 4.04236
34 2 4.96626 0.299616 4.25722
35 2 4.52935 1.80642 6.50383
ITEM: TIMESTEP
16600
ITEM: NUMBER OF ATOMS
35
ITEM: BOX BOUNDS xy xz yz pp pp pp
0.0000000000000000e+00 7.6685730000000003e+00 2.5561910000000001e+00
0.0000000000000000e+00 4.4274529999999999e+00 0.0000000000000000e+00
0.0000000000000000e+00 3.3699264999999997e+01 0.0000000000000000e+00
ITEM: ATOMS id type x y z
1 1 1.59175 0.0713775 20.718
2 1 1.24734 1.86709 24.4686
3 1 5.12634 1.66802 26.5281
4 1 3.9472 3.45355 26.9269
5 1 6.55863 3.61115 26.9052
6 1 4.18209 0.00595329 22.1596
7 1 2.77541 0.761619 25.5158
8 1 4.0247 1.49435 20.2212
9 1 7.4345 4.09867 24.4027
10 1 2.71816 2.02311 22.1065
11 1 4.0696 2.44355 24.5376
12 1 5.53613 2.12435 21.8567
13 1 3.45095 2.96069 18.1217
14 1 3.02893 0.486166 18.3832
15 1 4.51159 4.4113 23.3147
16 2 3.95186 1.7927 16.0848
17 2 1.54878 0.18294 16.333
18 2 6.39062 2.99957 19.6975
19 2 5.58579 1.05931 18.3767
20 2 1.3333 2.12121 13.5323
21 2 6.32918 3.02167 16.5239
22 2 3.98569 3.51168 13.7303
23 2 4.06153 0.349836 13.6859
24 2 4.96604 1.4228 11.5224
25 2 3.53245 1.63366 9.08008
26 2 2.24621 2.92272 11.0118
27 2 2.45097 0.116721 11.502
28 2 5.67262 3.23372 9.04479
29 2 1.09118 0.681388 9.06613
30 2 4.46551 4.43257 6.42154
31 2 2.20553 3.05593 6.82036
32 2 5.32476 3.50441 4.16803
33 2 2.53156 1.77222 4.35858
34 2 0.363056 0.180647 4.26852
35 2 4.44223 1.46815 6.37255
ITEM: TIMESTEP
16700
ITEM: NUMBER OF ATOMS
35
ITEM: BOX BOUNDS xy xz yz pp pp pp
0.0000000000000000e+00 7.6685730000000003e+00 2.5561910000000001e+00
0.0000000000000000e+00 4.4274529999999999e+00 0.0000000000000000e+00
0.0000000000000000e+00 3.3699264999999997e+01 0.0000000000000000e+00
ITEM: ATOMS id type x y z
1 1 1.56602 -0.0898005 20.506
2 1 1.2191 2.15609 24.2311
3 1 5.51938 1.23992 26.3072
4 1 4.03002 3.54869 27.1128
5 1 6.80324 3.30976 26.5875
6 1 4.90486 -0.457961 22.1427
7 1 2.38198 0.411404 25.6632
8 1 3.98439 1.49805 20.3115
9 1 7.30833 4.50886 24.5239
10 1 2.91475 1.40241 22.2396
11 1 3.55964 2.09672 24.3953
12 1 5.28936 2.47721 22.1073
13 1 3.79648 3.0159 18.3096
14 1 3.08734 0.480885 18.0886
15 1 4.36192 4.18629 23.259
16 2 3.79247 1.74878 16.0397
17 2 1.68287 0.162413 15.8346
18 2 6.72879 3.16737 19.9869
19 2 5.73492 1.29205 18.2693
20 2 1.27655 1.98918 14.17
21 2 6.82037 3.26925 16.5903
22 2 3.85095 3.37689 13.6976
23 2 4.0387 0.437784 13.8054
24 2 4.90225 1.72634 11.2168
25 2 3.00513 1.67716 8.9856
26 2 2.75326 3.23978 11.5123
27 2 2.29906 0.241227 11.3595
28 2 5.50406 3.45977 9.02298
29 2 0.211401 0.328206 8.80796
30 2 4.42616 4.25088 6.59772
31 2 1.97619 2.78023 6.92031
32 2 5.70079 3.52238 4.07971
33 2 2.59201 1.95381 4.61971
34 2 0.339153 0.128237 3.88013
35 2 4.65996 1.30789 6.33857
ITEM: TIMESTEP
16800
ITEM: NUMBER OF ATOMS
35
ITEM: BOX BOUNDS xy xz yz pp pp pp
0.0000000000000000e+00 7.6685730000000003e+00 2.5561910000000001e+00
0.0000000000000000e+00 4.4274529999999999e+00 0.0000000000000000e+00
0.0000000000000000e+00 3.3699264999999997e+01 0.0000000000000000e+00
ITEM: ATOMS id type x y z
1 1 2.02055 0.0204035 20.447
2 1 6.01263 2.4473 24.2437
3 1 4.97387 0.672786 27.1175
4 1 4.20237 3.05312 27.2674
5 1 1.74948 2.87671 26.4907
6 1 6.96047 3.8708 22.2448
7 1 2.62435 0.310665 25.8689
8 1 4.50115 1.3402 20.0774
9 1 4.75257 0.378567 24.7709
10 1 2.74621 1.61948 22.565
11 1 3.60377 2.63139 25.1776
12 1 5.47263 2.10363 21.7753
13 1 3.95201 3.38188 18.4606
14 1 3.06559 0.702923 18.2381
15 1 4.50421 3.88161 23.2845
16 2 4.455 1.73602 16.0752
17 2 1.76928 0.0684149 16.045
18 2 2.05223 3.09124 19.7513
19 2 5.8791 1.58321 18.1635
20 2 6.37931 2.18863 14.1453
21 2 6.9792 3.46697 16.6244
22 2 3.92177 3.01142 13.5931
23 2 3.7153 0.313144 13.6887
24 2 5.36096 1.77124 11.179
25 2 2.63716 1.88857 9.00629
26 2 2.04083 3.47826 11.3475
27 2 2.58623 0.698067 11.5215
28 2 4.74147 3.2844 9.21112
29 2 7.39803 4.45043 8.89351
30 2 4.42573 4.04843 6.63991
31 2 1.73308 2.85669 6.3894
32 2 5.37351 3.24984 4.24949
33 2 3.18635 1.83222 4.23057
34 2 0.504339 0.490619 3.8505
35 2 4.67896 1.15239 6.34164
ITEM: TIMESTEP
16900
ITEM: NUMBER OF ATOMS
35
ITEM: BOX BOUNDS xy xz yz pp pp pp
0.0000000000000000e+00 7.6685730000000003e+00 2.5561910000000001e+00
0.0000000000000000e+00 4.4274529999999999e+00 0.0000000000000000e+00
0.0000000000000000e+00 3.3699264999999997e+01 0.0000000000000000e+00
ITEM: ATOMS id type x y z
1 1 1.84129 0.117944 20.4209
2 1 6.35192 2.34552 24.5342
3 1 4.7823 -0.0379471 27.7545
4 1 4.34005 3.10195 27.9069
5 1 6.18772 2.13213 27.002
6 1 6.80867 4.40767 22.2234
7 1 2.66797 0.54563 26.2844
8 1 3.9074 1.43199 20.383
9 1 4.71722 0.232955 24.6466
10 1 3.29629 2.03316 22.8263
11 1 3.83006 2.80325 25.175
12 1 6.0285 1.95378 22.1189
13 1 4.63291 3.52696 18.2698
14 1 3.74184 0.838664 17.9734
15 1 4.10798 4.20185 23.1866
16 2 4.56163 1.9427 15.7685
17 2 2.12591 0.153413 15.916
18 2 2.27667 3.17043 19.9653
19 2 1.06102 1.33834 18.3394
20 2 1.57663 1.65319 13.9359
21 2 2.1803 3.23261 16.4709
22 2 3.7393 3.49114 13.3551
23 2 3.92454 0.11899 14.0425
24 2 4.95721 1.76691 11.6957
25 2 1.67931 1.44399 8.61879
26 2 2.261 3.49134 11.2019
27 2 2.50751 0.929389 11.2926
28 2 4.27889 3.10806 9.20815
29 2 4.44965 0.533563 8.96879
30 2 4.26988 4.35762 6.60593
31 2 2.24882 2.57272 6.03991
32 2 5.50257 3.41719 4.1392
33 2 3.11017 1.60209 3.65176
34 2 0.715036 0.543179 4.31043
35 2 4.15154 1.24506 6.48032
ITEM: TIMESTEP
17000
ITEM: NUMBER OF ATOMS
35
ITEM: BOX BOUNDS xy xz yz pp pp pp
0.0000000000000000e+00 7.6685730000000003e+00 2.5561910000000001e+00
0.0000000000000000e+00 4.4274529999999999e+00 0.0000000000000000e+00
0.0000000000000000e+00 3.3699264999999997e+01 0.0000000000000000e+00
ITEM: ATOMS id type x y z
1 1 2.34967 -0.126526 21.0733
2 1 1.47459 2.39315 24.9125
3 1 6.95605 3.86524 27.1438
4 1 3.97656 3.2248 28.0856
5 1 5.9733 1.42841 27.1417
6 1 6.76194 4.04451 22.8726
7 1 2.58268 0.557115 26.0964
8 1 4.2839 1.75614 20.3518
9 1 4.89702 0.515536 25.0732
10 1 3.53458 2.35607 23.0192
11 1 4.05016 2.79975 25.6514
12 1 6.0788 1.77188 21.666
13 1 4.80126 2.90865 18.1767
14 1 3.77963 0.664275 18.0823
15 1 1.98969 0.253922 23.8654
16 2 4.94676 2.02795 15.4393
17 2 2.0913 0.469815 16.1554
18 2 2.09669 3.59463 19.8964
19 2 1.36096 1.05379 18.5501
20 2 1.93855 1.89893 13.5479
21 2 2.53932 3.18706 16.6254
22 2 3.92529 3.57622 13.5835
23 2 6.54729 4.31801 13.9149
24 2 4.92222 1.94958 11.869
25 2 1.05264 1.87166 8.6416
26 2 2.229 3.39429 11.0728
27 2 2.13823 0.3974 11.0082
28 2 3.96884 3.07656 9.09853
29 2 3.64801 0.0906317 8.8701
30 2 4.78515 4.06785 6.61469
31 2 1.90895 3.0217 6.16509
32 2 5.56057 3.43249 4.01919
33 2 3.04366 1.77316 3.56303
34 2 0.501143 0.364446 4.20483
35 2 4.45158 1.40252 6.28723
ITEM: TIMESTEP
17100
ITEM: NUMBER OF ATOMS
35
ITEM: BOX BOUNDS xy xz yz pp pp pp
0.0000000000000000e+00 7.6685730000000003e+00 2.5561910000000001e+00
0.0000000000000000e+00 4.4274529999999999e+00 0.0000000000000000e+00
0.0000000000000000e+00 3.3699264999999997e+01 0.0000000000000000e+00
ITEM: ATOMS id type x y z
1 1 5.16946 3.61324 21.3583
2 1 6.42968 2.91657 24.55
3 1 6.84748 3.12956 27.1706
4 1 4.01676 3.46311 27.6535
5 1 5.06237 1.19923 27.5761
6 1 7.36243 4.29758 22.7101
7 1 2.70265 0.598124 26.3211
8 1 3.85468 1.97564 20.1907
9 1 5.44426 0.709753 25.1135
10 1 3.84919 2.34644 22.9079
11 1 3.89402 2.70644 25.5087
12 1 1.26096 1.477 21.8334
13 1 4.98864 3.11879 18.0469
14 1 4.16557 1.08601 17.7744
15 1 2.38742 0.362503 23.7447
16 2 5.2506 1.81586 15.562
17 2 2.34183 0.52537 16.1618
18 2 2.05688 3.62619 19.8147
19 2 1.55617 0.985957 19.2249
20 2 2.13686 1.96488 13.5003
21 2 2.46291 3.24255 16.7675
22 2 3.99343 3.79523 13.9395
23 2 4.07231 0.263777 13.7108
24 2 4.7532 1.56421 11.4189
25 2 6.0094 1.62969 8.86773
26 2 1.91577 3.31523 11.2549
27 2 2.08971 0.17908 11.1152
28 2 3.1916 2.8645 8.78566
29 2 3.53991 0.301727 8.64776
30 2 4.45242 4.47292 6.24467
31 2 2.28609 2.83066 6.52267
32 2 5.44854 3.34071 3.64032
33 2 2.96282 1.98526 4.21992
34 2 0.447156 0.273505 3.7824
35 2 4.75676 1.50791 6.20959
ITEM: TIMESTEP
17200
ITEM: NUMBER OF ATOMS
35
ITEM: BOX BOUNDS xy xz yz pp pp pp
0.0000000000000000e+00 7.6685730000000003e+00 2.5561910000000001e+00
0.0000000000000000e+00 4.4274529999999999e+00 0.0000000000000000e+00
0.0000000000000000e+00 3.3699264999999997e+01 0.0000000000000000e+00
ITEM: ATOMS id type x y z
1 1 4.97443 3.94195 21.2916
2 1 6.371 2.80105 24.1984
3 1 6.45202 2.57199 26.7353
4 1 4.12814 3.65235 27.3593
5 1 4.62661 0.823473 27.6534
6 1 5.26676 -0.268871 22.1871
7 1 2.77053 0.886654 26.0235
8 1 4.08628 1.63223 20.581
9 1 5.46605 0.587682 25.3496
10 1 4.05212 2.07633 22.7024
11 1 3.74719 2.76876 24.8099
12 1 1.86489 2.11301 21.8372
13 1 5.35546 3.48917 18.383
14 1 4.43611 1.38476 18.2424
15 1 2.50291 0.512397 23.9136
16 2 5.09169 2.08113 15.8987
17 2 2.7629 0.425702 16.2334
18 2 7.47835 3.67183 19.8296
19 2 1.63684 0.946684 19.3266
20 2 1.61299 1.98078 13.8366
21 2 2.61141 3.2598 16.7466
22 2 4.32799 3.41842 13.7018
23 2 4.34808 0.420519 13.7694
24 2 4.24926 1.70711 11.3143
25 2 5.77938 1.21616 8.99635
26 2 1.90917 3.1443 11.2315
27 2 1.97709 0.156888 11.2349
28 2 3.41118 3.12497 9.0741
29 2 3.22303 0.134775 8.42683
30 2 1.9501 -0.0114481 5.83438
31 2 1.88318 3.12533 6.62091
32 2 5.62959 3.16284 3.90498
33 2 2.92635 1.86701 4.04536
34 2 0.261451 0.36964 3.57148
35 2 4.78168 1.71473 6.21198
ITEM: TIMESTEP
17300
ITEM: NUMBER OF ATOMS
35
ITEM: BOX BOUNDS xy xz yz pp pp pp
0.0000000000000000e+00 7.6685730000000003e+00 2.5561910000000001e+00
0.0000000000000000e+00 4.4274529999999999e+00 0.0000000000000000e+00
0.0000000000000000e+00 3.3699264999999997e+01 0.0000000000000000e+00
ITEM: ATOMS id type x y z
1 1 5.53889 4.27021 20.9133
2 1 6.73616 2.80428 24.1702
3 1 5.80108 2.68059 26.3522
4 1 3.56102 3.28095 27.014
5 1 4.89911 0.693217 27.5519
6 1 2.73311 4.24867 22.6842
7 1 2.82499 0.863661 26.0772
8 1 4.73629 1.42812 20.6321
9 1 4.84821 0.596871 24.9321
10 1 4.61145 2.27909 22.9562
11 1 3.82957 3.03746 24.7931
12 1 1.68113 2.12645 21.5415
13 1 5.29785 3.28017 18.9239
14 1 3.96015 0.525004 18.3357
15 1 2.6477 0.423754 23.6353
16 2 5.32567 2.15145 16.5058
17 2 2.7804 0.535128 16.0394
18 2 3.13049 3.39159 19.7468
19 2 1.61735 1.45372 18.7222
20 2 1.79959 1.75715 13.9615
21 2 2.89045 3.60158 16.8124
22 2 4.44742 3.10977 13.6526
23 2 4.28846 0.240628 13.8317
24 2 4.05468 1.72712 11.4033
25 2 5.79295 1.47972 8.67656
26 2 1.49644 3.28485 11.36
27 2 1.53701 0.455504 11.4921
28 2 3.47082 2.63074 8.84206
29 2 2.98859 0.111721 8.62626
30 2 4.26645 4.63413 5.99763
31 2 7.18814 3.40034 6.52502
32 2 5.76543 2.91397 4.08747
33 2 3.09224 1.81653 3.53938
34 2 5.27939 0.237876 3.82824
35 2 4.25127 1.71377 6.4243
ITEM: TIMESTEP
17400
ITEM: NUMBER OF ATOMS
35
ITEM: BOX BOUNDS xy xz yz pp pp pp
0.0000000000000000e+00 7.6685730000000003e+00 2.5561910000000001e+00
0.0000000000000000e+00 4.4274529999999999e+00 0.0000000000000000e+00
0.0000000000000000e+00 3.3699264999999997e+01 0.0000000000000000e+00
ITEM: ATOMS id type x y z
1 1 5.81695 4.20282 20.9349
2 1 1.56071 2.47117 24.1064
3 1 5.96439 3.2382 26.5734
4 1 2.87217 2.6045 27.4318
5 1 4.57897 0.905737 26.8439
6 1 2.61102 4.19678 22.386
7 1 1.93273 0.818795 26.263
8 1 5.26615 1.51065 20.3803
9 1 5.25522 0.937581 24.7416
10 1 4.60241 2.68799 22.152
11 1 4.04816 3.35084 25.143
12 1 2.24898 1.70141 21.528
13 1 5.34784 3.38734 18.3118
14 1 4.38437 0.946649 18.4321
15 1 2.99926 0.524826 23.5022
16 2 5.57464 2.16553 16.0644
17 2 2.9035 0.643075 16.2076
18 2 3.23699 3.41311 19.9131
19 2 2.04623 1.23645 18.5443
20 2 1.94002 1.68854 13.7371
21 2 3.1184 3.55229 16.5459
22 2 4.19329 3.07979 14.2129
23 2 4.49123 -0.00658844 14.0012
24 2 3.91584 1.76499 11.2968
25 2 5.72801 1.42372 8.54498
26 2 6.18983 3.34909 11.4008
27 2 1.18718 0.45693 11.345
28 2 2.80818 2.94009 9.00339
29 2 3.39612 -0.170516 9.05228
30 2 1.76978 0.794612 6.2634
31 2 1.84073 3.36494 6.31225
32 2 5.42653 2.97106 4.29143
33 2 3.11502 1.65468 3.74078
34 2 0.417078 -0.122302 4.0197
35 2 4.18179 1.68786 6.20339
ITEM: TIMESTEP
17500
ITEM: NUMBER OF ATOMS
35
ITEM: BOX BOUNDS xy xz yz pp pp pp
0.0000000000000000e+00 7.6685730000000003e+00 2.5561910000000001e+00
0.0000000000000000e+00 4.4274529999999999e+00 0.0000000000000000e+00
0.0000000000000000e+00 3.3699264999999997e+01 0.0000000000000000e+00
ITEM: ATOMS id type x y z
1 1 6.22587 4.32303 20.4082
2 1 1.72551 2.90493 24.0447
3 1 5.79888 3.26514 26.2479
4 1 2.92316 3.01078 27.4768
5 1 4.38098 1.30316 26.7434
6 1 0.416168 0.195001 21.9121
7 1 1.56235 0.886341 26.2837
8 1 5.10688 1.68988 20.3397
9 1 5.11841 0.889369 24.5462
10 1 4.50872 2.62832 22.834
11 1 3.7819 2.79073 25.0814
12 1 2.217 1.70681 21.776
13 1 5.99923 3.336 17.9958
14 1 5.19358 0.946912 17.8384
15 1 2.56168 0.320023 24.0768
16 2 6.12003 1.84051 15.7054
17 2 3.25444 0.72485 16.1379
18 2 3.42825 3.44921 19.7056
19 2 2.38066 1.2299 18.9911
20 2 1.87976 1.32468 13.293
21 2 3.07586 3.30445 16.775
22 2 4.25577 3.25123 13.7664
23 2 4.47035 0.17448 13.9083
24 2 3.56473 1.9213 11.4706
25 2 5.28703 1.4022 8.89267
26 2 6.00521 3.2041 11.7697
27 2 0.999856 0.167588 11.0048
28 2 3.27371 2.93483 8.87416
29 2 5.35058 4.55501 9.00069
30 2 1.77841 0.43005 6.64739
31 2 6.71199 3.73256 6.60547
32 2 5.49858 3.08122 3.95485
33 2 2.75601 1.18623 4.16954
34 2 2.96807 4.30256 4.06973
35 2 4.43965 2.12545 6.35375
ITEM: TIMESTEP
17600
ITEM: NUMBER OF ATOMS
35
ITEM: BOX BOUNDS xy xz yz pp pp pp
0.0000000000000000e+00 7.6685730000000003e+00 2.5561910000000001e+00
0.0000000000000000e+00 4.4274529999999999e+00 0.0000000000000000e+00
0.0000000000000000e+00 3.3699264999999997e+01 0.0000000000000000e+00
ITEM: ATOMS id type x y z
1 1 6.06137 3.83202 21.2533
2 1 6.48066 2.86899 23.4936
3 1 5.77205 3.24962 26.0756
4 1 2.80644 3.82393 27.2977
5 1 3.98932 1.36367 27.0694
6 1 3.46531 4.34363 22.194
7 1 1.85638 1.10683 26.8799
8 1 5.46075 1.67071 20.53
9 1 4.92541 0.556602 24.2942
10 1 4.55453 2.28437 22.6299
11 1 3.31563 2.7131 25.0795
12 1 2.51196 1.89938 21.231
13 1 6.13492 3.42221 18.4295
14 1 4.77143 1.20237 18.0766
15 1 2.65898 0.574663 24.11
16 2 1.00852 1.90809 15.7276
17 2 3.45514 0.344882 16.0653
18 2 3.74198 3.72979 19.4788
19 2 2.46337 1.43019 18.6718
20 2 1.85311 1.35095 13.3158
21 2 3.79928 3.24218 16.8351
22 2 4.17968 2.84443 14.0648
23 2 4.49999 0.099293 13.6144
24 2 3.68255 1.66184 11.2019
25 2 5.50891 1.79438 9.00354
26 2 6.00964 3.26302 11.235
27 2 0.59855 0.00913377 11.2067
28 2 2.65718 2.87086 8.73661
29 2 2.93458 0.131416 9.12735
30 2 1.41688 0.756003 6.66146
31 2 6.73449 3.62434 6.53786
32 2 5.66113 2.5482 3.85762
33 2 2.78632 1.45979 4.64118
34 2 2.64554 4.40104 4.36852
35 2 4.34232 2.34389 6.37969
ITEM: TIMESTEP
17700
ITEM: NUMBER OF ATOMS
35
ITEM: BOX BOUNDS xy xz yz pp pp pp
0.0000000000000000e+00 7.6685730000000003e+00 2.5561910000000001e+00
0.0000000000000000e+00 4.4274529999999999e+00 0.0000000000000000e+00
0.0000000000000000e+00 3.3699264999999997e+01 0.0000000000000000e+00
ITEM: ATOMS id type x y z
1 1 6.18157 4.03572 21.3457
2 1 6.73553 2.69962 23.2755
3 1 5.69866 3.60771 25.5718
4 1 2.71859 3.6901 26.988
5 1 4.32243 1.7897 26.9433
6 1 3.50987 4.31179 22.2083
7 1 1.51433 1.53479 26.7233
8 1 4.8812 1.5648 20.4019
9 1 5.18885 0.631225 25.2447
10 1 4.33414 1.6855 22.8905
11 1 3.55735 2.8189 24.8089
12 1 2.49153 1.82889 20.7964
13 1 6.23555 3.81871 18.9832
14 1 5.22267 1.09664 18.0944
15 1 2.52043 0.430188 24.1178
16 2 1.34153 1.88341 16.0047
17 2 3.76183 0.23153 16.0002
18 2 3.78081 3.60985 19.7279
19 2 2.60262 1.58834 18.1917
20 2 1.87453 1.44292 13.2823
21 2 3.83813 3.63158 16.8667
22 2 4.13302 2.60642 14.2521
23 2 4.47143 -0.393704 13.5941
24 2 3.45306 1.50731 11.1459
25 2 5.20345 1.568 8.96938
26 2 5.75338 2.9547 11.4893
27 2 1.04011 -0.0961 11.3257
28 2 2.88829 3.29768 9.05828
29 2 2.92488 0.162436 8.61275
30 2 1.37516 0.951461 6.69819
31 2 6.33776 3.90608 6.36179
32 2 5.26144 2.7081 4.13699
33 2 2.92153 1.30563 4.22185
34 2 2.97272 4.2277 4.13966
35 2 3.92144 2.49836 6.73965
ITEM: TIMESTEP
17800
ITEM: NUMBER OF ATOMS
35
ITEM: BOX BOUNDS xy xz yz pp pp pp
0.0000000000000000e+00 7.6685730000000003e+00 2.5561910000000001e+00
0.0000000000000000e+00 4.4274529999999999e+00 0.0000000000000000e+00
0.0000000000000000e+00 3.3699264999999997e+01 0.0000000000000000e+00
ITEM: ATOMS id type x y z
1 1 5.65307 4.04513 21.3922
2 1 6.38269 2.97581 23.445
3 1 6.00901 3.50909 25.6482
4 1 3.02583 4.17896 27.3245
5 1 4.30049 1.78588 27.2822
6 1 3.32046 3.69312 22.5019
7 1 2.31577 1.07619 25.9863
8 1 4.35941 1.22777 20.4949
9 1 5.2801 0.953464 24.7781
10 1 4.20731 1.71364 22.7059
11 1 3.69982 2.99205 24.947
12 1 1.97874 1.6347 20.9705
13 1 6.37232 3.54943 18.5762
14 1 5.47478 1.59036 18.3976
15 1 2.55558 0.632604 23.6938
16 2 1.58313 2.04527 15.8587
17 2 4.05372 0.617873 16.0884
18 2 3.82179 3.86564 19.7117
19 2 2.79877 1.52544 18.4927
20 2 2.03831 0.614499 13.857
21 2 3.74682 3.70241 16.8234
22 2 4.59533 2.68341 14.12
23 2 7.18354 4.05124 13.6751
24 2 3.34529 1.13997 11.372
25 2 5.15826 1.7832 9.11217
26 2 5.84279 2.68026 11.4991
27 2 3.36738 4.25317 11.4203
28 2 2.71252 3.35585 9.16496
29 2 2.5557 0.226872 8.88048
30 2 1.20321 1.02862 6.02796
31 2 6.57317 4.31019 6.18541
32 2 5.35543 2.72409 4.49064
33 2 2.78262 1.1874 3.73898
34 2 2.96822 4.10048 3.85397
35 2 3.34578 2.54584 6.53371
ITEM: TIMESTEP
17900
ITEM: NUMBER OF ATOMS
35
ITEM: BOX BOUNDS xy xz yz pp pp pp
0.0000000000000000e+00 7.6685730000000003e+00 2.5561910000000001e+00
0.0000000000000000e+00 4.4274529999999999e+00 0.0000000000000000e+00
0.0000000000000000e+00 3.3699264999999997e+01 0.0000000000000000e+00
ITEM: ATOMS id type x y z
1 1 5.3034 3.50334 21.195
2 1 6.42421 2.63835 23.9734
3 1 6.65549 3.03143 26.407
4 1 1.26643 0.0908606 27.1942
5 1 4.50319 2.15101 27.0393
6 1 2.78954 4.20794 22.523
7 1 2.70259 1.11723 25.6812
8 1 4.74949 0.873449 20.7707
9 1 4.84411 0.810675 24.9659
10 1 4.4678 1.87731 22.8026
11 1 3.55944 3.22872 24.991
12 1 2.17886 2.09608 21.4802
13 1 6.72714 3.7745 18.4143
14 1 5.13702 1.68628 18.2599
15 1 2.2721 0.630996 23.4103
16 2 6.61322 2.6825 16.2499
17 2 4.01907 0.987446 16.2161
18 2 3.71434 3.8025 19.49
19 2 2.52538 1.55877 18.6719
20 2 2.30318 0.663402 14.0685
21 2 4.22857 3.75019 16.5895
22 2 4.96296 1.86266 13.8989
23 2 2.34383 3.68866 14.0034
24 2 3.55 1.21758 11.4847
25 2 4.8493 1.97075 8.68434
26 2 6.09274 2.42507 11.5744
27 2 3.31751 3.98292 11.3988
28 2 2.02503 3.12103 8.91836
29 2 2.1934 0.402834 9.04873
30 2 1.44178 0.830213 6.21516
31 2 3.69446 0.0323368 6.55932
32 2 5.38531 2.6864 4.18888
33 2 2.8622 1.26702 3.56465
34 2 2.38366 4.05259 3.5334
35 2 3.54766 2.82314 6.20918
ITEM: TIMESTEP
18000
ITEM: NUMBER OF ATOMS
35
ITEM: BOX BOUNDS xy xz yz pp pp pp
0.0000000000000000e+00 7.6685730000000003e+00 2.5561910000000001e+00
0.0000000000000000e+00 4.4274529999999999e+00 0.0000000000000000e+00
0.0000000000000000e+00 3.3699264999999997e+01 0.0000000000000000e+00
ITEM: ATOMS id type x y z
1 1 6.00161 3.62688 21.1695
2 1 6.38892 2.85946 24.9287
3 1 2.02543 3.25286 27.1799
4 1 1.17817 0.42185 27.1959
5 1 4.48571 2.07587 27.0465
6 1 2.37319 3.96745 22.6673
7 1 2.84606 1.0542 25.6097
8 1 4.95972 1.32807 20.9397
9 1 5.0654 0.790763 24.8045
10 1 4.36507 2.25575 22.8274
11 1 4.22716 3.46614 25.3462
12 1 2.39306 1.65402 21.153
13 1 6.33473 3.96912 18.9501
14 1 5.07888 1.78577 18.2037
15 1 2.73774 0.304367 23.2203
16 2 1.52767 2.61993 16.3358
17 2 3.91838 1.29454 16.3391
18 2 3.63334 3.66952 19.3914
19 2 2.22524 1.64349 18.6755
20 2 2.54031 0.329975 13.9587
21 2 4.05026 4.13066 16.6311
22 2 5.04892 1.7143 13.6766
23 2 2.78369 3.07362 13.754
24 2 3.58319 0.965423 11.3252
25 2 4.10194 1.73809 8.47067
26 2 6.26875 2.59006 11.254
27 2 3.8483 3.87652 11.4423
28 2 2.12034 3.35615 8.94116
29 2 1.83598 0.33679 8.99716
30 2 1.10339 1.50218 6.45104
31 2 6.18733 3.92277 6.43286
32 2 5.16196 2.7774 3.93078
33 2 2.62563 1.26614 3.96679
34 2 2.64387 4.20945 3.78928
35 2 3.5892 2.83413 6.05515
ITEM: TIMESTEP
18100
ITEM: NUMBER OF ATOMS
35
ITEM: BOX BOUNDS xy xz yz pp pp pp
0.0000000000000000e+00 7.6685730000000003e+00 2.5561910000000001e+00
0.0000000000000000e+00 4.4274529999999999e+00 0.0000000000000000e+00
0.0000000000000000e+00 3.3699264999999997e+01 0.0000000000000000e+00
ITEM: ATOMS id type x y z
1 1 5.94739 3.67838 20.6882
2 1 6.7398 3.37902 24.7942
3 1 1.81135 3.27637 27.3515
4 1 1.85652 0.706245 27.5056
5 1 4.35956 1.99378 27.455
6 1 2.97616 3.99269 22.82
7 1 2.97295 1.23465 25.6769
8 1 4.98173 1.24686 20.9909
9 1 5.63509 1.21216 25.1285
10 1 4.80868 2.3282 23.0401
11 1 4.06365 3.40692 25.3806
12 1 2.60388 1.58081 21.5451
13 1 6.12231 3.99729 17.9848
14 1 4.98093 1.92592 18.5494
15 1 2.6527 0.280808 23.6164
16 2 1.27019 2.7491 16.0254
17 2 3.75607 1.25606 15.7369
18 2 3.59741 3.71456 19.8224
19 2 2.38039 1.58687 18.6445
20 2 2.83926 -0.398013 13.8466
21 2 3.47173 4.32043 16.703
22 2 5.54912 1.38549 13.7582
23 2 2.61729 3.05948 13.6911
24 2 3.93353 0.874551 11.0864
25 2 4.24108 1.84124 8.69916
26 2 6.20283 2.26692 11.1651
27 2 3.92675 3.80825 11.3704
28 2 1.86903 3.51017 8.80345
29 2 1.8683 0.181889 8.75376
30 2 0.740213 1.25657 6.68251
31 2 5.93976 4.36034 6.02956
32 2 5.20418 2.77501 3.62957
33 2 2.32961 1.39619 4.39995
34 2 2.74288 4.48382 4.25545
35 2 3.59751 2.92087 6.26393
ITEM: TIMESTEP
18200
ITEM: NUMBER OF ATOMS
35
ITEM: BOX BOUNDS xy xz yz pp pp pp
0.0000000000000000e+00 7.6685730000000003e+00 2.5561910000000001e+00
0.0000000000000000e+00 4.4274529999999999e+00 0.0000000000000000e+00
0.0000000000000000e+00 3.3699264999999997e+01 0.0000000000000000e+00
ITEM: ATOMS id type x y z
1 1 6.12456 3.83902 20.68
2 1 7.20617 3.74988 24.595
3 1 6.81729 3.58655 26.8868
4 1 2.26001 0.101899 27.7434
5 1 4.31264 2.23868 27.7349
6 1 3.13731 3.95587 22.5845
7 1 3.43824 1.26824 25.489
8 1 4.93545 1.65261 20.6455
9 1 5.96543 1.52326 26.153
10 1 5.42324 2.33282 23.7436
11 1 4.30766 3.75529 25.6028
12 1 2.04733 1.90324 21.4147
13 1 6.39475 4.13483 18.2834
14 1 4.64769 1.95484 17.9389
15 1 2.66818 0.638997 23.1299
16 2 5.98313 2.43106 15.8173
17 2 3.47154 1.34041 15.5884
18 2 3.70951 3.82909 20.0693
19 2 2.25525 1.84574 18.8458
20 2 5.24183 3.87362 13.5235
21 2 3.44546 4.08998 16.6849
22 2 5.70007 0.836489 13.5982
23 2 2.89087 2.60729 13.4588
24 2 3.89798 0.551755 11.5913
25 2 4.44135 2.07343 9.09226
26 2 6.65533 1.98593 11.1417
27 2 3.73707 3.5393 11.0619
28 2 6.86602 3.18139 8.45123
29 2 2.12512 0.564627 8.92455
30 2 5.80745 1.35692 6.51566
31 2 5.76961 4.23706 6.3735
32 2 4.95598 3.0411 3.84158
33 2 2.45794 2.08951 4.07599
34 2 -0.193378 0.228431 4.11684
35 2 3.47241 2.80527 6.56053
ITEM: TIMESTEP
18300
ITEM: NUMBER OF ATOMS
35
ITEM: BOX BOUNDS xy xz yz pp pp pp
0.0000000000000000e+00 7.6685730000000003e+00 2.5561910000000001e+00
0.0000000000000000e+00 4.4274529999999999e+00 0.0000000000000000e+00
0.0000000000000000e+00 3.3699264999999997e+01 0.0000000000000000e+00
ITEM: ATOMS id type x y z
1 1 6.19674 4.55477 21.1985
2 1 7.58922 3.92328 24.5321
3 1 7.37131 4.06683 26.8966
4 1 2.6333 0.118625 28.0378
5 1 3.79015 2.13071 27.5009
6 1 3.61437 3.74755 22.0569
7 1 3.59101 1.8789 25.3121
8 1 4.59702 1.9987 20.4412
9 1 1.11391 1.59588 26.6299
10 1 5.81687 1.90109 24.0521
11 1 4.99911 3.99155 25.417
12 1 1.70749 2.01801 21.5137
13 1 6.11371 4.28139 18.2569
14 1 4.63373 2.18032 18.0216
15 1 3.21648 0.453507 23.4489
16 2 5.95967 2.40264 16.0779
17 2 3.15423 0.879449 16.1598
18 2 3.61003 4.29989 19.4937
19 2 1.99468 1.89733 18.6077
20 2 5.36097 3.28473 13.7101
21 2 3.63521 3.83009 16.3703
22 2 0.2172 0.74304 13.8043
23 2 2.95024 2.00218 13.5616
24 2 3.91819 0.208985 11.2606
25 2 4.82539 1.52803 9.02059
26 2 1.42077 1.84586 11.204
27 2 3.91319 3.60172 10.9223
28 2 7.14963 3.68709 8.97499
29 2 2.14032 0.551608 8.66515
30 2 5.95125 1.35969 6.18461
31 2 5.7927 4.3752 6.43997
32 2 4.55638 3.85303 4.2812
33 2 2.26267 1.96334 3.93112
34 2 4.62328 0.801749 3.99637
35 2 3.29552 2.61837 6.42425
ITEM: TIMESTEP
18400
ITEM: NUMBER OF ATOMS
35
ITEM: BOX BOUNDS xy xz yz pp pp pp
0.0000000000000000e+00 7.6685730000000003e+00 2.5561910000000001e+00
0.0000000000000000e+00 4.4274529999999999e+00 0.0000000000000000e+00
0.0000000000000000e+00 3.3699264999999997e+01 0.0000000000000000e+00
ITEM: ATOMS id type x y z
1 1 3.61251 -0.0988651 21.0558
2 1 2.6951 4.07455 24.4837
3 1 7.85296 4.65231 26.9125
4 1 2.77027 -0.397972 28.0445
5 1 3.61028 2.26322 27.5105
6 1 3.72979 4.2377 22.4665
7 1 4.01237 1.99913 25.1094
8 1 4.66351 2.12394 20.545
9 1 1.4469 2.15968 26.3812
10 1 6.55704 1.75881 23.9881
11 1 5.50485 4.21625 25.5546
12 1 2.10626 1.98109 21.5436
13 1 5.51414 4.28581 18.7837
14 1 4.67955 2.02981 18.1487
15 1 3.37294 0.499688 23.2192
16 2 6.19635 2.21657 16.0518
17 2 3.27147 0.436458 16.3369
18 2 3.18782 4.39785 18.9616
19 2 2.08705 2.17448 18.5307
20 2 5.31836 3.49931 13.7778
21 2 3.11915 3.78031 16.5029
22 2 5.36463 -0.137366 13.9332
23 2 2.68282 1.69528 13.907
24 2 3.95696 0.38801 11.2014
25 2 4.97064 2.34531 8.56593
26 2 1.03366 1.69077 11.4749
27 2 4.19174 3.32154 11.2546
28 2 7.45669 3.06072 8.82419
29 2 2.07624 0.243428 8.51854
30 2 0.819101 1.45645 6.37687
31 2 6.50172 4.20513 6.36317
32 2 4.2427 3.99264 4.24094
33 2 1.55614 2.64864 3.84137
34 2 4.3108 1.05662 3.92448
35 2 3.39975 2.78021 6.35086
ITEM: TIMESTEP
18500
ITEM: NUMBER OF ATOMS
35
ITEM: BOX BOUNDS xy xz yz pp pp pp
0.0000000000000000e+00 7.6685730000000003e+00 2.5561910000000001e+00
0.0000000000000000e+00 4.4274529999999999e+00 0.0000000000000000e+00
0.0000000000000000e+00 3.3699264999999997e+01 0.0000000000000000e+00
ITEM: ATOMS id type x y z
1 1 6.19803 3.97218 20.9679
2 1 3.00772 4.0032 24.8963
3 1 0.517828 0.480904 27.2209
4 1 5.45159 3.90437 27.4467
5 1 3.89233 2.01505 27.3501
6 1 3.40396 4.554 22.0631
7 1 4.8602 2.11978 25.038
8 1 4.81064 2.3388 20.7724
9 1 1.78838 2.63192 26.3662
10 1 1.67313 2.38608 23.5615
11 1 4.96396 4.70128 25.3581
12 1 2.52299 1.92792 21.2107
13 1 5.39965 3.88563 18.7851
14 1 4.36561 1.85886 18.1555
15 1 3.87074 0.722575 23.1697
16 2 5.83606 1.61329 15.8391
17 2 3.42125 0.257161 16.3697
18 2 2.89969 4.69333 19.4553
19 2 2.07102 2.08727 18.7253
20 2 5.22773 3.09678 13.7375
21 2 3.42611 3.59954 16.5564
22 2 2.54758 4.49278 13.5694
23 2 2.82888 1.51987 13.9462
24 2 3.69397 0.389189 11.0265
25 2 4.96585 1.82655 8.90512
26 2 1.56844 1.69786 11.6184
27 2 3.64642 3.12315 11.5091
28 2 2.44486 3.25245 9.09146
29 2 2.15772 0.486935 8.6849
30 2 6.51216 1.4722 6.00543
31 2 6.19395 4.29787 6.33034
32 2 3.88597 4.27217 4.05806
33 2 6.41811 3.06983 3.86243
34 2 3.85094 1.45401 3.85494
35 2 3.90717 2.52458 6.27975
ITEM: TIMESTEP
18600
ITEM: NUMBER OF ATOMS
35
ITEM: BOX BOUNDS xy xz yz pp pp pp
0.0000000000000000e+00 7.6685730000000003e+00 2.5561910000000001e+00
0.0000000000000000e+00 4.4274529999999999e+00 0.0000000000000000e+00
0.0000000000000000e+00 3.3699264999999997e+01 0.0000000000000000e+00
ITEM: ATOMS id type x y z
1 1 6.12193 4.13984 21.5734
2 1 3.21684 4.09181 24.5051
3 1 0.774148 0.262324 27.2578
4 1 5.64679 4.19235 27.2305
5 1 4.13138 1.9736 27.0558
6 1 1.17143 -0.00735388 22.4718
7 1 5.10316 2.56111 25.1525
8 1 4.76137 2.26232 20.9658
9 1 1.93851 2.83822 26.3189
10 1 1.409 2.62614 23.4105
11 1 2.73799 1.02799 24.9687
12 1 2.18466 1.80117 20.8487
13 1 5.14773 3.92947 18.6301
14 1 4.54856 1.57605 18.1296
15 1 4.21946 1.43496 23.183
16 2 5.86596 1.631 16.0777
17 2 3.55621 -0.129332 16.3507
18 2 0.375812 -0.292527 19.8047
19 2 1.96307 2.10281 18.4085
20 2 5.15779 3.05652 13.6701
21 2 3.50118 3.14391 16.2767
22 2 5.05364 0.140064 13.4564
23 2 2.74688 1.66103 14.2721
24 2 3.56817 0.0265446 11.3036
25 2 5.10368 1.81139 9.09259
26 2 1.05746 1.70255 11.4254
27 2 3.79488 3.29161 11.3055
28 2 2.36897 3.39255 8.80809
29 2 2.41626 0.0838835 8.75797
30 2 1.63973 1.42431 6.23345
31 2 6.57725 4.16086 6.51476
32 2 0.739158 0.240349 3.70157
33 2 6.24284 3.00449 3.90876
34 2 3.56581 1.78752 3.79107
35 2 4.01432 2.98067 6.49753
ITEM: TIMESTEP
18700
ITEM: NUMBER OF ATOMS
35
ITEM: BOX BOUNDS xy xz yz pp pp pp
0.0000000000000000e+00 7.6685730000000003e+00 2.5561910000000001e+00
0.0000000000000000e+00 4.4274529999999999e+00 0.0000000000000000e+00
0.0000000000000000e+00 3.3699264999999997e+01 0.0000000000000000e+00
ITEM: ATOMS id type x y z
1 1 6.1116 4.19081 21.2042
2 1 2.66429 4.57316 24.5254
3 1 0.812989 0.70073 27.0999
4 1 5.67341 4.59322 27.2877
5 1 4.41734 2.34438 27.5707
6 1 4.01708 4.23593 22.5627
7 1 5.13289 3.07898 25.1373
8 1 4.65669 2.01988 20.2551
9 1 2.14721 2.34295 26.4385
10 1 7.08513 2.70365 23.2133
11 1 3.14555 1.00287 24.6584
12 1 1.86476 1.36951 20.9813
13 1 5.10291 3.99307 18.8676
14 1 4.38421 0.81868 18.1664
15 1 4.38438 1.98056 22.6344
16 2 5.89559 1.21178 16.0839
17 2 6.16511 4.22223 16.2394
18 2 3.05456 3.70436 20.0072
19 2 1.9257 2.16225 18.2407
20 2 5.15479 3.32722 13.9024
21 2 3.68999 3.04464 16.4931
22 2 0.278857 -0.0398341 13.8752
23 2 2.37566 1.72784 13.8016
24 2 3.55063 0.235269 11.5474
25 2 5.0268 1.86998 8.68719
26 2 1.05009 1.62119 11.409
27 2 3.48594 3.01768 11.035
28 2 2.56784 2.80144 8.63701
29 2 2.46964 0.349023 8.92937
30 2 1.51116 1.41912 6.58269
31 2 7.04143 4.62161 6.07471
32 2 0.58543 0.373633 3.78356
33 2 5.64292 3.23832 4.22051
34 2 3.23594 1.85375 4.24292
35 2 4.31339 3.02881 6.25049
ITEM: TIMESTEP
18800
ITEM: NUMBER OF ATOMS
35
ITEM: BOX BOUNDS xy xz yz pp pp pp
0.0000000000000000e+00 7.6685730000000003e+00 2.5561910000000001e+00
0.0000000000000000e+00 4.4274529999999999e+00 0.0000000000000000e+00
0.0000000000000000e+00 3.3699264999999997e+01 0.0000000000000000e+00
ITEM: ATOMS id type x y z
1 1 5.68043 3.80484 21.2785
2 1 5.41913 0.478996 25.0252
3 1 0.670469 0.477777 27.0614
4 1 3.50419 0.313427 26.52
5 1 4.45988 3.18658 27.4666
6 1 4.26311 4.38005 22.8479
7 1 4.94781 2.93394 24.9675
8 1 4.75441 1.81131 20.1602
9 1 2.26763 2.77471 26.2994
10 1 2.06708 2.98246 22.9136
11 1 2.53521 1.25167 24.5981
12 1 2.21519 1.46355 20.9123
13 1 5.34655 3.94335 18.5442
14 1 4.82067 0.426691 18.2066
15 1 4.72671 1.46351 22.4732
16 2 1.23231 1.20236 16.0526
17 2 5.97791 4.40234 15.9207
18 2 3.23687 3.71233 20.2744
19 2 1.83072 1.94586 18.5597
20 2 5.04369 2.9481 13.736
21 2 3.79737 2.52492 16.8977
22 2 2.50932 4.52496 13.6977
23 2 2.68958 1.80608 13.588
24 2 3.8469 0.134097 11.4156
25 2 4.87943 1.32015 8.77983
26 2 0.949007 1.55359 11.1699
27 2 3.45176 2.99888 11.2432
28 2 2.29154 3.48005 8.55599
29 2 2.50718 0.0325979 9.14119
30 2 1.91695 1.53224 6.62315
31 2 4.14228 0.285661 6.21219
32 2 0.590726 0.436306 3.95667
33 2 5.46542 3.50798 3.82954
34 2 2.59566 2.0588 4.12111
35 2 4.5364 3.17254 6.7346
ITEM: TIMESTEP
18900
ITEM: NUMBER OF ATOMS
35
ITEM: BOX BOUNDS xy xz yz pp pp pp
0.0000000000000000e+00 7.6685730000000003e+00 2.5561910000000001e+00
0.0000000000000000e+00 4.4274529999999999e+00 0.0000000000000000e+00
0.0000000000000000e+00 3.3699264999999997e+01 0.0000000000000000e+00
ITEM: ATOMS id type x y z
1 1 6.14985 3.04393 20.8513
2 1 0.071698 0.438932 24.9408
3 1 1.39995 1.33629 27.6775
4 1 3.26124 0.723073 26.5151
5 1 4.81197 2.76715 26.886
6 1 4.33568 3.74224 22.5887
7 1 4.75695 2.87331 24.6321
8 1 4.28635 1.21462 19.4047
9 1 2.33852 3.10365 26.4516
10 1 1.58785 3.61402 23.153
11 1 2.413 1.77238 24.0651
12 1 2.64766 1.40479 21.5731
13 1 5.1053 3.93803 18.4084
14 1 5.56839 -0.152932 17.893
15 1 4.76909 1.49672 22.5239
16 2 1.2819 1.57158 16.1013
17 2 6.37951 3.98674 15.9468
18 2 3.30127 4.00382 20.4738
19 2 1.81383 1.93267 18.7704
20 2 5.1862 2.80048 13.5103
21 2 3.9821 2.2662 16.8771
22 2 5.17731 0.124277 13.7289
23 2 2.47157 1.59052 13.8254
24 2 6.2011 4.22089 11.3672
25 2 4.57536 1.8308 8.81334
26 2 1.18349 1.64883 11.0616
27 2 3.81648 3.056 11.246
28 2 2.20233 2.98538 8.93173
29 2 4.63076 4.46398 9.15973
30 2 1.67218 1.50778 6.76737
31 2 4.22952 0.0134615 6.33147
32 2 0.21218 0.739142 4.17776
33 2 5.35557 3.72867 3.76677
34 2 2.96369 2.44972 3.76472
35 2 4.19407 3.21863 6.48855
ITEM: TIMESTEP
19000
ITEM: NUMBER OF ATOMS
35
ITEM: BOX BOUNDS xy xz yz pp pp pp
0.0000000000000000e+00 7.6685730000000003e+00 2.5561910000000001e+00
0.0000000000000000e+00 4.4274529999999999e+00 0.0000000000000000e+00
0.0000000000000000e+00 3.3699264999999997e+01 0.0000000000000000e+00
ITEM: ATOMS id type x y z
1 1 5.43432 3.11967 20.7584
2 1 5.87724 0.765515 25.0788
3 1 1.60774 1.18423 27.8197
4 1 3.49013 0.697595 26.1511
5 1 4.89502 2.92723 27.0441
6 1 3.55491 3.59921 22.9691
7 1 4.87846 2.99379 24.674
8 1 4.16488 1.38162 19.2686
9 1 2.26129 3.16111 26.326
10 1 6.39489 4.20409 23.2629
11 1 2.60163 1.71984 24.3351
12 1 2.74512 1.47698 21.3822
13 1 5.13448 3.87699 18.2172
14 1 2.87198 3.86696 17.9896
15 1 5.66581 1.27924 22.4246
16 2 1.63267 0.799298 16.3222
17 2 6.54402 3.94073 16.0144
18 2 3.39052 4.30141 20.188
19 2 1.67997 1.99566 18.8393
20 2 5.30785 3.13358 13.9484
21 2 3.98689 2.22947 16.2524
22 2 0.386889 -0.227752 13.8973
23 2 2.73442 1.42074 13.8064
24 2 6.29011 4.64136 11.3149
25 2 4.34457 1.61082 8.64919
26 2 1.28048 1.25223 11.5699
27 2 3.68396 2.7737 11.5151
28 2 1.86384 3.15202 9.22464
29 2 1.91846 0.341258 8.55892
30 2 1.4691 1.54331 6.18211
31 2 3.99333 -0.158053 6.65754
32 2 5.43249 1.36667 4.04481
33 2 5.50146 4.20798 4.22132
34 2 2.81062 2.33124 3.77407
35 2 3.88005 2.87718 6.08141
ITEM: TIMESTEP
19100
ITEM: NUMBER OF ATOMS
35
ITEM: BOX BOUNDS xy xz yz pp pp pp
0.0000000000000000e+00 7.6685730000000003e+00 2.5561910000000001e+00
0.0000000000000000e+00 4.4274529999999999e+00 0.0000000000000000e+00
0.0000000000000000e+00 3.3699264999999997e+01 0.0000000000000000e+00
ITEM: ATOMS id type x y z
1 1 5.88121 3.75853 21.0454
2 1 0.786382 0.151208 24.9634
3 1 1.40255 0.884489 27.2685
4 1 3.81079 0.679447 26.1636
5 1 4.97381 3.08242 27.5331
6 1 3.76488 3.65417 22.5307
7 1 5.24936 2.77078 25.1005
8 1 4.0337 1.81217 18.6061
9 1 2.48684 2.89448 26.3044
10 1 6.40191 4.46811 23.2668
11 1 2.52525 1.63737 24.2669
12 1 3.12734 1.74915 21.0109
13 1 5.62531 3.949 18.7516
14 1 3.05162 3.95908 18.3207
15 1 5.95942 2.01609 22.6853
16 2 1.68031 0.656923 16.1599
17 2 6.63258 3.58081 16.1068
18 2 2.89413 4.46174 20.6254
19 2 1.56039 1.6937 18.7404
20 2 5.53493 2.80273 13.7121
21 2 4.1345 2.17948 16.3009
22 2 2.87707 4.40268 13.9111
23 2 3.21704 1.3977 13.7706
24 2 3.65247 -0.0260785 11.3947
25 2 4.47235 1.71514 8.88801
26 2 0.964001 1.27734 11.5844
27 2 3.868 3.04108 11.3066
28 2 6.80113 3.09922 9.08652
29 2 1.56776 0.0873795 8.60877
30 2 1.4442 1.60987 6.1959
31 2 6.60382 4.27904 6.73005
32 2 5.12233 1.226 3.60556
33 2 5.56336 4.42432 4.36513
34 2 2.40496 2.86836 3.44338
35 2 3.88667 2.75708 6.48504
ITEM: TIMESTEP
19200
ITEM: NUMBER OF ATOMS
35
ITEM: BOX BOUNDS xy xz yz pp pp pp
0.0000000000000000e+00 7.6685730000000003e+00 2.5561910000000001e+00
0.0000000000000000e+00 4.4274529999999999e+00 0.0000000000000000e+00
0.0000000000000000e+00 3.3699264999999997e+01 0.0000000000000000e+00
ITEM: ATOMS id type x y z
1 1 4.97742 3.35244 20.4511
2 1 3.18805 4.0817 25.0671
3 1 1.17356 0.751071 26.8439
4 1 3.96212 0.607292 26.4027
5 1 5.12712 3.03097 27.1968
6 1 4.7844 3.82432 23.1062
7 1 5.37818 2.34949 25.0566
8 1 4.35025 1.88407 19.2571
9 1 2.66603 2.7667 26.9475
10 1 4.17856 0.387959 23.0023
11 1 2.67689 1.81745 24.5093
12 1 2.91691 2.13271 21.3274
13 1 5.66701 4.21972 18.3814
14 1 3.29322 3.67785 18.1693
15 1 6.1209 1.77669 22.7002
16 2 1.6676 0.691463 16.128
17 2 6.84183 3.34225 16.2797
18 2 0.167821 0.389668 20.8178
19 2 1.63958 1.86433 18.8991
20 2 5.73576 2.79661 13.7617
21 2 4.38976 2.00563 16.2172
22 2 0.591004 -0.173602 13.7823
23 2 3.01959 1.42574 13.5872
24 2 6.08392 4.30758 11.2886
25 2 4.32071 1.46589 9.10152
26 2 1.16456 1.5615 11.1308
27 2 3.47297 3.01715 11.2531
28 2 6.88294 2.78377 8.86808
29 2 1.68508 0.0237776 8.98762
30 2 1.21711 1.52151 6.08599
31 2 6.79414 4.48395 6.53318
32 2 4.90663 1.53293 3.75899
33 2 4.75984 4.35929 4.2161
34 2 2.54159 3.23704 3.95786
35 2 3.95863 2.75369 6.15556
ITEM: TIMESTEP
19300
ITEM: NUMBER OF ATOMS
35
ITEM: BOX BOUNDS xy xz yz pp pp pp
0.0000000000000000e+00 7.6685730000000003e+00 2.5561910000000001e+00
0.0000000000000000e+00 4.4274529999999999e+00 0.0000000000000000e+00
0.0000000000000000e+00 3.3699264999999997e+01 0.0000000000000000e+00
ITEM: ATOMS id type x y z
1 1 5.62805 4.14363 20.898
2 1 3.03292 3.915 25.0741
3 1 1.32406 0.833814 26.99
4 1 4.01891 0.356623 26.5513
5 1 5.03248 2.84909 27.1554
6 1 4.31617 3.75689 23
7 1 5.28915 2.14521 25.0851
8 1 4.41713 1.7625 18.6126
9 1 2.81317 3.04949 27.4953
10 1 4.35146 0.495582 23.1332
11 1 2.76808 1.5121 24.7336
12 1 3.35075 2.2506 21.3388
13 1 5.73556 3.83606 18.2108
14 1 3.26363 4.20219 18.2053
15 1 1.33914 1.89051 22.7936
16 2 1.99258 0.389165 16.0354
17 2 7.20083 3.57086 16.0111
18 2 0.193973 0.205616 20.5155
19 2 1.6594 2.19091 19.1776
20 2 5.67811 2.94093 13.8729
21 2 4.31763 1.83392 16.2359
22 2 3.27924 4.26014 13.7546
23 2 3.04962 1.27869 13.8717
24 2 3.48566 0.103557 11.3074
25 2 4.20302 1.09508 8.755
26 2 0.964241 1.29966 11.1105
27 2 3.23804 2.91565 11.4315
28 2 1.91471 2.81885 8.34858
29 2 4.41054 4.1804 8.56051
30 2 1.37143 1.44062 6.35304
31 2 3.8573 0.0411163 6.2844
32 2 4.68926 1.97139 4.00551
33 2 2.25609 0.339069 3.99893
34 2 1.96109 3.08126 4.27006
35 2 3.98182 2.88681 6.60869
ITEM: TIMESTEP
19400
ITEM: NUMBER OF ATOMS
35
ITEM: BOX BOUNDS xy xz yz pp pp pp
0.0000000000000000e+00 7.6685730000000003e+00 2.5561910000000001e+00
0.0000000000000000e+00 4.4274529999999999e+00 0.0000000000000000e+00
0.0000000000000000e+00 3.3699264999999997e+01 0.0000000000000000e+00
ITEM: ATOMS id type x y z
1 1 5.49395 3.90984 20.6524
2 1 3.01076 3.61502 25.2128
3 1 1.64466 0.790938 27.0277
4 1 3.82518 0.794386 26.895
5 1 5.28833 2.7263 27.6378
6 1 4.00534 3.79317 23.0065
7 1 5.08541 2.25523 24.8273
8 1 4.23646 2.42201 18.566
9 1 2.4842 2.86683 27.6263
10 1 4.16837 0.0370284 23.1581
11 1 2.29167 0.988047 24.7732
12 1 4.21053 2.0404 21.1919
13 1 5.67235 4.55404 18.561
14 1 0.152025 0.226133 18.2818
15 1 1.78248 2.37134 21.7746
16 2 2.10988 0.648505 16.1265
17 2 2.06088 3.18193 16.0943
18 2 0.772926 0.126936 20.6675
19 2 1.93214 2.0157 19.4596
20 2 5.79507 2.66375 13.4946
21 2 4.85527 2.08819 16.16
22 2 0.581674 0.102063 13.6065
23 2 3.41407 1.42176 13.6955
24 2 5.68762 4.23788 11.4552
25 2 4.46546 1.29486 8.68052
26 2 5.59925 1.24641 11.159
27 2 3.48772 2.7024 11.078
28 2 1.77224 2.80797 8.99634
29 2 4.4546 4.21327 9.22725
30 2 1.01287 1.02025 6.47826
31 2 3.53916 0.095767 6.14157
32 2 4.42751 1.93524 4.07435
33 2 2.13029 0.618134 3.67179
34 2 6.96409 3.31182 3.98972
35 2 4.02563 2.8233 6.28209
ITEM: TIMESTEP
19500
ITEM: NUMBER OF ATOMS
35
ITEM: BOX BOUNDS xy xz yz pp pp pp
0.0000000000000000e+00 7.6685730000000003e+00 2.5561910000000001e+00
0.0000000000000000e+00 4.4274529999999999e+00 0.0000000000000000e+00
0.0000000000000000e+00 3.3699264999999997e+01 0.0000000000000000e+00
ITEM: ATOMS id type x y z
1 1 5.86336 3.97841 21.0569
2 1 2.48222 3.23811 25.1565
3 1 1.12572 0.379279 27.073
4 1 3.94389 0.943217 26.2833
5 1 5.25536 3.17975 27.013
6 1 3.99269 3.67513 23.3006
7 1 5.22728 2.23924 24.7526
8 1 4.36232 2.98664 18.6022
9 1 2.66473 2.58464 27.8541
10 1 4.03265 0.161628 23.5364
11 1 2.1441 1.02258 24.9789
12 1 4.58478 1.74559 21.441
13 1 3.67685 0.820169 18.2686
14 1 0.79163 0.57712 17.9554
15 1 2.07136 1.9603 22.8771
16 2 2.39154 0.451339 15.9697
17 2 2.36283 3.48898 16.3877
18 2 3.55087 4.12573 20.7684
19 2 1.80147 2.41671 18.8995
20 2 6.20831 2.79135 13.8731
21 2 4.80164 2.04062 15.9088
22 2 3.49008 4.0407 13.7249
23 2 3.35844 1.45098 13.6488
24 2 5.7768 4.13483 11.5404
25 2 4.34532 1.43856 8.73015
26 2 5.65949 1.1412 11.2893
27 2 2.98499 2.45325 11.2993
28 2 1.60285 2.98149 9.06466
29 2 4.44545 4.55542 8.94312
30 2 0.767243 1.43768 6.16543
31 2 5.9938 4.00018 6.45713
32 2 4.6084 1.84075 3.42969
33 2 1.659 0.325968 3.73438
34 2 7.20054 3.59976 3.91451
35 2 3.24797 2.93738 6.45344
ITEM: TIMESTEP
19600
ITEM: NUMBER OF ATOMS
35
ITEM: BOX BOUNDS xy xz yz pp pp pp
0.0000000000000000e+00 7.6685730000000003e+00 2.5561910000000001e+00
0.0000000000000000e+00 4.4274529999999999e+00 0.0000000000000000e+00
0.0000000000000000e+00 3.3699264999999997e+01 0.0000000000000000e+00
ITEM: ATOMS id type x y z
1 1 6.43842 4.03626 21.4813
2 1 2.68045 3.09969 25.4621
3 1 0.666224 0.564908 27.7682
4 1 4.14796 1.11963 26.0676
5 1 5.55461 3.12121 26.609
6 1 3.80875 3.66539 22.8827
7 1 5.26755 2.32516 24.2123
8 1 4.69815 2.95657 18.4143
9 1 2.63882 2.03488 27.4464
10 1 4.05762 0.571522 23.5737
11 1 1.67287 0.301019 25.0829
12 1 5.0289 1.95792 21.1322
13 1 3.80671 0.966562 18.9545
14 1 1.58883 0.819542 18.2174
15 1 1.93457 1.66632 22.5275
16 2 2.57358 0.221515 16.1128
17 2 2.48896 3.39333 16.3856
18 2 3.43498 4.17827 20.4653
19 2 1.8852 3.03238 19.0186
20 2 6.37087 2.69499 14.1803
21 2 4.74674 1.78863 16.3822
22 2 3.69346 4.16231 13.7881
23 2 3.78155 0.967741 13.666
24 2 5.74668 4.00031 11.2869
25 2 4.17912 1.70903 8.73673
26 2 5.74909 0.947911 11.4829
27 2 2.98186 2.57383 11.2328
28 2 6.76714 3.22934 8.77594
29 2 1.39469 0.453943 8.50506
30 2 5.57558 1.44749 5.74243
31 2 5.36577 4.29493 6.44871
32 2 4.47742 2.09512 3.58618
33 2 2.22213 0.244167 4.13608
34 2 1.75992 3.24195 4.01268
35 2 2.99638 2.64839 6.36877
ITEM: TIMESTEP
19700
ITEM: NUMBER OF ATOMS
35
ITEM: BOX BOUNDS xy xz yz pp pp pp
0.0000000000000000e+00 7.6685730000000003e+00 2.5561910000000001e+00
0.0000000000000000e+00 4.4274529999999999e+00 0.0000000000000000e+00
0.0000000000000000e+00 3.3699264999999997e+01 0.0000000000000000e+00
ITEM: ATOMS id type x y z
1 1 6.23097 4.19975 21.5727
2 1 2.76733 2.81232 24.9652
3 1 0.339954 0.220781 27.7597
4 1 4.7424 0.960026 25.9308
5 1 5.53675 3.22015 26.7151
6 1 3.24218 3.66885 22.9331
7 1 5.84658 2.72625 23.837
8 1 4.60086 3.28023 18.4894
9 1 2.37003 1.5614 27.3511
10 1 3.83354 0.680808 23.6236
11 1 1.90436 0.544089 25.1924
12 1 4.90472 2.16955 21.0196
13 1 3.39687 1.07161 19.4167
14 1 0.979638 1.05832 18.3579
15 1 2.44307 1.965 21.6388
16 2 2.75529 0.0518612 16.383
17 2 2.591 2.9817 16.5259
18 2 3.98962 4.65727 20.5471
19 2 1.82405 3.27674 19.3177
20 2 6.49527 2.22384 13.8203
21 2 5.1471 1.46312 16.2387
22 2 3.89399 3.84391 13.9699
23 2 4.02092 1.03213 13.6104
24 2 5.42953 3.9247 10.9542
25 2 3.99533 2.21979 8.75941
26 2 0.5854 1.15495 11.1798
27 2 3.13816 2.58281 11.2136
28 2 6.62524 3.38907 8.6872
29 2 1.27532 0.561048 8.86919
30 2 5.11108 0.97174 6.23524
31 2 5.3649 4.16085 6.64854
32 2 4.24232 2.09256 3.70907
33 2 2.09336 0.517158 3.81236
34 2 6.97348 3.20229 3.92592
35 2 2.93869 2.69054 6.26787
ITEM: TIMESTEP
19800
ITEM: NUMBER OF ATOMS
35
ITEM: BOX BOUNDS xy xz yz pp pp pp
0.0000000000000000e+00 7.6685730000000003e+00 2.5561910000000001e+00
0.0000000000000000e+00 4.4274529999999999e+00 0.0000000000000000e+00
0.0000000000000000e+00 3.3699264999999997e+01 0.0000000000000000e+00
ITEM: ATOMS id type x y z
1 1 6.34946 4.52263 21.9098
2 1 3.13221 3.10258 25.5601
3 1 0.370381 -0.831067 27.5521
4 1 4.67396 1.08227 25.6079
5 1 5.81292 3.32651 26.347
6 1 3.63779 4.70248 23.2359
7 1 5.9066 2.5519 23.3957
8 1 4.61807 3.45738 18.4388
9 1 2.52962 1.31674 27.2818
10 1 3.33854 1.69992 23.5349
11 1 2.1643 0.590011 25.3
12 1 5.11579 2.19503 21.0285
13 1 3.05685 1.00367 18.4733
14 1 0.600752 1.07519 18.1688
15 1 2.67995 2.45112 21.6178
16 2 3.03031 -0.136848 16.2665
17 2 2.67954 2.58545 16.5398
18 2 1.56306 0.121878 20.9547
19 2 7.01966 3.48181 19.424
20 2 1.59548 2.17891 13.5535
21 2 5.34835 1.41472 15.6434
22 2 4.21851 3.49427 14.0311
23 2 3.7809 0.639939 13.5526
24 2 5.42322 4.29313 11.3378
25 2 4.01903 2.03026 8.71792
26 2 5.24793 1.30395 11.2717
27 2 2.74128 2.66786 11.403
28 2 6.65033 3.49831 8.88566
29 2 1.77205 0.605813 8.74683
30 2 5.36356 1.00632 6.60975
31 2 5.11925 3.84206 6.13304
32 2 4.5805 2.01342 4.09019
33 2 1.38341 0.46394 3.93974
34 2 6.64242 3.80445 3.83501
35 2 2.56968 2.52097 6.21321
ITEM: TIMESTEP
19900
ITEM: NUMBER OF ATOMS
35
ITEM: BOX BOUNDS xy xz yz pp pp pp
0.0000000000000000e+00 7.6685730000000003e+00 2.5561910000000001e+00
0.0000000000000000e+00 4.4274529999999999e+00 0.0000000000000000e+00
0.0000000000000000e+00 3.3699264999999997e+01 0.0000000000000000e+00
ITEM: ATOMS id type x y z
1 1 4.23297 0.498308 21.6592
2 1 3.43382 3.47629 25.539
3 1 3.12167 3.75941 27.7916
4 1 4.67998 1.15686 25.7374
5 1 6.4433 2.70215 26.1886
6 1 0.838784 0.386872 23.3624
7 1 5.76377 3.32274 23.7756
8 1 4.39674 3.28031 18.1896
9 1 2.73895 0.97604 28.1232
10 1 3.21263 1.83628 23.4298
11 1 2.44225 0.795854 25.5467
12 1 5.01446 1.91595 20.3425
13 1 3.06863 1.42335 19.0854
14 1 5.55396 1.09708 18.3264
15 1 2.56652 2.48212 21.4049
16 2 5.65831 3.95246 16.1612
17 2 2.99823 2.64717 16.2338
18 2 1.80174 0.0700708 20.5965
19 2 7.01873 3.63497 19.2085
20 2 1.60746 2.02 13.6826
21 2 5.55112 1.11732 15.8085
22 2 3.90692 3.31859 13.6176
23 2 4.18482 0.346716 13.8397
24 2 4.95799 4.38577 11.2743
25 2 4.3129 2.04292 8.99019
26 2 5.1333 1.39729 11.359
27 2 2.74496 3.09536 11.0971
28 2 6.70226 3.45925 8.81301
29 2 1.77245 0.541431 8.91247
30 2 5.13029 0.963881 6.65482
31 2 5.27414 3.92061 6.41198
32 2 4.03071 2.1798 4.28133
33 2 1.37652 0.565576 4.04947
34 2 6.49172 3.92077 3.81928
35 2 2.31119 2.22484 5.96966
ITEM: TIMESTEP
20000
ITEM: NUMBER OF ATOMS
35
ITEM: BOX BOUNDS xy xz yz pp pp pp
0.0000000000000000e+00 7.6685730000000003e+00 2.5561910000000001e+00
0.0000000000000000e+00 4.4274529999999999e+00 0.0000000000000000e+00
0.0000000000000000e+00 3.3699264999999997e+01 0.0000000000000000e+00
ITEM: ATOMS id type x y z
1 1 3.91654 0.219657 21.7635
2 1 3.76334 2.94559 25.5567
3 1 3.30468 4.33219 27.7562
4 1 5.27743 0.788924 25.9071
5 1 6.4066 3.18893 26.5561
6 1 1.106 1.05663 23.3982
7 1 5.44563 3.57572 23.6585
8 1 4.12287 3.63242 18.4468
9 1 3.16871 0.762749 27.7754
10 1 3.6678 1.61674 23.6949
11 1 2.29477 0.702592 25.714
12 1 5.38406 1.92439 20.5777
13 1 3.70192 1.58495 18.3767
14 1 1.15712 1.52745 18.4837
15 1 2.59643 2.20229 21.278
16 2 5.69235 4.02615 16.0911
17 2 3.23989 2.37797 15.9454
18 2 4.1818 4.49159 20.7305
19 2 6.7934 3.82684 18.741
20 2 1.66475 1.57493 13.6896
21 2 5.67303 0.727819 16.2239
22 2 4.15984 3.24336 13.524
23 2 4.17587 0.356444 13.7562
24 2 5.44925 4.48929 11.3511
25 2 4.06686 2.18126 8.89218
26 2 5.25186 1.56134 11.4444
27 2 2.42226 2.94464 11.1588
28 2 6.86703 3.37039 8.75358
29 2 1.32056 0.79502 8.91712
30 2 4.84505 0.752895 6.43486
31 2 4.72985 3.98193 6.68114
32 2 4.02605 2.31149 3.85405
33 2 1.31793 0.898534 4.00271
34 2 6.39917 3.62433 4.03706
35 2 2.22046 2.36186 6.39731
