ITEM: TIMESTEP
0
ITEM: NUMBER OF ATOMS
35
ITEM: BOX BOUNDS xy xz yz pp pp pp
0.0000000000000000e+00 7.6685730000000003e+00 2.5561910000000001e+00
0.0000000000000000e+00 4.4274529999999999e+00 0.0000000000000000e+00
0.0000000000000000e+00 3.0699265000000000e+01 0.0000000000000000e+00
ITEM: ATOMS id type x y z
1 1 2.55619 1.47582 26.7962
2 1 5.11238 2.95164 26.7962
3 1 0 0 26.7962
4 1 5.11238 1.47582 24.4585
5 1 2.55619 2.95164 24.4585
6 1 2.55619 0 24.4585
7 1 2.55619 1.47582 22.1209
8 1 5.11238 2.95164 22.1209
9 1 0 0 22.1209
10 1 5.11238 1.47582 19.7832
11 1 2.55619 2.95164 19.7832
12 1 2.55619 0 19.7832
13 1 2.55619 1.47582 17.4455
14 1 5.11238 2.95164 17.4455
15 1 0 0 17.4455
16 2 1.2781 2.21373 14.4455
17 2 0 0 14.4455
18 2 3.83429 2.21373 14.4455
19 2 2.55619 0 14.4455
20 2 3.83429 3.68954 12.3583
21 2 2.55619 1.47582 12.3583
22 2 6.39048 3.68954 12.3583
23 2 5.11238 1.47582 12.3583
24 2 5.11238 2.95164 10.2712
25 2 3.83429 0.737909 10.2712
26 2 2.55619 2.95164 10.2712
27 2 1.2781 0.737909 10.2712
28 2 1.2781 2.21373 8.1841
29 2 0 0 8.1841
30 2 3.83429 2.21373 8.1841
31 2 2.55619 0 8.1841
32 2 3.83429 3.68954 6.09698
33 2 2.55619 1.47582 6.09698
34 2 6.39048 3.68954 6.09698
35 2 5.11238 1.47582 6.09698
ITEM: TIMESTEP
100
ITEM: NUMBER OF ATOMS
35
ITEM: BOX BOUNDS xy xz yz pp pp pp
0.0000000000000000e+00 7.6685730000000003e+00 2.5561910000000001e+00
0.0000000000000000e+00 4.4274529999999999e+00 0.0000000000000000e+00
0.0000000000000000e+00 3.0699265000000000e+01 0.0000000000000000e+00
ITEM: ATOMS id type x y z
1 1 2.98708 1.67073 26.1549
2 1 5.07171 3.152 26.3435
3 1 5.11071 0.0213448 26.2197
4 1 4.95502 1.52221 24.4036
5 1 2.37369 2.89417 24.2197
6 1 4.51346 4.38256 24.3623
7 1 2.46825 1.53658 22.2374
8 1 5.10989 3.1497 22.4216
9 1 7.44781 4.26045 22.5868
10 1 5.46134 1.38173 21.032
11 1 3.43347 2.38149 19.9431
12 1 4.72997 4.41634 19.5891
13 1 2.57245 1.43026 17.6055
14 1 4.79478 3.06738 17.6834
15 1 5.19183 0.758124 17.3633
16 2 1.26008 2.08161 15.2156
17 2 7.52927 4.26852 15.0446
18 2 3.81676 2.13074 15.6455
19 2 5.07179 4.35927 15.82
20 2 3.65318 3.7675 12.8576
21 2 2.41165 1.58036 12.7753
22 2 6.17529 3.70277 12.7071
23 2 4.90814 1.52806 12.7365
24 2 5.21182 2.88351 10.3055
25 2 3.89719 0.647775 10.2322
26 2 2.64799 2.93107 10.2276
27 2 1.40457 0.701478 10.2868
28 2 1.27803 2.19233 7.8375
29 2 5.1446 0.0160842 7.7793
30 2 3.8888 2.21427 7.59624
31 2 5.13739 4.42874 7.69426
32 2 4.01303 3.78057 4.86639
33 2 2.69576 1.57471 5.05029
34 2 6.51629 3.67275 5.3589
35 2 5.22063 1.50306 5.2632
ITEM: TIMESTEP
200
ITEM: NUMBER OF ATOMS
35
ITEM: BOX BOUNDS xy xz yz pp pp pp
0.0000000000000000e+00 7.6685730000000003e+00 2.5561910000000001e+00
0.0000000000000000e+00 4.4274529999999999e+00 0.0000000000000000e+00
0.0000000000000000e+00 3.0699265000000000e+01 0.0000000000000000e+00
ITEM: ATOMS id type x y z
1 1 3.26479 1.14926 25.8985
2 1 5.37018 3.09398 25.9917
3 1 2.68343 4.23174 25.9399
4 1 4.48483 1.96828 23.9665
5 1 1.78929 2.86862 24.4489
6 1 1.51639 0.204258 24.3061
7 1 2.92235 1.38484 22.5081
8 1 4.69612 3.43809 22.2871
9 1 7.2008 4.02156 22.336
10 1 5.82868 1.87618 20.8363
11 1 3.59552 2.22374 20.6997
12 1 2.60264 0.12875 20.3707
13 1 2.03608 2.58292 18.534
14 1 5.08106 2.78727 18.7471
15 1 0.237143 0.0708133 18.9131
16 2 6.16026 2.00204 15.9999
17 2 7.44958 4.30132 15.6707
18 2 3.611 2.12325 16.3833
19 2 5.05981 4.31056 16.6692
20 2 3.66073 3.64502 13.3886
21 2 2.30382 1.50718 13.7016
22 2 6.199 3.79513 12.9349
23 2 4.85059 1.58886 13.0057
24 2 5.30298 2.89132 10.3171
25 2 3.98681 0.659619 10.0287
26 2 2.62825 2.84885 10.1126
27 2 1.40366 0.622544 10.5125
28 2 1.28805 2.20916 7.55573
29 2 2.65111 4.46743 7.45975
30 2 3.928 2.20841 6.67272
31 2 2.53679 0.0299014 6.78403
32 2 3.97976 3.69487 3.48085
33 2 2.78691 1.46532 3.9072
34 2 6.6687 3.80389 4.84368
35 2 5.47249 1.63857 4.60092
ITEM: TIMESTEP
300
ITEM: NUMBER OF ATOMS
35
ITEM: BOX BOUNDS xy xz yz pp pp pp
0.0000000000000000e+00 7.6685730000000003e+00 2.5561910000000001e+00
0.0000000000000000e+00 4.4274529999999999e+00 0.0000000000000000e+00
0.0000000000000000e+00 3.0699265000000000e+01 0.0000000000000000e+00
ITEM: ATOMS id type x y z
1 1 2.84364 1.2039 25.7009
2 1 5.04555 3.18528 26.2109
3 1 2.67494 4.03327 26.5355
4 1 4.83945 1.64252 24.1853
5 1 6.73786 3.21074 24.2367
6 1 1.12402 -0.0361614 24.4868
7 1 2.75801 1.26663 22.7468
8 1 4.80081 3.39713 22.2357
9 1 7.20595 4.49248 22.0656
10 1 6.12666 1.87089 21.2677
11 1 3.21296 2.8448 20.6723
12 1 3.40659 0.0861998 19.8681
13 1 1.77738 2.21595 18.8284
14 1 4.57361 2.39405 19.0729
15 1 0.46756 0.332638 19.0412
16 2 5.96301 2.16657 16.3476
17 2 7.24987 4.37251 15.8861
18 2 3.55909 2.16697 16.7816
19 2 4.76816 4.45522 17.6168
20 2 3.78245 3.70434 13.8557
21 2 2.52042 1.42136 14.5296
22 2 6.28425 3.55029 12.5222
23 2 4.83401 1.46366 12.8651
24 2 5.298 2.84514 10.1822
25 2 3.79892 0.655034 9.29937
26 2 2.74601 2.88406 10.3007
27 2 1.41921 0.711123 11.2774
28 2 1.332 2.23602 7.96422
29 2 5.21949 0.0428854 7.41381
30 2 3.5869 2.32298 5.89998
31 2 2.39478 0.114307 5.96617
32 2 4.21607 3.71439 2.76872
33 2 3.02012 1.42033 3.05051
34 2 7.16403 3.59296 4.63581
35 2 5.61804 1.50701 4.38491
ITEM: TIMESTEP
400
ITEM: NUMBER OF ATOMS
35
ITEM: BOX BOUNDS xy xz yz pp pp pp
0.0000000000000000e+00 7.6685730000000003e+00 2.5561910000000001e+00
0.0000000000000000e+00 4.4274529999999999e+00 0.0000000000000000e+00
0.0000000000000000e+00 3.0699265000000000e+01 0.0000000000000000e+00
ITEM: ATOMS id type x y z
1 1 2.48817 1.60754 25.475
2 1 4.984 3.04892 26.3968
3 1 2.11239 3.79951 26.571
4 1 4.90684 1.58625 24.4748
5 1 6.44186 3.7343 24.5053
6 1 1.29529 -0.466309 24.3505
7 1 2.18993 1.80667 23.3427
8 1 5.21983 3.39344 22.2716
9 1 7.09419 4.75018 22.5273
10 1 6.26237 1.36378 20.8078
11 1 2.97988 3.01315 21.366
12 1 2.96033 0.426423 20.5431
13 1 1.45026 2.36654 18.8232
14 1 4.27917 2.16202 19.4948
15 1 0.160176 0.176328 18.8436
16 2 5.67732 2.28304 16.2018
17 2 7.14735 4.44187 15.7696
18 2 3.24512 2.53101 17.2554
19 2 4.98058 4.49471 17.6517
20 2 4.01906 3.58292 14.425
21 2 2.58015 1.26952 14.7237
22 2 6.53275 3.39977 12.7881
23 2 4.3355 1.59572 12.7064
24 2 5.18763 2.55337 10.089
25 2 3.27549 0.867919 8.98641
26 2 2.79784 3.34755 10.5239
27 2 1.95891 0.558877 11.8204
28 2 1.35965 2.2601 7.59623
29 2 5.38176 -0.112302 6.9672
30 2 3.968 2.00829 5.96694
31 2 2.52376 -0.0643136 5.31741
32 2 4.50144 3.60252 2.83987
33 2 3.38466 1.32212 2.68012
34 2 7.09919 3.68748 4.08523
35 2 5.79154 1.49627 4.22741
ITEM: TIMESTEP
500
ITEM: NUMBER OF ATOMS
35
ITEM: BOX BOUNDS xy xz yz pp pp pp
0.0000000000000000e+00 7.6685730000000003e+00 2.5561910000000001e+00
0.0000000000000000e+00 4.4274529999999999e+00 0.0000000000000000e+00
0.0000000000000000e+00 3.0699265000000000e+01 0.0000000000000000e+00
ITEM: ATOMS id type x y z
1 1 2.44231 1.49338 26.0399
2 1 4.43152 3.19511 26.7366
3 1 7.5833 4.14829 26.5715
4 1 5.08951 1.47142 25.2015
5 1 5.74865 4.13779 24.6407
6 1 3.37033 3.58837 24.2152
7 1 1.91229 1.57248 23.3819
8 1 5.01864 3.20859 22.5219
9 1 4.18106 0.936614 22.9813
10 1 0.797924 1.00482 20.7252
11 1 2.54785 3.33672 21.9493
12 1 3.4131 -0.0650879 20.399
13 1 0.941928 2.57364 18.7868
14 1 3.7146 2.74468 19.8178
15 1 -0.308474 0.537611 18.4084
16 2 5.61009 2.2119 16.2231
17 2 4.44468 0.0602193 15.7146
18 2 3.13124 2.72861 17.3668
19 2 2.53864 0.249525 17.5982
20 2 4.11366 3.52842 14.5295
21 2 2.51875 1.36342 14.9297
22 2 6.72413 3.1871 13.3529
23 2 4.5701 1.72519 12.3207
24 2 5.63496 2.00309 9.90397
25 2 2.73559 0.798363 8.58766
26 2 2.56361 3.97736 10.0705
27 2 2.18112 0.347926 11.9859
28 2 1.12632 2.44237 6.9918
29 2 3.05004 4.26048 7.2345
30 2 3.895 1.88557 5.97683
31 2 5.21171 4.27022 5.54991
32 2 4.80061 3.54077 2.77958
33 2 3.55929 1.23277 2.64266
34 2 7.58584 3.44771 3.84328
35 2 6.02364 1.47363 4.11234
ITEM: TIMESTEP
600
ITEM: NUMBER OF ATOMS
35
ITEM: BOX BOUNDS xy xz yz pp pp pp
0.0000000000000000e+00 7.6685730000000003e+00 2.5561910000000001e+00
0.0000000000000000e+00 4.4274529999999999e+00 0.0000000000000000e+00
0.0000000000000000e+00 3.0699265000000000e+01 0.0000000000000000e+00
ITEM: ATOMS id type x y z
1 1 2.40068 1.61849 26.4488
2 1 4.55514 3.51483 27.0236
3 1 7.03558 4.33148 26.826
4 1 4.87531 1.79431 25.2068
5 1 5.66461 4.03578 24.8348
6 1 2.70057 2.97284 24.6817
7 1 1.20877 0.658588 23.7716
8 1 4.70535 3.62368 22.3592
9 1 3.92348 1.55424 22.8438
10 1 1.1686 0.805367 20.7029
11 1 2.0385 3.46142 22.2825
12 1 3.4724 0.420843 20.4191
13 1 6.3649 2.75748 19.1713
14 1 3.45507 2.6414 20.1849
15 1 4.56646 0.637745 18.5066
16 2 5.61406 2.36393 16.6583
17 2 7.27659 4.41163 15.5782
18 2 3.21598 2.77893 17.3852
19 2 2.05378 0.370454 17.7792
20 2 4.21356 3.36974 14.2265
21 2 2.56025 1.46241 14.7682
22 2 6.95012 3.42728 12.5706
23 2 4.67721 1.57302 12.462
24 2 5.6443 2.24467 9.60861
25 2 2.97254 0.766147 8.62811
26 2 2.46787 3.81574 9.99876
27 2 2.06402 0.046623 11.4862
28 2 6.3012 2.48837 7.08274
29 2 3.13053 4.12141 7.42559
30 2 3.79532 1.94382 5.70628
31 2 5.16098 4.13134 5.23368
32 2 5.23235 3.31205 2.61058
33 2 3.77262 1.27056 2.87364
34 2 2.47238 3.55326 4.27485
35 2 0.93152 1.37918 4.34352
ITEM: TIMESTEP
700
ITEM: NUMBER OF ATOMS
35
ITEM: BOX BOUNDS xy xz yz pp pp pp
0.0000000000000000e+00 7.6685730000000003e+00 2.5561910000000001e+00
0.0000000000000000e+00 4.4274529999999999e+00 0.0000000000000000e+00
0.0000000000000000e+00 3.0699265000000000e+01 0.0000000000000000e+00
ITEM: ATOMS id type x y z
1 1 2.04314 1.51078 27.0118
2 1 4.23798 3.63422 26.6985
3 1 6.90475 4.12576 27.005
4 1 4.40883 1.70311 25.6852
5 1 2.86102 -0.0156905 24.3752
6 1 2.28885 2.8633 24.9806
7 1 5.50771 0.760305 23.7927
8 1 4.60934 3.62788 22.154
9 1 3.62243 1.67063 22.8478
10 1 5.78774 1.32514 21.4687
11 1 1.93983 3.00638 22.4435
12 1 3.6897 0.307129 20.6434
13 1 5.79915 2.74003 19.3506
14 1 3.54951 3.29582 19.9458
15 1 4.71708 0.378082 18.1251
16 2 5.8202 2.80211 16.5778
17 2 4.66341 0.460652 15.2912
18 2 3.16411 2.49597 17.473
19 2 1.94192 0.35576 18.0245
20 2 4.85382 3.38751 14.3081
21 2 2.03346 1.68467 14.4174
22 2 2.05728 2.79288 12.2274
23 2 4.89313 1.23999 12.4286
24 2 4.90985 2.38702 9.71419
25 2 3.32709 0.842333 8.53322
26 2 2.75522 3.60617 9.66061
27 2 2.3746 0.415735 11.2562
28 2 6.30157 2.24761 7.26959
29 2 3.35796 4.06442 7.20715
30 2 3.98466 1.49996 6.27647
31 2 5.05561 3.97934 5.32916
32 2 5.41882 3.32054 2.44067
33 2 3.48155 1.45491 3.18844
34 2 2.667 3.63583 4.19455
35 2 1.12479 1.54293 4.43854
ITEM: TIMESTEP
800
ITEM: NUMBER OF ATOMS
35
ITEM: BOX BOUNDS xy xz yz pp pp pp
0.0000000000000000e+00 7.6685730000000003e+00 2.5561910000000001e+00
0.0000000000000000e+00 4.4274529999999999e+00 0.0000000000000000e+00
0.0000000000000000e+00 3.0699265000000000e+01 0.0000000000000000e+00
ITEM: ATOMS id type x y z
1 1 1.67996 1.59638 26.9465
2 1 3.4001 3.79836 26.4979
3 1 6.18715 4.05078 27.0629
4 1 4.35152 1.4646 25.777
5 1 5.26513 4.00032 24.7143
6 1 1.84842 2.51185 24.5866
7 1 0.651742 0.594624 24.0814
8 1 4.31713 3.87592 22.2654
9 1 3.28559 1.38902 23.2043
10 1 5.72518 1.34752 21.4239
11 1 6.74815 3.93165 22.5325
12 1 3.17678 0.972765 20.1285
13 1 5.64808 2.06918 19.2593
14 1 2.72312 3.59516 20.1268
15 1 4.66594 0.470029 17.9338
16 2 5.96641 3.04298 16.7612
17 2 4.60266 0.65251 15.2799
18 2 3.51521 2.52633 16.8788
19 2 1.86367 0.45668 17.9006
20 2 4.81385 3.61309 13.8703
21 2 2.02526 1.7237 14.7225
22 2 2.53903 3.04801 12.0606
23 2 5.06892 0.942264 12.5938
24 2 5.24777 2.21403 10.1781
25 2 2.60293 0.290121 8.73749
26 2 2.40453 3.62992 9.61232
27 2 2.84386 0.316408 11.1689
28 2 6.43637 2.48977 7.40662
29 2 3.44575 3.94919 7.1307
30 2 3.93433 1.28318 6.22396
31 2 5.48471 3.63782 5.24526
32 2 5.48671 3.43062 2.66626
33 2 3.56147 1.3803 3.16328
34 2 2.82045 3.84938 4.16572
35 2 1.22515 1.63194 4.48577
ITEM: TIMESTEP
900
ITEM: NUMBER OF ATOMS
35
ITEM: BOX BOUNDS xy xz yz pp pp pp
0.0000000000000000e+00 7.6685730000000003e+00 2.5561910000000001e+00
0.0000000000000000e+00 4.4274529999999999e+00 0.0000000000000000e+00
0.0000000000000000e+00 3.0699265000000000e+01 0.0000000000000000e+00
ITEM: ATOMS id type x y z
1 1 1.04622 1.50397 26.5492
2 1 2.31345 3.88702 26.5926
3 1 4.7685 3.94271 27.1291
4 1 4.00569 1.83678 25.8131
5 1 5.0531 3.9168 24.5329
6 1 2.00335 2.41874 24.4158
7 1 0.29603 0.305683 24.2769
8 1 4.30524 3.57829 21.7485
9 1 3.50915 1.53696 22.6344
10 1 5.78552 1.62966 22.0754
11 1 6.90504 3.67356 22.0049
12 1 2.40205 1.16894 20.3636
13 1 4.96905 3.06195 19.33
14 1 2.46718 3.74562 19.5707
15 1 4.3546 0.837329 18.2765
16 2 6.06885 3.02257 16.7188
17 2 4.88237 0.303237 15.3583
18 2 3.62253 2.85738 16.7779
19 2 2.0156 0.877929 17.5164
20 2 4.89813 3.65099 13.9482
21 2 2.46667 1.72336 14.5115
22 2 2.81358 2.7415 12.3079
23 2 5.36376 1.40558 13.0507
24 2 5.34705 1.63162 10.4511
25 2 2.41068 0.363587 8.76747
26 2 2.62036 3.61679 9.78946
27 2 2.61979 0.171655 11.5735
28 2 6.14863 2.413 7.4886
29 2 3.09262 4.07533 6.6138
30 2 3.97859 1.62792 6.25009
31 2 5.36406 3.64439 5.35492
32 2 5.52226 3.32352 2.55725
33 2 4.13914 1.39566 3.05902
34 2 2.70911 3.46201 4.06525
35 2 1.73315 1.31704 4.52291
ITEM: TIMESTEP
1000
ITEM: NUMBER OF ATOMS
35
ITEM: BOX BOUNDS xy xz yz pp pp pp
0.0000000000000000e+00 7.6685730000000003e+00 2.5561910000000001e+00
0.0000000000000000e+00 4.4274529999999999e+00 0.0000000000000000e+00
0.0000000000000000e+00 3.0699265000000000e+01 0.0000000000000000e+00
ITEM: ATOMS id type x y z
1 1 5.99599 1.77097 26.1793
2 1 6.27118 4.23556 26.6113
3 1 4.00654 3.57795 26.6355
4 1 3.25356 1.82423 25.4136
5 1 4.88939 3.95543 24.0846
6 1 1.63662 2.4959 24.0142
7 1 4.66784 0.29962 24.4906
8 1 4.43631 3.38712 21.8787
9 1 3.45244 1.20163 22.3007
10 1 0.654134 1.15758 22.257
11 1 6.99894 3.50184 21.7126
12 1 2.1631 1.50499 20.0184
13 1 5.27998 3.61671 19.3558
14 1 2.18175 3.48563 19.2049
15 1 4.94811 1.2044 18.5763
16 2 6.17103 3.17686 17.0208
17 2 5.21791 0.624057 15.3813
18 2 3.45109 3.09828 17.1361
19 2 2.19745 0.898917 17.4628
20 2 5.25219 3.5259 14.6735
21 2 2.83832 1.87782 14.8157
22 2 2.52939 3.06898 12.1936
23 2 5.34016 1.19228 12.8987
24 2 5.13148 1.74322 10.2863
25 2 2.98273 0.409037 8.69532
26 2 2.86754 2.97443 9.48474
27 2 2.71225 0.0171077 11.4851
28 2 5.9138 2.30743 7.95969
29 2 2.87931 4.25352 6.75419
30 2 3.26453 1.57269 6.29019
31 2 5.63012 3.35701 5.27085
32 2 5.66017 3.60527 2.31696
33 2 4.37099 1.28597 3.24874
34 2 3.12784 3.39334 3.69478
35 2 1.53344 1.1813 4.52007
ITEM: TIMESTEP
1100
ITEM: NUMBER OF ATOMS
35
ITEM: BOX BOUNDS xy xz yz pp pp pp
0.0000000000000000e+00 7.6685730000000003e+00 2.5561910000000001e+00
0.0000000000000000e+00 4.4274529999999999e+00 0.0000000000000000e+00
0.0000000000000000e+00 3.0699265000000000e+01 0.0000000000000000e+00
ITEM: ATOMS id type x y z
1 1 5.65133 1.92625 25.8854
2 1 5.80259 4.08462 26.4436
3 1 2.96854 4.02568 26.3719
4 1 3.01983 1.89341 24.9435
5 1 4.44721 4.1925 24.2293
6 1 6.0863 2.34677 23.6494
7 1 4.68841 0.296461 23.9451
8 1 4.33069 2.80934 22.3122
9 1 2.79884 0.940366 22.59
10 1 5.69059 0.618619 21.6475
11 1 6.87211 3.26224 21.7293
12 1 2.23121 1.43794 19.9625
13 1 5.15037 3.51659 19.956
14 1 2.77184 3.78248 19.6675
15 1 5.06433 1.42668 18.8441
16 2 6.50295 3.15011 17.3669
17 2 5.33371 0.970081 15.8021
18 2 3.87679 3.07701 17.2484
19 2 2.50383 0.948399 17.5518
20 2 5.19407 3.73632 14.0405
21 2 2.76787 2.1598 14.7997
22 2 2.61645 3.06095 12.2414
23 2 5.2565 1.38218 12.9501
24 2 5.34275 1.49434 10.3946
25 2 3.32009 0.11046 8.71906
26 2 3.06165 3.02822 9.26755
27 2 5.24205 4.39538 11.394
28 2 5.41157 2.22453 7.57113
29 2 3.17792 4.2993 6.82978
30 2 2.92946 1.78156 6.54694
31 2 5.6837 3.51568 5.40954
32 2 5.55837 3.49837 2.49841
33 2 4.39826 0.964705 3.43034
34 2 2.9698 3.30455 3.52608
35 2 1.70453 1.12058 4.19612
ITEM: TIMESTEP
1200
ITEM: NUMBER OF ATOMS
35
ITEM: BOX BOUNDS xy xz yz pp pp pp
0.0000000000000000e+00 7.6685730000000003e+00 2.5561910000000001e+00
0.0000000000000000e+00 4.4274529999999999e+00 0.0000000000000000e+00
0.0000000000000000e+00 3.0699265000000000e+01 0.0000000000000000e+00
ITEM: ATOMS id type x y z
1 1 4.72104 1.75006 26.4122
2 1 2.73426 0.589209 26.4529
3 1 2.59108 3.6857 26.3054
4 1 3.06633 2.06451 24.6714
5 1 4.23033 4.15633 24.3139
6 1 5.86665 1.77073 24.1274
7 1 6.96374 4.29883 24.0014
8 1 3.69587 2.84934 22.2708
9 1 2.43824 0.293322 22.1178
10 1 5.11634 0.829345 21.3257
11 1 6.3973 2.88337 21.9804
12 1 2.86163 1.37177 20.1679
13 1 5.68477 3.49451 19.6872
14 1 3.46455 3.64935 19.3925
15 1 4.99869 1.5179 18.7229
16 2 6.79711 3.33609 17.209
17 2 5.26386 0.976771 16.0075
18 2 4.33213 3.11811 16.8461
19 2 2.79626 1.01244 17.573
20 2 2.735 0.0416575 14.3233
21 2 2.45156 2.6391 14.7071
22 2 2.94154 2.62532 11.9725
23 2 5.18934 1.35039 13.3437
24 2 5.77159 1.33827 10.2138
25 2 3.19167 0.128442 8.73142
26 2 2.98372 3.08424 9.48115
27 2 2.77012 0.0542115 11.3687
28 2 5.35632 2.21206 7.76175
29 2 3.23793 4.40568 6.38317
30 2 2.92996 1.58825 6.48372
31 2 5.7481 3.42873 5.293
32 2 5.36966 3.07719 2.56806
33 2 4.30513 1.11994 3.87786
34 2 2.95402 3.36004 3.61446
35 2 1.57832 0.946762 4.10503
ITEM: TIMESTEP
1300
ITEM: NUMBER OF ATOMS
35
ITEM: BOX BOUNDS xy xz yz pp pp pp
0.0000000000000000e+00 7.6685730000000003e+00 2.5561910000000001e+00
0.0000000000000000e+00 4.4274529999999999e+00 0.0000000000000000e+00
0.0000000000000000e+00 3.0699265000000000e+01 0.0000000000000000e+00
ITEM: ATOMS id type x y z
1 1 4.67358 2.07347 26.7979
2 1 1.79053 1.03907 26.6221
3 1 2.40491 3.26678 26.3113
4 1 2.81073 1.68708 23.9621
5 1 4.07918 3.9056 24.8889
6 1 5.21326 1.74049 24.5241
7 1 6.73553 3.79524 24.0427
8 1 3.5444 2.81248 21.9308
9 1 2.23769 0.42422 22.0842
10 1 4.71296 0.40093 21.4918
11 1 5.97954 2.2958 21.9754
12 1 2.6229 1.73702 19.8686
13 1 6.70531 3.68645 19.8386
14 1 4.27097 3.58732 19.1254
15 1 5.44543 1.46379 18.4476
16 2 6.81999 3.56777 17.3342
17 2 5.59252 1.06331 15.7841
18 2 4.34601 3.25735 16.3366
19 2 2.88001 1.13002 17.4917
20 2 2.74009 0.275283 14.5302
21 2 2.33125 3.19081 14.4946
22 2 3.22781 2.68964 12.1679
23 2 5.35915 1.36167 13.0952
24 2 5.63113 1.42781 10.6512
25 2 2.96941 0.399574 8.70638
26 2 2.96807 3.08864 9.21375
27 2 5.81853 4.00431 11.6888
28 2 5.57406 2.09665 7.95428
29 2 2.89256 4.21099 6.52229
30 2 2.97178 1.6659 6.43965
31 2 5.57753 2.95834 5.52886
32 2 5.52571 3.02531 2.40439
33 2 4.23556 1.10926 4.27174
34 2 2.74272 3.26838 3.42362
35 2 1.61892 0.93263 3.8385
ITEM: TIMESTEP
1400
ITEM: NUMBER OF ATOMS
35
ITEM: BOX BOUNDS xy xz yz pp pp pp
0.0000000000000000e+00 7.6685730000000003e+00 2.5561910000000001e+00
0.0000000000000000e+00 4.4274529999999999e+00 0.0000000000000000e+00
0.0000000000000000e+00 3.0699265000000000e+01 0.0000000000000000e+00
ITEM: ATOMS id type x y z
1 1 4.2429 2.65389 26.526
2 1 1.22431 0.830736 26.5169
3 1 1.71687 3.46723 26.5018
4 1 2.55551 1.32137 24.4272
5 1 4.00708 3.43944 24.2258
6 1 5.074 1.38114 24.4251
7 1 6.23275 3.51704 24.4952
8 1 3.11137 2.40544 22.089
9 1 2.34711 0.297548 22.0566
10 1 4.94427 0.595861 22.3394
11 1 6.01591 2.72975 21.9737
12 1 2.49964 1.45758 19.7182
13 1 7.06747 4.19938 20.0523
14 1 4.36487 3.41925 19.2262
15 1 5.64188 1.04952 18.426
16 2 7.00093 3.61618 17.3361
17 2 5.8534 1.37404 15.7951
18 2 4.27261 3.29762 16.2979
19 2 2.81086 1.26959 17.1454
20 2 2.98087 0.599999 14.013
21 2 2.30873 3.22904 14.5201
22 2 3.47935 2.8642 11.7972
23 2 5.62504 1.57462 13.36
24 2 5.5903 1.2697 10.4852
25 2 2.85932 0.120611 9.13872
26 2 3.0388 3.38309 9.35166
27 2 6.0223 3.93816 11.705
28 2 5.61321 2.07451 8.23652
29 2 2.775 4.35656 6.74639
30 2 2.74709 1.43182 6.49196
31 2 5.26558 3.21874 5.55812
32 2 5.33148 3.03469 2.5367
33 2 4.25327 0.847419 4.15558
34 2 2.85222 2.88284 3.30855
35 2 1.90832 0.744277 3.51655
ITEM: TIMESTEP
1500
ITEM: NUMBER OF ATOMS
35
ITEM: BOX BOUNDS xy xz yz pp pp pp
0.0000000000000000e+00 7.6685730000000003e+00 2.5561910000000001e+00
0.0000000000000000e+00 4.4274529999999999e+00 0.0000000000000000e+00
0.0000000000000000e+00 3.0699265000000000e+01 0.0000000000000000e+00
ITEM: ATOMS id type x y z
1 1 3.67862 2.67086 26.0304
2 1 0.943969 0.61295 26.8502
3 1 6.3718 4.18634 27.4874
4 1 2.38187 1.20468 24.9505
5 1 3.0799 3.48951 24.0872
6 1 4.72138 0.841606 24.7634
7 1 5.86108 3.15315 24.3415
8 1 3.56199 2.15316 21.5424
9 1 2.06974 0.178608 22.0684
10 1 4.83221 0.573277 22.5168
11 1 5.88058 2.60806 21.4492
12 1 2.68737 1.69466 19.6458
13 1 7.1418 4.25725 19.9454
14 1 4.64319 3.47513 19.0836
15 1 0.490221 1.51258 18.5155
16 2 6.96587 3.33344 17.6661
17 2 5.57317 1.17944 15.9718
18 2 4.77213 3.55495 16.0867
19 2 3.32603 1.42483 17.1225
20 2 3.00022 0.6792 14.1256
21 2 2.66662 3.45158 14.4872
22 2 3.52806 2.82555 11.8209
23 2 5.5543 1.88919 13.1594
24 2 5.94601 1.37697 10.6575
25 2 2.95583 0.468714 9.02013
26 2 2.84728 2.96916 9.02139
27 2 6.15843 4.2332 11.5855
28 2 5.37126 2.45209 7.83695
29 2 0.206521 -0.119931 6.64408
30 2 2.63234 1.36742 6.48222
31 2 5.18757 3.03825 5.33926
32 2 5.53101 2.58184 2.54829
33 2 4.23512 0.711547 4.40888
34 2 2.8506 2.76011 3.76658
35 2 1.67238 0.576576 3.64692
ITEM: TIMESTEP
1600
ITEM: NUMBER OF ATOMS
35
ITEM: BOX BOUNDS xy xz yz pp pp pp
0.0000000000000000e+00 7.6685730000000003e+00 2.5561910000000001e+00
0.0000000000000000e+00 4.4274529999999999e+00 0.0000000000000000e+00
0.0000000000000000e+00 3.0699265000000000e+01 0.0000000000000000e+00
ITEM: ATOMS id type x y z
1 1 3.78361 2.88567 27.0707
2 1 0.831606 0.977424 27.2556
3 1 3.10322 0.396513 27.0054
4 1 1.22716 0.410949 24.3908
5 1 2.87621 2.35831 24.0517
6 1 4.22148 0.724226 25.2559
7 1 5.27591 2.88977 23.6855
8 1 3.5074 2.94995 21.7028
9 1 2.31883 0.543831 22.0739
10 1 4.46537 0.189935 22.8784
11 1 6.1835 2.19856 21.0654
12 1 2.95963 1.80092 19.7705
13 1 4.43219 0.0646575 20.6133
14 1 4.46593 3.52294 18.605
15 1 5.59222 1.26556 18.6048
16 2 2.05597 3.53666 17.9554
17 2 0.786793 0.856495 15.8956
18 2 5.35401 3.61104 16.2668
19 2 3.58064 1.59824 16.9341
20 2 2.81375 0.764175 14.0319
21 2 2.77654 3.34788 14.3804
22 2 3.3219 2.90403 11.6866
23 2 5.58616 2.16003 13.4935
24 2 0.972462 1.5807 10.2612
25 2 3.12326 0.394153 8.84793
26 2 2.68945 3.40533 9.19723
27 2 3.77591 0.145795 11.6723
28 2 5.13242 2.50348 7.77204
29 2 2.94257 4.17753 6.62007
30 2 2.44278 1.47766 6.42635
31 2 5.47831 2.56256 5.15433
32 2 5.46859 2.45793 2.50246
33 2 4.15578 0.416975 4.49779
34 2 2.66664 2.82222 4.04185
35 2 1.60884 0.234073 3.49619
ITEM: TIMESTEP
1700
ITEM: NUMBER OF ATOMS
35
ITEM: BOX BOUNDS xy xz yz pp pp pp
0.0000000000000000e+00 7.6685730000000003e+00 2.5561910000000001e+00
0.0000000000000000e+00 4.4274529999999999e+00 0.0000000000000000e+00
0.0000000000000000e+00 3.0699265000000000e+01 0.0000000000000000e+00
ITEM: ATOMS id type x y z
1 1 3.49066 3.12699 27.2717
2 1 5.30584 1.94917 26.6393
3 1 2.37701 0.583296 27.0082
4 1 1.52986 -0.754521 24.7131
5 1 2.15436 1.95479 24.5119
6 1 4.0266 0.415268 25.3854
7 1 5.30572 2.18057 23.4046
8 1 3.51891 3.29033 22.074
9 1 2.26558 1.06844 21.889
10 1 4.27347 -0.0423651 22.9804
11 1 5.43481 2.42097 20.9218
12 1 3.45029 1.68546 19.618
13 1 4.61889 -0.135651 20.6761
14 1 5.03728 3.94166 18.8631
15 1 1.36866 1.53966 18.8117
16 2 7.33001 3.96739 18.253
17 2 1.11841 0.795431 16.395
18 2 5.74547 3.26322 16.05
19 2 3.41724 1.85153 16.6524
20 2 2.85902 0.473508 13.8935
21 2 2.69329 3.45829 14.5064
22 2 3.67706 3.01835 11.6968
23 2 5.30942 2.18861 13.4138
24 2 5.81258 1.91914 10.4231
25 2 2.83018 0.603218 9.08056
26 2 3.04695 3.75559 9.22797
27 2 3.74271 0.195811 11.4053
28 2 5.09156 2.17228 7.93342
29 2 2.89107 4.12081 6.63216
30 2 2.77224 1.19007 6.57975
31 2 5.31417 2.70439 5.33745
32 2 5.25608 2.44669 2.41495
33 2 4.20214 0.225235 4.20353
34 2 2.75816 2.4426 3.61044
35 2 1.47128 0.149068 3.16493
ITEM: TIMESTEP
1800
ITEM: NUMBER OF ATOMS
35
ITEM: BOX BOUNDS xy xz yz pp pp pp
0.0000000000000000e+00 7.6685730000000003e+00 2.5561910000000001e+00
0.0000000000000000e+00 4.4274529999999999e+00 0.0000000000000000e+00
0.0000000000000000e+00 3.0699265000000000e+01 0.0000000000000000e+00
ITEM: ATOMS id type x y z
1 1 2.59292 3.40597 27.0146
2 1 5.45543 2.69215 26.7129
3 1 1.84991 0.637178 26.9181
4 1 3.98884 3.53485 24.8414
5 1 2.24289 1.75657 24.703
6 1 4.03907 0.128979 25.2914
7 1 5.50911 1.14385 23.4678
8 1 3.74348 3.13762 22.82
9 1 2.1835 1.27847 21.5423
10 1 5.86666 3.87557 22.8886
11 1 5.38298 2.79944 21.1512
12 1 3.627 1.97493 19.319
13 1 7.53844 4.24538 20.8941
14 1 4.87186 4.21504 18.8357
15 1 6.17768 2.06276 18.6969
16 2 2.36221 4.00669 18.3224
17 2 1.2782 0.608974 16.2508
18 2 5.94219 3.44035 16.1971
19 2 3.75429 2.01607 16.656
20 2 2.62227 0.745106 13.9304
21 2 2.84042 3.5079 14.2496
22 2 3.54446 3.51109 11.7483
23 2 5.42789 1.68362 13.742
24 2 5.87701 2.00533 10.931
25 2 2.62438 0.916308 9.23642
26 2 3.01342 3.43674 8.97264
27 2 3.78093 0.13386 11.6008
28 2 5.52099 2.30306 8.02656
29 2 2.64719 3.80714 6.29369
30 2 2.93209 0.970607 6.36016
31 2 5.10926 2.63009 5.2402
32 2 5.2661 2.32395 2.3629
33 2 4.00933 0.249906 3.98067
34 2 2.79366 2.27933 3.39756
35 2 1.53677 0.230839 3.25996
ITEM: TIMESTEP
1900
ITEM: NUMBER OF ATOMS
35
ITEM: BOX BOUNDS xy xz yz pp pp pp
0.0000000000000000e+00 7.6685730000000003e+00 2.5561910000000001e+00
0.0000000000000000e+00 4.4274529999999999e+00 0.0000000000000000e+00
0.0000000000000000e+00 3.0699265000000000e+01 0.0000000000000000e+00
ITEM: ATOMS id type x y z
1 1 2.38968 3.46702 27.2433
2 1 4.47952 2.12822 26.9812
3 1 2.30736 1.23253 26.9069
4 1 3.89325 3.70512 25.007
5 1 2.12943 1.74973 24.4132
6 1 4.34293 0.640569 25.5652
7 1 5.25372 0.721812 23.1423
8 1 3.21785 2.72177 22.3847
9 1 2.501 0.656812 21.2298
10 1 5.77346 3.74267 23.5619
11 1 5.41143 2.83771 20.6395
12 1 3.44458 1.95904 19.5335
13 1 0.216561 0.29597 20.8253
14 1 2.28949 -0.0690682 18.551
15 1 5.77469 2.05757 18.3946
16 2 7.405 4.06684 18.6709
17 2 1.2892 0.875794 16.1884
18 2 6.35957 3.63592 16.1779
19 2 3.81028 1.93336 16.7728
20 2 2.66443 0.764736 13.9987
21 2 2.87446 3.36059 14.267
22 2 3.78591 3.41201 11.5424
23 2 5.07429 2.07949 13.8125
24 2 5.9916 1.739 10.9566
25 2 3.08559 0.625139 9.3566
26 2 2.75469 3.72061 9.01816
27 2 3.71646 0.423165 11.7529
28 2 5.6097 2.35141 7.84385
29 2 2.87846 3.69507 6.07792
30 2 2.5229 0.890578 6.41013
31 2 5.27382 2.10661 5.14796
32 2 5.37056 2.34864 2.2161
33 2 3.94193 0.244802 3.75187
34 2 2.54113 2.36674 3.40931
35 2 1.54415 0.231898 3.63927
ITEM: TIMESTEP
2000
ITEM: NUMBER OF ATOMS
35
ITEM: BOX BOUNDS xy xz yz pp pp pp
0.0000000000000000e+00 7.6685730000000003e+00 2.5561910000000001e+00
0.0000000000000000e+00 4.4274529999999999e+00 0.0000000000000000e+00
0.0000000000000000e+00 3.0699265000000000e+01 0.0000000000000000e+00
ITEM: ATOMS id type x y z
1 1 6.64022 3.95116 27.1815
2 1 4.83438 2.86354 27.3588
3 1 2.48737 0.969308 26.8852
4 1 3.75707 2.94703 25.0434
5 1 1.46621 1.71856 24.8389
6 1 4.17891 0.485319 25.1298
7 1 4.8995 1.3955 23.2364
8 1 3.61235 2.9488 21.7711
9 1 2.54948 0.378947 21.5598
10 1 5.70081 3.43708 23.3203
11 1 6.77665 2.44048 20.8997
12 1 3.40654 1.78172 19.5486
13 1 4.9544 0.619324 21.1711
14 1 4.80023 4.26777 18.5168
15 1 5.91812 1.92971 18.6087
16 2 7.3476 4.24025 18.6934
17 2 0.921334 0.80532 16.3718
18 2 6.2374 3.81533 16.3106
19 2 3.56594 2.31136 16.8069
20 2 2.3889 0.652491 14.0269
21 2 2.65888 3.65586 13.9202
22 2 3.90682 2.9426 11.3053
23 2 5.4038 2.42608 13.7839
24 2 1.39265 1.89909 10.6983
25 2 3.08667 0.662515 9.1052
26 2 3.12633 3.85932 8.79038
27 2 4.18024 0.134353 11.8417
28 2 5.15615 2.13092 7.90188
29 2 2.78928 3.59002 6.37175
30 2 2.71414 0.769959 6.64821
31 2 5.42927 2.27968 5.14927
32 2 5.09716 2.41086 2.24606
33 2 3.94643 0.222186 3.50243
34 2 2.63859 2.28505 3.34785
35 2 4.02891 4.25603 3.94664
ITEM: TIMESTEP
2100
ITEM: NUMBER OF ATOMS
35
ITEM: BOX BOUNDS xy xz yz pp pp pp
0.0000000000000000e+00 7.6685730000000003e+00 2.5561910000000001e+00
0.0000000000000000e+00 4.4274529999999999e+00 0.0000000000000000e+00
0.0000000000000000e+00 3.0699265000000000e+01 0.0000000000000000e+00
ITEM: ATOMS id type x y z
1 1 2.75727 3.90884 27.3145
2 1 4.56995 2.73562 26.9444
3 1 1.81645 1.10676 27.2083
4 1 3.40983 2.9319 24.7398
5 1 1.10366 1.52101 24.9797
6 1 3.49728 0.129414 25.6988
7 1 4.5817 1.38913 23.2971
8 1 4.13182 3.05639 21.4448
9 1 2.59949 1.00402 21.2706
10 1 6.27704 3.67245 23.401
11 1 6.26864 2.9673 21.3979
12 1 3.57398 2.12986 19.1438
13 1 5.1375 0.594345 21.1703
14 1 4.74489 4.33811 19.3153
15 1 6.17341 2.00048 18.9786
16 2 7.42728 4.20419 18.621
17 2 0.62487 0.872244 16.2217
18 2 5.63747 3.82869 16.4611
19 2 3.27509 2.47844 16.5718
20 2 2.71753 1.03491 13.4247
21 2 2.75499 3.64629 13.9644
22 2 4.37901 2.86932 11.2452
23 2 5.16164 2.2556 13.7877
24 2 1.60463 1.98684 10.9431
25 2 3.2379 0.431187 9.21115
26 2 3.23979 3.77616 8.96158
27 2 4.39784 0.15487 11.363
28 2 5.43385 2.04054 8.21428
29 2 2.33317 3.51056 6.31558
30 2 2.99927 0.779409 6.22597
31 2 5.32463 2.20131 5.31284
32 2 4.97685 2.38223 2.42371
33 2 4.32482 0.0292861 3.3869
34 2 2.3019 2.04472 3.31921
35 2 3.94366 4.3479 4.36001
ITEM: TIMESTEP
2200
ITEM: NUMBER OF ATOMS
35
ITEM: BOX BOUNDS xy xz yz pp pp pp
0.0000000000000000e+00 7.6685730000000003e+00 2.5561910000000001e+00
0.0000000000000000e+00 4.4274529999999999e+00 0.0000000000000000e+00
0.0000000000000000e+00 3.0699265000000000e+01 0.0000000000000000e+00
ITEM: ATOMS id type x y z
1 1 3.04089 3.71097 26.5743
2 1 4.6261 1.83723 26.3279
3 1 2.0116 1.96391 27.6571
4 1 3.41015 3.53958 24.4475
5 1 1.56174 1.06882 25.0756
6 1 3.10482 -0.000418232 26.5157
7 1 4.20233 1.47104 23.4705
8 1 3.6918 3.55577 21.2685
9 1 2.83743 0.985112 21.6137
10 1 5.51302 3.42962 23.9318
11 1 6.43932 3.56838 20.7809
12 1 3.73434 2.15807 18.7999
13 1 5.44938 1.47579 20.9047
14 1 4.80242 4.2757 18.9294
15 1 6.3581 2.09602 18.459
16 2 7.40059 4.20582 18.2723
17 2 5.5657 1.20741 16.2091
18 2 5.08547 3.97149 16.475
19 2 2.92216 2.05027 16.3063
20 2 2.80651 0.73013 13.4608
21 2 2.76315 3.82659 14.1103
22 2 4.54748 3.44825 11.3672
23 2 5.24779 2.28308 13.8756
24 2 2.00387 1.66984 11.0746
25 2 3.25246 0.276944 8.67272
26 2 3.22975 3.47486 8.96597
27 2 4.87194 0.370373 11.4136
28 2 5.99068 1.9165 8.34796
29 2 2.4469 3.57605 6.53886
30 2 2.64059 0.932297 6.47544
31 2 5.01841 1.82325 5.5019
32 2 4.84549 2.7626 2.60657
33 2 4.14941 -0.0258589 3.25724
34 2 2.34167 1.83143 3.45206
35 2 4.02922 3.96393 4.49527
ITEM: TIMESTEP
2300
ITEM: NUMBER OF ATOMS
35
ITEM: BOX BOUNDS xy xz yz pp pp pp
0.0000000000000000e+00 7.6685730000000003e+00 2.5561910000000001e+00
0.0000000000000000e+00 4.4274529999999999e+00 0.0000000000000000e+00
0.0000000000000000e+00 3.0699265000000000e+01 0.0000000000000000e+00
ITEM: ATOMS id type x y z
1 1 3.14333 4.28218 26.0933
2 1 4.45325 1.68402 25.8385
3 1 2.36254 2.08724 27.2365
4 1 2.58293 3.44228 23.2771
5 1 2.12428 1.68222 24.8989
6 1 5.50599 3.52859 26.7367
7 1 4.49044 1.15891 23.4132
8 1 3.73525 3.67222 21.4856
9 1 2.45549 1.35735 21.9408
10 1 5.47231 3.38093 24.0674
11 1 6.90226 4.0923 20.4484
12 1 3.60873 1.94148 18.7433
13 1 5.15636 1.88502 20.7911
14 1 4.89717 4.32697 19.1873
15 1 6.08742 2.12067 18.5116
16 2 7.37094 4.18312 17.9846
17 2 5.13405 1.10777 15.9519
18 2 5.13223 3.75946 16.3527
19 2 2.72957 2.32895 16.1706
20 2 2.58476 0.641771 14.1212
21 2 2.64443 3.76808 13.9329
22 2 5.07773 3.42593 11.4139
23 2 5.66965 2.32463 13.6497
24 2 2.42777 2.07775 11.0473
25 2 3.56381 0.183505 9.18431
26 2 3.71336 3.05348 8.94759
27 2 4.85986 0.663561 11.4418
28 2 5.85277 1.62509 8.74516
29 2 2.04093 3.72163 6.54967
30 2 2.39891 0.901474 6.37646
31 2 5.05208 1.86075 5.64834
32 2 4.72995 2.81687 2.20193
33 2 6.88887 4.51359 3.56597
34 2 1.95254 1.7288 3.76758
35 2 4.0183 3.65746 4.55803
ITEM: TIMESTEP
2400
ITEM: NUMBER OF ATOMS
35
ITEM: BOX BOUNDS xy xz yz pp pp pp
0.0000000000000000e+00 7.6685730000000003e+00 2.5561910000000001e+00
0.0000000000000000e+00 4.4274529999999999e+00 0.0000000000000000e+00
0.0000000000000000e+00 3.0699265000000000e+01 0.0000000000000000e+00
ITEM: ATOMS id type x y z
1 1 3.13654 4.03097 25.6513
2 1 4.29309 1.3734 25.3317
3 1 2.33067 1.78785 26.7663
4 1 2.38059 3.72491 23.4711
5 1 1.48958 1.68459 24.3352
6 1 6.06161 3.8137 26.4205
7 1 4.89594 1.46257 22.9816
8 1 4.2813 3.74236 21.4194
9 1 2.64848 1.54674 21.8201
10 1 4.96991 3.84108 23.9104
11 1 6.62327 4.01099 21.1524
12 1 3.352 1.85265 18.8509
13 1 5.52868 1.66948 20.4922
14 1 4.59578 4.25075 18.8886
15 1 5.95684 1.99593 18.2899
16 2 7.30816 4.26806 18.3895
17 2 4.93712 0.831298 15.7345
18 2 5.08774 3.85684 16.5869
19 2 2.52126 2.38617 16.2105
20 2 2.80305 0.816387 13.774
21 2 3.03521 3.55889 13.5529
22 2 5.11097 3.80097 11.3777
23 2 5.33082 2.26854 13.651
24 2 2.66622 2.36489 11.444
25 2 3.79634 -0.0924566 9.09251
26 2 3.87071 3.00077 8.39501
27 2 5.10549 0.812881 11.4646
28 2 1.18614 1.24848 9.02891
29 2 7.0066 3.45675 6.6264
30 2 2.50027 0.871206 6.73968
31 2 5.04149 1.68478 6.33353
32 2 4.54307 2.78985 2.23757
33 2 4.05857 0.542408 3.7504
34 2 1.68388 1.82393 3.71277
35 2 3.84542 3.57447 4.52342
ITEM: TIMESTEP
2500
ITEM: NUMBER OF ATOMS
35
ITEM: BOX BOUNDS xy xz yz pp pp pp
0.0000000000000000e+00 7.6685730000000003e+00 2.5561910000000001e+00
0.0000000000000000e+00 4.4274529999999999e+00 0.0000000000000000e+00
0.0000000000000000e+00 3.0699265000000000e+01 0.0000000000000000e+00
ITEM: ATOMS id type x y z
1 1 3.6058 3.4045 26.2209
2 1 4.03989 1.79692 24.5744
3 1 1.70746 1.42216 26.4808
4 1 2.95761 3.74596 23.8439
5 1 1.5 1.65624 24.1899
6 1 5.71921 3.8429 25.5657
7 1 5.3248 2.00796 22.3937
8 1 3.88605 3.89967 21.303
9 1 2.37333 1.50882 21.4656
10 1 5.39361 4.30625 23.2419
11 1 6.48848 3.81772 21.1821
12 1 3.37785 2.10497 19.0653
13 1 5.74625 1.6454 20.1907
14 1 4.61242 4.25472 19.2277
15 1 5.70012 2.01688 17.8379
16 2 7.09072 4.12813 18.7883
17 2 4.78562 0.528593 16.2972
18 2 4.65678 4.00882 16.2726
19 2 2.66374 2.20516 16.0057
20 2 2.98255 0.784688 13.5722
21 2 2.98678 3.85748 13.9314
22 2 5.04891 3.8956 11.1159
23 2 5.57046 2.42574 14.0099
24 2 2.83539 2.33418 11.086
25 2 6.6197 4.24655 8.89921
26 2 4.00159 3.05351 8.51863
27 2 5.2462 1.00638 11.3832
28 2 1.63246 1.37708 9.09086
29 2 1.88338 3.13026 6.40581
30 2 2.44667 0.500912 6.51403
31 2 5.05722 1.427 6.67362
32 2 4.35861 2.96891 2.51731
33 2 3.80721 0.628403 3.9556
34 2 1.28389 2.07362 3.73985
35 2 3.96359 3.48568 4.90154
ITEM: TIMESTEP
2600
ITEM: NUMBER OF ATOMS
35
ITEM: BOX BOUNDS xy xz yz pp pp pp
0.0000000000000000e+00 7.6685730000000003e+00 2.5561910000000001e+00
0.0000000000000000e+00 4.4274529999999999e+00 0.0000000000000000e+00
0.0000000000000000e+00 3.0699265000000000e+01 0.0000000000000000e+00
ITEM: ATOMS id type x y z
1 1 3.27258 2.96862 26.3316
2 1 4.34176 1.6367 24.5408
3 1 1.04713 1.1792 26.1957
4 1 3.2077 4.15373 23.993
5 1 1.97706 1.97732 23.9115
6 1 6.26959 3.69128 25.5634
7 1 5.00767 1.73297 22.2875
8 1 3.4506 4.15637 21.4726
9 1 2.92107 1.79659 21.0635
10 1 5.64278 4.55485 23.0867
11 1 6.10411 3.96105 20.881
12 1 3.37178 1.89801 18.3908
13 1 5.38743 1.87305 19.8932
14 1 4.28926 4.68173 18.5556
15 1 5.79786 2.1869 17.3571
16 2 7.20533 3.90302 18.8324
17 2 4.42756 0.309697 16.3505
18 2 4.48432 3.93093 16.2582
19 2 2.56716 2.14273 16.1532
20 2 3.01504 0.962811 13.4979
21 2 2.967 4.17464 13.6858
22 2 5.46407 3.71325 11.2618
23 2 5.88117 2.36805 14.36
24 2 2.72395 2.61321 11.4107
25 2 6.88187 4.57578 9.08996
26 2 4.17788 3.03975 8.68793
27 2 5.33327 1.03259 11.4564
28 2 1.53525 1.70494 8.77694
29 2 1.92581 2.96441 6.34529
30 2 2.57279 0.380444 6.66564
31 2 5.01279 1.11589 6.60671
32 2 3.72313 3.5557 2.36478
33 2 3.75633 0.409405 4.01073
34 2 1.35587 1.82511 3.90434
35 2 4.03186 2.98709 5.10411
ITEM: TIMESTEP
2700
ITEM: NUMBER OF ATOMS
35
ITEM: BOX BOUNDS xy xz yz pp pp pp
0.0000000000000000e+00 7.6685730000000003e+00 2.5561910000000001e+00
0.0000000000000000e+00 4.4274529999999999e+00 0.0000000000000000e+00
0.0000000000000000e+00 3.0699265000000000e+01 0.0000000000000000e+00
ITEM: ATOMS id type x y z
1 1 2.69155 2.62943 26.1491
2 1 4.6319 2.04467 24.7702
3 1 1.39416 0.564135 26.1623
4 1 3.5594 4.44034 23.8107
5 1 2.22665 2.22404 23.0511
6 1 5.9196 4.26456 25.8808
7 1 4.59079 2.05891 22.4628
8 1 1.00109 0.279439 21.3981
9 1 2.67372 2.17716 20.5392
10 1 5.87888 4.05693 23.731
11 1 5.7312 3.75951 21.095
12 1 3.5223 1.75814 18.2948
13 1 5.18585 1.64208 20.0063
14 1 2.07165 -0.0413116 18.8444
15 1 5.79648 2.24664 17.3816
16 2 7.12704 3.66691 18.6407
17 2 4.44809 0.367631 15.9565
18 2 4.48113 4.04282 16.1482
19 2 2.47473 2.16132 15.8976
20 2 3.13609 1.0899 13.7821
21 2 3.28867 3.85434 13.6646
22 2 5.42364 4.06922 11.614
23 2 5.39856 2.45202 14.1328
24 2 2.88031 2.48853 11.3608
25 2 4.15263 0.42761 9.19689
26 2 4.13713 2.99283 8.59645
27 2 5.64505 1.13081 11.4115
28 2 1.68046 1.96691 9.28145
29 2 2.01891 2.86609 6.70614
30 2 2.5224 0.170838 6.8467
31 2 5.1231 1.1242 6.50954
32 2 3.21097 3.84603 2.653
33 2 3.79793 -0.0116024 3.83986
34 2 1.41043 1.47576 3.85992
35 2 4.16437 2.9203 4.70601
ITEM: TIMESTEP
2800
ITEM: NUMBER OF ATOMS
35
ITEM: BOX BOUNDS xy xz yz pp pp pp
0.0000000000000000e+00 7.6685730000000003e+00 2.5561910000000001e+00
0.0000000000000000e+00 4.4274529999999999e+00 0.0000000000000000e+00
0.0000000000000000e+00 3.0699265000000000e+01 0.0000000000000000e+00
ITEM: ATOMS id type x y z
1 1 2.03651 2.39846 25.382
2 1 4.87838 2.3924 25.0665
3 1 0.789773 0.175495 26.3847
4 1 1.04434 0.0856769 24.2733
5 1 1.96733 1.79508 22.9155
6 1 3.80249 0.661185 26.3827
7 1 4.69347 2.23832 22.468
8 1 3.57736 4.22847 21.417
9 1 2.41024 2.11996 20.1716
10 1 6.5183 4.12029 23.6947
11 1 6.28179 4.44148 21.2862
12 1 2.76607 1.44509 18.1018
13 1 5.06328 1.58576 19.9677
14 1 4.49664 3.7528 19.362
15 1 5.87344 1.79893 17.9322
16 2 7.07547 4.02778 18.3323
17 2 4.65638 0.657894 15.8973
18 2 4.65332 3.91326 16.617
19 2 2.17446 2.49232 15.8153
20 2 3.05548 0.801132 13.5936
21 2 2.99285 3.99145 13.7323
22 2 5.54069 4.03219 11.297
23 2 5.71399 2.48258 13.8303
24 2 3.40991 2.58856 11.3555
25 2 3.98581 0.173764 9.09601
26 2 4.10435 3.31167 8.86713
27 2 5.53756 1.1062 11.5812
28 2 1.39653 1.75378 9.12893
29 2 2.3475 2.91041 6.70397
30 2 2.62062 0.173884 6.5701
31 2 5.19331 1.23779 6.59899
32 2 3.28182 3.41908 2.24123
33 2 6.15685 4.28938 4.17087
34 2 1.55368 1.68477 4.23892
35 2 3.86457 2.78588 4.70545
ITEM: TIMESTEP
2900
ITEM: NUMBER OF ATOMS
35
ITEM: BOX BOUNDS xy xz yz pp pp pp
0.0000000000000000e+00 7.6685730000000003e+00 2.5561910000000001e+00
0.0000000000000000e+00 4.4274529999999999e+00 0.0000000000000000e+00
0.0000000000000000e+00 3.0699265000000000e+01 0.0000000000000000e+00
ITEM: ATOMS id type x y z
1 1 2.10603 2.46491 24.5148
2 1 4.95144 2.35829 25.5847
3 1 3.65877 3.89722 26.867
4 1 3.71954 4.58146 24.1195
5 1 2.57736 1.84337 22.3851
6 1 2.94751 1.15168 26.4977
7 1 5.05916 2.2295 23.165
8 1 3.46549 3.86158 22
9 1 2.32817 2.3484 20.337
10 1 6.26054 4.74303 23.9724
11 1 3.3964 -0.201611 21.2848
12 1 3.10133 1.70553 18.0701
13 1 4.97176 1.72763 20.8673
14 1 4.4839 3.86227 19.3206
15 1 5.43444 1.87965 18.3989
16 2 7.3462 3.83692 18.5616
17 2 4.61761 1.31769 15.7804
18 2 4.54533 3.73727 16.5378
19 2 2.08531 2.47115 16.1247
20 2 2.77814 0.979081 13.7403
21 2 3.14581 3.93751 13.71
22 2 5.83832 3.83147 11.2286
23 2 5.61317 2.62331 13.5695
24 2 2.86644 2.41932 11.2972
25 2 4.12349 0.341957 8.69735
26 2 4.17295 3.35264 9.01793
27 2 5.62804 0.824016 11.2644
28 2 1.44932 1.74343 8.97507
29 2 2.46583 3.00468 6.96436
30 2 2.53734 -0.187173 6.39589
31 2 5.24005 1.46758 6.5865
32 2 3.41226 3.12767 2.32397
33 2 6.68626 4.47189 3.82128
34 2 1.04929 1.37832 4.07962
35 2 3.81719 2.87902 4.79117
ITEM: TIMESTEP
3000
ITEM: NUMBER OF ATOMS
35
ITEM: BOX BOUNDS xy xz yz pp pp pp
0.0000000000000000e+00 7.6685730000000003e+00 2.5561910000000001e+00
0.0000000000000000e+00 4.4274529999999999e+00 0.0000000000000000e+00
0.0000000000000000e+00 3.0699265000000000e+01 0.0000000000000000e+00
ITEM: ATOMS id type x y z
1 1 2.33133 2.98781 24.6259
2 1 5.53015 1.69038 26.4973
3 1 3.47228 3.34974 26.4234
4 1 1.20334 0.574545 24.4713
5 1 2.65274 1.07029 22.7546
6 1 2.47413 1.10817 26.5238
7 1 5.07633 2.70347 23.7888
8 1 3.36055 4.43763 21.714
9 1 2.4798 1.86709 20.5485
10 1 3.73927 0.721606 24.7758
11 1 6.10467 3.48484 21.7545
12 1 3.41888 1.66868 18.0155
13 1 4.65798 1.59122 20.8848
14 1 4.76948 4.09099 19.7209
15 1 6.11821 1.8669 18.5963
16 2 2.23871 3.95809 18.3936
17 2 4.66751 1.11505 15.8368
18 2 4.49816 4.42727 16.3844
19 2 1.7204 2.75206 16.1996
20 2 2.74327 1.2177 13.895
21 2 3.0292 3.89598 13.8258
22 2 5.41198 3.93318 11.3061
23 2 5.29561 2.35796 13.4323
24 2 2.98952 2.07178 11.4096
25 2 3.99615 0.540578 8.9572
26 2 4.36627 3.11891 9.03742
27 2 0.332215 0.714508 11.331
28 2 1.70171 1.91333 9.05182
29 2 2.52732 2.92019 6.64966
30 2 5.48671 4.57131 6.34638
31 2 5.24177 1.24325 6.34382
32 2 3.77907 2.78973 2.22783
33 2 3.57874 -0.08762 3.44566
34 2 1.3887 1.59837 3.59431
35 2 3.67957 2.79131 4.49625
ITEM: TIMESTEP
3100
ITEM: NUMBER OF ATOMS
35
ITEM: BOX BOUNDS xy xz yz pp pp pp
0.0000000000000000e+00 7.6685730000000003e+00 2.5561910000000001e+00
0.0000000000000000e+00 4.4274529999999999e+00 0.0000000000000000e+00
0.0000000000000000e+00 3.0699265000000000e+01 0.0000000000000000e+00
ITEM: ATOMS id type x y z
1 1 2.123 2.80288 24.144
2 1 5.34297 1.61892 27.0627
3 1 3.56641 3.49738 26.5005
4 1 1.08967 0.75347 24.3407
5 1 3.71651 1.187 22.713
6 1 2.79255 0.775931 27.2457
7 1 4.57447 3.05606 24.4126
8 1 3.65357 3.9247 21.9192
9 1 2.00438 1.78606 20.2174
10 1 3.82154 0.504702 25.261
11 1 6.32106 3.28503 22.1116
12 1 3.68455 2.64064 17.7704
13 1 4.59588 1.35366 20.6943
14 1 4.90153 3.68812 19.5166
15 1 6.10137 2.08248 18.1371
16 2 2.17992 4.36948 18.8992
17 2 4.71292 1.10797 16.0861
18 2 2.10077 0.0756308 16.6921
19 2 6.67542 2.9949 15.9489
20 2 2.56301 0.593612 14.0029
21 2 2.55355 3.96254 13.7567
22 2 5.32323 3.84227 11.5121
23 2 5.3591 2.38315 13.8825
24 2 3.00249 2.49706 11.5555
25 2 4.31496 0.137681 8.86502
26 2 4.19792 3.41609 8.5305
27 2 5.34843 0.721894 11.3256
28 2 1.47417 1.73948 9.13674
29 2 2.31467 2.90879 6.71382
30 2 2.73251 0.185806 6.13876
31 2 5.47719 1.18877 6.21031
32 2 4.16827 2.65104 1.66876
33 2 6.12334 4.17804 3.39391
34 2 1.49415 1.52115 3.25991
35 2 3.90897 3.03014 4.25108
ITEM: TIMESTEP
3200
ITEM: NUMBER OF ATOMS
35
ITEM: BOX BOUNDS xy xz yz pp pp pp
0.0000000000000000e+00 7.6685730000000003e+00 2.5561910000000001e+00
0.0000000000000000e+00 4.4274529999999999e+00 0.0000000000000000e+00
0.0000000000000000e+00 3.0699265000000000e+01 0.0000000000000000e+00
ITEM: ATOMS id type x y z
1 1 2.41623 2.99797 24.3392
2 1 5.81621 1.82323 26.6503
3 1 3.08429 3.87776 26.4983
4 1 1.15551 0.703699 24.331
5 1 4.06833 1.20332 23.3194
6 1 2.7671 0.525627 27.4813
7 1 4.95478 2.79691 25.1531
8 1 3.51138 3.75429 22.1396
9 1 2.28368 1.59809 20.5081
10 1 3.12833 0.577143 25.1657
11 1 6.36263 3.4023 21.8507
12 1 3.34488 2.21128 18.3862
13 1 4.74079 1.68877 21.0501
14 1 4.3799 3.69765 19.815
15 1 5.61288 2.25978 18.527
16 2 7.05444 4.59621 18.9738
17 2 4.66396 1.19399 16.3678
18 2 2.12702 0.0507683 17.0983
19 2 7.49695 2.80961 15.9992
20 2 2.41038 0.79405 14.0702
21 2 2.57863 3.81155 13.5474
22 2 5.46129 3.92274 11.1849
23 2 4.99346 2.29476 13.7664
24 2 2.68197 2.33701 11.2191
25 2 4.0859 0.154875 8.83025
26 2 4.31025 3.31936 8.26279
27 2 5.37683 1.18542 11.4881
28 2 1.7131 1.54854 8.95669
29 2 2.23395 2.81122 6.30838
30 2 2.60003 0.0798054 5.85262
31 2 4.8481 1.43934 6.02125
32 2 4.4239 2.64281 1.91703
33 2 7.06085 4.35738 3.39356
34 2 1.40023 1.15937 3.13371
35 2 3.8488 2.94023 4.32638
ITEM: TIMESTEP
3300
ITEM: NUMBER OF ATOMS
35
ITEM: BOX BOUNDS xy xz yz pp pp pp
0.0000000000000000e+00 7.6685730000000003e+00 2.5561910000000001e+00
0.0000000000000000e+00 4.4274529999999999e+00 0.0000000000000000e+00
0.0000000000000000e+00 3.0699265000000000e+01 0.0000000000000000e+00
ITEM: ATOMS id type x y z
1 1 1.8592 2.9507 24.0027
2 1 1.59226 1.95309 26.8011
3 1 2.76426 3.93381 26.8241
4 1 0.92328 1.00545 24.5176
5 1 3.53856 1.22294 23.3958
6 1 5.28824 4.15277 27.6112
7 1 4.60149 3.49894 24.8346
8 1 4.00931 3.87651 22.4874
9 1 2.4475 1.75941 21.3741
10 1 4.01702 1.38422 25.8566
11 1 5.95615 3.6479 21.3612
12 1 2.79471 1.75246 18.8176
13 1 5.1341 1.40647 21.1053
14 1 4.06059 4.01298 20.0563
15 1 5.36777 2.18184 19.0221
16 2 6.97211 4.35619 18.8859
17 2 5.03837 1.1378 16.3892
18 2 4.74643 4.1025 17.409
19 2 2.7492 2.95058 16.1253
20 2 2.21837 1.04831 14.1104
21 2 2.43651 3.8645 13.272
22 2 5.13783 4.01595 11.0539
23 2 4.73131 2.49024 13.9274
24 2 2.94201 2.45436 10.8739
25 2 4.24043 0.286075 8.75872
26 2 4.30123 2.81238 8.22081
27 2 5.35721 1.20591 11.1594
28 2 1.61718 1.56316 8.28533
29 2 1.69979 2.99719 6.07897
30 2 2.22054 0.272239 5.85566
31 2 5.0304 0.916849 6.35068
32 2 4.6938 2.63802 2.04187
33 2 6.72394 4.23716 3.33501
34 2 2.13472 1.46136 3.24772
35 2 4.07401 2.64632 4.33485
ITEM: TIMESTEP
3400
ITEM: NUMBER OF ATOMS
35
ITEM: BOX BOUNDS xy xz yz pp pp pp
0.0000000000000000e+00 7.6685730000000003e+00 2.5561910000000001e+00
0.0000000000000000e+00 4.4274529999999999e+00 0.0000000000000000e+00
0.0000000000000000e+00 3.0699265000000000e+01 0.0000000000000000e+00
ITEM: ATOMS id type x y z
1 1 7.0389 3.77424 23.7324
2 1 1.78557 1.67182 26.4082
3 1 2.91017 4.0228 26.4455
4 1 5.67075 1.57134 24.2581
5 1 3.03585 1.76085 24.1932
6 1 5.55203 3.16428 27.1115
7 1 4.8734 4.14757 25.1619
8 1 4.15318 3.68051 22.8492
9 1 3.01551 2.08944 21.5465
10 1 3.85067 1.77311 26.9213
11 1 6.16018 3.61469 21.2543
12 1 2.60632 1.69332 18.9805
13 1 5.15217 0.909507 22.1162
14 1 4.10862 4.20459 19.869
15 1 5.27746 1.98177 18.7858
16 2 7.01089 3.91727 18.6435
17 2 5.3879 1.22363 16.3117
18 2 4.94967 4.06949 16.8918
19 2 2.30099 2.77884 16.1782
20 2 1.95892 0.94601 13.9818
21 2 7.06864 4.16592 13.2201
22 2 5.13193 4.19758 11.2333
23 2 4.85546 2.75393 14.0765
24 2 2.8341 2.5703 10.7964
25 2 6.74002 4.08041 8.90893
26 2 4.02491 3.07151 8.01869
27 2 5.46811 1.31641 10.9019
28 2 1.83463 1.39769 8.54382
29 2 6.8048 2.65532 5.79966
30 2 2.40869 0.480818 6.01684
31 2 4.89371 0.890912 6.39232
32 2 4.90366 2.77027 2.03937
33 2 6.88667 4.15548 3.31806
34 2 1.7681 1.326 3.296
35 2 4.39978 2.65306 4.59717
ITEM: TIMESTEP
3500
ITEM: NUMBER OF ATOMS
35
ITEM: BOX BOUNDS xy xz yz pp pp pp
0.0000000000000000e+00 7.6685730000000003e+00 2.5561910000000001e+00
0.0000000000000000e+00 4.4274529999999999e+00 0.0000000000000000e+00
0.0000000000000000e+00 3.0699265000000000e+01 0.0000000000000000e+00
ITEM: ATOMS id type x y z
1 1 6.97988 4.62809 23.5535
2 1 1.18016 1.33717 26.4214
3 1 2.37661 3.76173 25.7839
4 1 5.60501 2.02684 24.1204
5 1 3.41188 2.1759 24.5273
6 1 5.75866 3.80708 27.6989
7 1 5.0757 4.04586 25.4359
8 1 4.41165 3.90524 22.6254
9 1 3.08407 1.76897 21.3142
10 1 4.24443 1.41072 27.1095
11 1 6.59005 3.35865 21.0386
12 1 2.75442 1.20395 18.3502
13 1 5.51574 1.14222 21.4579
14 1 4.06602 4.0098 20.2308
15 1 5.26674 2.20408 19.0379
16 2 7.30934 3.7407 18.4051
17 2 4.84757 1.09649 16.3211
18 2 4.95402 4.16506 16.2633
19 2 2.40419 2.59996 16.0038
20 2 1.87674 1.29748 13.587
21 2 7.1167 4.38578 13.4566
22 2 5.15439 4.24439 11.3926
23 2 4.52607 2.68542 13.8429
24 2 2.8766 2.59367 11.3681
25 2 6.4731 3.96493 8.92369
26 2 4.09167 2.75277 8.00565
27 2 5.2299 1.62723 10.9446
28 2 1.86343 1.11593 8.77725
29 2 2.08408 2.91345 5.97616
30 2 2.63309 -0.0250659 6.11217
31 2 5.23265 0.990752 6.6359
32 2 4.69809 2.87769 2.10325
33 2 7.05047 4.26246 3.4061
34 2 1.70037 1.07163 3.43362
35 2 3.99982 2.80502 4.53311
ITEM: TIMESTEP
3600
ITEM: NUMBER OF ATOMS
35
ITEM: BOX BOUNDS xy xz yz pp pp pp
0.0000000000000000e+00 7.6685730000000003e+00 2.5561910000000001e+00
0.0000000000000000e+00 4.4274529999999999e+00 0.0000000000000000e+00
0.0000000000000000e+00 3.0699265000000000e+01 0.0000000000000000e+00
ITEM: ATOMS id type x y z
1 1 4.21802 0.133767 22.8118
2 1 1.42126 1.76327 26.6316
3 1 2.23218 3.99539 25.7098
4 1 6.67427 2.21602 23.7055
5 1 3.81479 1.79878 24.3712
6 1 5.44249 3.8219 27.8525
7 1 4.7187 3.86886 25.3706
8 1 4.12594 4.17516 22.8288
9 1 3.05569 1.33309 20.8784
10 1 3.66367 1.95571 26.6635
11 1 7.12316 3.74388 20.7398
12 1 2.28696 0.847815 18.3476
13 1 5.72774 1.72166 20.8979
14 1 4.60435 3.77891 20.3225
15 1 5.32892 2.15498 18.178
16 2 2.71258 3.76126 18.2593
17 2 4.62426 1.09208 16.2655
18 2 4.7677 3.96243 15.8802
19 2 2.28867 2.59348 15.8507
20 2 1.6811 1.50752 13.5752
21 2 7.12745 4.42531 13.8378
22 2 5.07217 4.32274 11.3669
23 2 4.36157 2.76717 13.627
24 2 2.63434 3.0501 11.3711
25 2 6.80747 3.87798 8.90325
26 2 4.10533 2.41998 8.68226
27 2 5.13007 1.30628 11.0093
28 2 1.59048 1.04715 8.94159
29 2 2.33999 2.75133 6.6477
30 2 2.8141 0.140467 6.285
31 2 5.31614 0.946659 6.23191
32 2 4.42176 2.88035 2.15991
33 2 6.61471 4.15277 3.56963
34 2 1.97189 1.40863 3.64403
35 2 4.3917 2.4183 4.5762
ITEM: TIMESTEP
3700
ITEM: NUMBER OF ATOMS
35
ITEM: BOX BOUNDS xy xz yz pp pp pp
0.0000000000000000e+00 7.6685730000000003e+00 2.5561910000000001e+00
0.0000000000000000e+00 4.4274529999999999e+00 0.0000000000000000e+00
0.0000000000000000e+00 3.0699265000000000e+01 0.0000000000000000e+00
ITEM: ATOMS id type x y z
1 1 6.33346 4.35255 22.622
2 1 0.972754 1.81089 25.8477
3 1 7.12349 4.42401 25.5215
4 1 1.8471 1.96479 23.3336
5 1 4.70283 1.96081 23.9813
6 1 5.40071 4.16773 27.0364
7 1 4.69305 4.29356 24.9542
8 1 3.81884 4.09637 22.7278
9 1 3.57695 1.60979 20.4081
10 1 3.61867 2.2735 26.5721
11 1 2.21208 3.96558 20.5061
12 1 3.04097 0.923641 18.1889
13 1 6.15723 1.37191 20.6364
14 1 4.95557 3.74929 20.7164
15 1 5.51705 2.91799 18.5155
16 2 2.99785 3.76249 18.0981
17 2 4.52448 1.17731 16.0931
18 2 4.59015 4.01761 15.9702
19 2 1.83378 2.44432 16.106
20 2 1.62607 1.2904 13.591
21 2 6.73478 4.17801 13.7207
22 2 5.21766 4.48303 11.2636
23 2 4.29923 2.88639 13.418
24 2 2.43282 2.9127 11.2115
25 2 6.61684 4.03564 8.86038
26 2 4.38469 2.35947 9.04921
27 2 5.00138 1.47993 11.5032
28 2 1.54622 0.670407 8.85989
29 2 2.81429 2.47507 6.64982
30 2 2.81145 -0.254181 6.6802
31 2 5.49532 0.815472 6.28522
32 2 4.03207 2.88652 2.3192
33 2 6.94121 4.18134 3.76595
34 2 1.67702 1.33812 3.78032
35 2 4.4626 2.93842 4.77293
ITEM: TIMESTEP
3800
ITEM: NUMBER OF ATOMS
35
ITEM: BOX BOUNDS xy xz yz pp pp pp
0.0000000000000000e+00 7.6685730000000003e+00 2.5561910000000001e+00
0.0000000000000000e+00 4.4274529999999999e+00 0.0000000000000000e+00
0.0000000000000000e+00 3.0699265000000000e+01 0.0000000000000000e+00
ITEM: ATOMS id type x y z
1 1 3.45666 -0.161406 22.803
2 1 0.883207 2.32728 25.1644
3 1 7.30958 4.35531 24.6659
4 1 2.20625 1.99163 22.7365
5 1 4.90535 2.34762 23.1408
6 1 2.91175 0.470795 26.6541
7 1 1.87801 0.000385584 24.5964
8 1 3.17751 4.3064 22.4228
9 1 4.50622 1.59684 20.7572
10 1 3.52367 2.36351 25.2742
11 1 2.48286 3.61709 20.2598
12 1 3.34128 1.34648 18.4491
13 1 1.74352 1.51272 20.5716
14 1 4.93064 3.9099 20.7469
15 1 5.88015 2.52808 18.4225
16 2 3.39454 4.17264 18.2703
17 2 4.19418 1.27107 15.8933
18 2 4.274 4.13661 16.0246
19 2 1.58081 2.50615 16.2096
20 2 1.89761 1.13424 13.8306
21 2 6.496 3.82745 13.5401
22 2 2.63595 0.00637917 11.2141
23 2 3.72017 2.79446 13.8656
24 2 2.53256 2.7291 11.164
25 2 6.87003 3.90449 9.17869
26 2 4.27268 2.25953 9.1051
27 2 5.25945 1.38656 11.6673
28 2 1.41066 0.732463 8.9365
29 2 2.93509 2.09666 6.80513
30 2 5.60497 3.73172 6.6706
31 2 5.49817 1.18883 6.45549
32 2 3.63738 2.71263 2.32872
33 2 6.95394 4.46097 4.08202
34 2 1.79473 1.28867 3.8779
35 2 4.39327 3.06616 4.60056
ITEM: TIMESTEP
3900
ITEM: NUMBER OF ATOMS
35
ITEM: BOX BOUNDS xy xz yz pp pp pp
0.0000000000000000e+00 7.6685730000000003e+00 2.5561910000000001e+00
0.0000000000000000e+00 4.4274529999999999e+00 0.0000000000000000e+00
0.0000000000000000e+00 3.0699265000000000e+01 0.0000000000000000e+00
ITEM: ATOMS id type x y z
1 1 3.49259 0.349682 22.4628
2 1 6.06864 2.61112 25.07
3 1 4.61915 0.151772 24.512
4 1 1.9338 2.9433 22.4949
5 1 4.75923 2.46992 22.3814
6 1 3.52761 1.27287 26.4413
7 1 1.87044 0.140427 24.5633
8 1 1.07983 0.162252 22.2922
9 1 4.02709 1.19651 20.2329
10 1 3.3233 2.33533 24.5377
11 1 2.92579 3.34649 20.6638
12 1 3.3634 1.45981 18.1805
13 1 1.75081 1.31955 20.5328
14 1 5.2463 3.46065 20.3643
15 1 5.3232 2.67867 18.0668
16 2 1.01072 0.2563 18.5506
17 2 4.11819 0.941964 16.0583
18 2 4.20855 4.02455 16.0943
19 2 1.73053 2.89146 16.2562
20 2 1.23204 0.949319 13.8658
21 2 6.44449 3.90749 13.7868
22 2 5.14543 3.96633 11.3397
23 2 4.13688 2.58057 13.7181
24 2 2.86171 2.77659 11.6482
25 2 6.7997 3.74471 9.00906
26 2 4.2321 2.20376 9.1965
27 2 5.24169 1.10289 11.5806
28 2 1.79364 1.04092 9.01147
29 2 2.97179 2.28376 6.65628
30 2 5.80003 3.72763 6.74737
31 2 0.429593 0.621465 6.56088
32 2 3.21105 2.46467 2.06666
33 2 4.11002 0.0448585 4.3121
34 2 1.8995 1.71347 4.19091
35 2 4.24868 2.94979 4.42912
ITEM: TIMESTEP
4000
ITEM: NUMBER OF ATOMS
35
ITEM: BOX BOUNDS xy xz yz pp pp pp
0.0000000000000000e+00 7.6685730000000003e+00 2.5561910000000001e+00
0.0000000000000000e+00 4.4274529999999999e+00 0.0000000000000000e+00
0.0000000000000000e+00 3.0699265000000000e+01 0.0000000000000000e+00
ITEM: ATOMS id type x y z
1 1 2.87788 0.872247 22.396
2 1 5.79445 2.30302 24.8269
3 1 4.65299 0.400717 25.0239
4 1 1.8203 3.09155 22.878
5 1 4.62263 3.09688 22.6638
6 1 4.31754 1.69127 26.7799
7 1 2.50255 0.386595 24.8323
8 1 0.552628 0.512635 22.8356
9 1 4.25133 1.11545 20.0429
10 1 3.43213 2.74639 24.6807
11 1 3.25012 3.0663 20.2737
12 1 2.55629 1.86569 18.5276
13 1 1.3534 1.2614 20.5872
14 1 5.94339 3.56131 20.2759
15 1 5.1838 2.97128 18.3454
16 2 0.545344 0.387272 18.1608
17 2 4.47183 1.05313 16.2333
18 2 4.22636 4.04728 16.0544
19 2 1.99537 2.40677 15.9557
20 2 1.49533 0.835908 13.8325
21 2 6.60279 4.07712 13.8503
22 2 5.36648 4.02357 11.3581
23 2 4.23349 2.43743 13.9479
24 2 2.40819 2.35154 11.7471
25 2 7.02259 3.85697 9.14846
26 2 4.42947 2.33952 8.9145
27 2 5.17556 0.980195 11.1288
28 2 1.92386 0.990479 9.12252
29 2 3.07969 2.07494 6.61428
30 2 5.36231 3.54699 6.59974
31 2 0.593685 0.525995 6.75777
32 2 2.75943 2.25662 2.34597
33 2 4.29234 0.151116 3.93883
34 2 1.4007 1.66169 4.53553
35 2 4.31167 3.11883 4.06908
ITEM: TIMESTEP
4100
ITEM: NUMBER OF ATOMS
35
ITEM: BOX BOUNDS xy xz yz pp pp pp
0.0000000000000000e+00 7.6685730000000003e+00 2.5561910000000001e+00
0.0000000000000000e+00 4.4274529999999999e+00 0.0000000000000000e+00
0.0000000000000000e+00 3.0699265000000000e+01 0.0000000000000000e+00
ITEM: ATOMS id type x y z
1 1 3.13566 1.04247 22.9954
2 1 6.02055 2.65203 24.9891
3 1 4.57211 0.125332 25.6801
4 1 1.95569 3.28416 23.0559
5 1 4.26903 3.38766 23.1115
6 1 4.8774 2.49586 26.8901
7 1 1.91721 0.409774 24.9887
8 1 0.549738 1.25931 23.037
9 1 4.35855 1.52995 20.6356
10 1 3.52515 2.294 24.9979
11 1 2.86037 3.67864 20.858
12 1 2.83493 1.83102 18.217
13 1 2.14016 1.34231 20.3968
14 1 5.71032 3.34067 20.8032
15 1 5.5035 3.0118 18.4214
16 2 0.222569 -0.0752434 18.5309
17 2 4.18347 1.23922 16.0319
18 2 4.66605 3.96026 16.0528
19 2 1.72529 2.33371 15.8531
20 2 1.80698 0.783165 13.5709
21 2 6.9488 4.08603 13.7619
22 2 5.02199 3.74569 11.346
23 2 4.22056 2.46135 13.569
24 2 2.60708 2.43576 11.35
25 2 7.12141 3.70633 8.95482
26 2 4.52956 2.74279 8.87422
27 2 5.00377 1.00684 11.297
28 2 2.21522 0.960048 9.03239
29 2 3.11987 1.71918 6.40201
30 2 5.77184 3.4369 6.38739
31 2 0.212199 0.492924 6.85147
32 2 2.14226 1.93224 2.52114
33 2 4.19832 0.247604 3.76327
34 2 1.26471 1.464 4.79177
35 2 4.32158 3.48153 3.93131
ITEM: TIMESTEP
4200
ITEM: NUMBER OF ATOMS
35
ITEM: BOX BOUNDS xy xz yz pp pp pp
0.0000000000000000e+00 7.6685730000000003e+00 2.5561910000000001e+00
0.0000000000000000e+00 4.4274529999999999e+00 0.0000000000000000e+00
0.0000000000000000e+00 3.0699265000000000e+01 0.0000000000000000e+00
ITEM: ATOMS id type x y z
1 1 3.30465 1.58764 22.9402
2 1 5.79954 2.44659 25.2225
3 1 4.57251 0.149523 26.1967
4 1 1.9688 3.75867 23.3437
5 1 4.63463 3.2779 23.312
6 1 5.0837 3.28823 27.4892
7 1 1.83751 0.0438308 25.8132
8 1 5.82085 1.40305 22.9021
9 1 4.67236 1.45151 20.6066
10 1 3.0486 2.40331 25.6898
11 1 3.15861 3.5608 21.4068
12 1 3.03354 0.910045 18.1697
13 1 1.89934 1.79668 20.3495
14 1 5.58605 4.19041 21.0047
15 1 5.54736 2.64135 18.5335
16 2 2.77893 4.30495 18.3682
17 2 4.48271 0.882635 15.8339
18 2 4.14356 4.0006 16.1135
19 2 1.58377 2.58801 16.2871
20 2 1.85663 1.15495 13.6373
21 2 7.25086 3.71699 13.6085
22 2 5.03465 3.91022 11.2159
23 2 4.54666 2.42536 13.681
24 2 2.47748 2.50126 11.1
25 2 7.00185 3.91081 8.91143
26 2 4.69947 2.34004 8.74034
27 2 4.82689 0.839208 11.1894
28 2 2.3623 1.02288 8.65952
29 2 3.48139 1.98473 6.28548
30 2 5.62282 3.58782 6.41929
31 2 5.85387 0.104086 6.91665
32 2 1.61753 1.75971 2.41732
33 2 3.99237 0.32482 3.64486
34 2 1.08489 1.56608 4.68009
35 2 4.05389 3.23257 3.79277
ITEM: TIMESTEP
4300
ITEM: NUMBER OF ATOMS
35
ITEM: BOX BOUNDS xy xz yz pp pp pp
0.0000000000000000e+00 7.6685730000000003e+00 2.5561910000000001e+00
0.0000000000000000e+00 4.4274529999999999e+00 0.0000000000000000e+00
0.0000000000000000e+00 3.0699265000000000e+01 0.0000000000000000e+00
ITEM: ATOMS id type x y z
1 1 3.50877 1.47123 23.0613
2 1 5.24679 1.85348 25.5645
3 1 4.13446 0.257945 26.5502
4 1 7.29051 4.10088 24.3071
5 1 4.61279 3.81841 23.5228
6 1 5.37031 3.34003 27.747
7 1 1.97873 0.560615 25.6862
8 1 5.82183 1.54817 22.6954
9 1 4.50154 1.83195 20.7006
10 1 3.11551 2.7238 25.9844
11 1 3.53523 4.07098 21.2591
12 1 2.8814 0.706449 18.4523
13 1 1.86941 2.18677 19.9733
14 1 5.791 4.09984 20.9325
15 1 4.54374 2.43542 18.1908
16 2 2.94712 4.22446 18.6674
17 2 4.13501 0.907369 15.9359
18 2 4.28881 3.71735 15.9722
19 2 1.77432 2.37276 16.6799
20 2 2.36513 0.848965 13.8135
21 2 7.27135 3.9758 13.4453
22 2 4.78445 3.97616 11.2434
23 2 4.9145 2.53179 13.6752
24 2 2.11857 2.23908 11.2688
25 2 7.24094 3.86433 8.82082
26 2 4.85313 2.27776 8.74448
27 2 4.91729 1.10276 11.2519
28 2 2.11367 1.16251 8.73871
29 2 3.6012 1.78679 6.16436
30 2 6.08366 3.64144 6.32155
31 2 0.681395 0.12709 6.35145
32 2 1.21113 1.69104 2.09212
33 2 3.75257 0.167761 3.6654
34 2 1.3383 1.79252 4.55596
35 2 3.55607 3.01378 3.51572
ITEM: TIMESTEP
4400
ITEM: NUMBER OF ATOMS
35
ITEM: BOX BOUNDS xy xz yz pp pp pp
0.0000000000000000e+00 7.6685730000000003e+00 2.5561910000000001e+00
0.0000000000000000e+00 4.4274529999999999e+00 0.0000000000000000e+00
0.0000000000000000e+00 3.0699265000000000e+01 0.0000000000000000e+00
ITEM: ATOMS id type x y z
1 1 3.25415 1.64577 23.7063
2 1 5.37269 2.79053 24.8408
3 1 4.57345 0.56931 27.0665
4 1 7.4055 4.24503 24.4059
5 1 4.55215 4.07059 23.1016
6 1 5.08451 2.71458 27.1042
7 1 1.84942 0.6251 25.7625
8 1 6.53724 2.22082 23.036
9 1 4.05474 2.27194 20.6142
10 1 2.7634 2.79591 26.442
11 1 0.526654 0.464397 21.5827
12 1 5.3991 4.14917 18.4103
13 1 1.7759 1.845 19.6429
14 1 5.91757 3.97923 20.9924
15 1 4.59052 2.23691 18.4166
16 2 2.90741 4.37909 18.9055
17 2 4.12063 0.753585 16.2321
18 2 4.46882 3.59174 15.9771
19 2 1.65035 2.07567 16.8417
20 2 2.48439 1.03354 13.7425
21 2 2.59069 4.03676 13.8744
22 2 4.56742 3.7967 11.1348
23 2 5.2943 2.35563 13.5638
24 2 2.21933 2.67904 11.3387
25 2 2.34524 3.96802 8.87351
26 2 4.59965 2.71401 8.67154
27 2 4.50966 0.955256 11.1604
28 2 2.29767 0.876252 8.74884
29 2 3.56646 1.7076 6.33686
30 2 5.85578 3.04384 6.448
31 2 1.06675 0.0925958 6.02965
32 2 5.69644 1.46313 1.84512
33 2 3.5213 0.130098 3.55986
34 2 1.53668 1.85255 4.25275
35 2 3.72867 3.3481 3.21225
ITEM: TIMESTEP
4500
ITEM: NUMBER OF ATOMS
35
ITEM: BOX BOUNDS xy xz yz pp pp pp
0.0000000000000000e+00 7.6685730000000003e+00 2.5561910000000001e+00
0.0000000000000000e+00 4.4274529999999999e+00 0.0000000000000000e+00
0.0000000000000000e+00 3.0699265000000000e+01 0.0000000000000000e+00
ITEM: ATOMS id type x y z
1 1 3.7868 1.94971 24.7485
2 1 5.929 3.11409 24.5171
3 1 4.38821 0.472725 26.4416
4 1 7.80929 4.19512 24.2577
5 1 4.69173 4.70503 22.9478
6 1 5.12782 3.27229 27.1705
7 1 1.80965 0.425804 25.6086
8 1 1.64607 2.98426 22.4634
9 1 3.6158 3.09515 21.4782
10 1 2.37195 2.54056 26.3297
11 1 4.7976 1.12695 21.7746
12 1 5.47747 4.09515 18.3494
13 1 1.53293 1.9678 19.8485
14 1 5.56636 4.23686 20.5262
15 1 3.82813 1.91543 18.7381
16 2 3.00092 4.00413 18.7458
17 2 4.59531 0.434832 16.4085
18 2 4.2917 3.43871 16.3985
19 2 1.68808 1.96503 16.6069
20 2 2.96027 1.20207 13.7084
21 2 2.82142 3.76135 14.139
22 2 4.58873 4.23378 11.3608
23 2 5.28744 2.4181 13.7067
24 2 1.96075 2.47788 11.2131
25 2 7.15534 4.19601 8.40236
26 2 4.77754 2.38089 9.08027
27 2 4.49215 0.959715 11.1366
28 2 2.11216 1.13674 8.7358
29 2 3.47287 1.40464 6.1422
30 2 6.15993 2.82102 6.49915
31 2 3.53808 4.12196 5.83917
32 2 5.14786 1.27028 1.88848
33 2 3.81117 0.374005 3.63827
34 2 1.28862 2.04018 3.92762
35 2 3.99476 3.41982 3.14548
ITEM: TIMESTEP
4600
ITEM: NUMBER OF ATOMS
35
ITEM: BOX BOUNDS xy xz yz pp pp pp
0.0000000000000000e+00 7.6685730000000003e+00 2.5561910000000001e+00
0.0000000000000000e+00 4.4274529999999999e+00 0.0000000000000000e+00
0.0000000000000000e+00 3.0699265000000000e+01 0.0000000000000000e+00
ITEM: ATOMS id type x y z
1 1 4.05112 2.44636 24.3075
2 1 6.21091 2.69306 25.1635
3 1 4.32381 0.529193 26.0088
4 1 3.11338 4.47818 23.4105
5 1 2.51014 1.59363 22.8318
6 1 4.81693 3.25251 27.1354
7 1 1.86339 0.62352 25.2078
8 1 5.90613 3.32872 21.9623
9 1 3.32647 3.72069 21.2964
10 1 2.56029 2.71919 27.0451
11 1 4.64188 1.2434 21.7774
12 1 5.79569 3.3528 18.4092
13 1 0.995769 2.01921 20.0955
14 1 2.84971 0.848631 20.4263
15 1 4.03471 1.90088 18.8238
16 2 3.17402 3.99698 19.0437
17 2 4.42889 0.378082 16.3594
18 2 4.21282 2.94224 16.1516
19 2 1.93007 1.74023 16.5161
20 2 3.10949 0.641132 14.2397
21 2 2.96413 3.97888 13.5956
22 2 4.32128 4.03699 11.5754
23 2 5.69859 2.50718 14.0121
24 2 1.90635 2.66969 11.0245
25 2 7.43246 4.16355 8.37338
26 2 4.48737 2.86673 9.0501
27 2 4.62552 1.12026 11.6257
28 2 1.85559 1.15331 8.60944
29 2 3.55768 1.38394 6.41121
30 2 5.95246 2.52094 6.35799
31 2 3.60427 3.96524 5.7201
32 2 4.92764 1.22738 1.54758
33 2 4.03075 0.316494 3.92272
34 2 1.17462 2.02988 3.79697
35 2 3.84452 3.19008 3.24583
ITEM: TIMESTEP
4700
ITEM: NUMBER OF ATOMS
35
ITEM: BOX BOUNDS xy xz yz pp pp pp
0.0000000000000000e+00 7.6685730000000003e+00 2.5561910000000001e+00
0.0000000000000000e+00 4.4274529999999999e+00 0.0000000000000000e+00
0.0000000000000000e+00 3.0699265000000000e+01 0.0000000000000000e+00
ITEM: ATOMS id type x y z
1 1 4.34395 2.84529 24.19
2 1 2.01355 2.97801 24.87
3 1 4.9623 1.07175 25.9754
4 1 5.04599 0.268758 23.6839
5 1 1.29366 2.24125 22.8253
6 1 4.97079 3.09124 26.6274
7 1 2.62934 0.715256 25.2286
8 1 5.12302 4.61556 22.7428
9 1 3.12345 3.2742 21.4524
10 1 2.5267 2.54193 27.2672
11 1 4.56962 1.55555 21.9101
12 1 5.54952 3.44796 18.0156
13 1 5.87523 2.49235 19.8352
14 1 3.08322 0.7102 19.858
15 1 4.01307 1.47925 17.9797
16 2 3.40579 4.33553 18.6927
17 2 7.30139 4.19566 16.2113
18 2 4.24416 3.05925 15.897
19 2 1.64684 1.32784 17.0339
20 2 2.95324 0.699488 14.2543
21 2 3.14727 3.70354 13.7436
22 2 4.81929 4.10431 11.1867
23 2 6.05249 2.15812 14.0836
24 2 2.00797 2.91544 11.111
25 2 6.95712 4.21579 8.67062
26 2 4.59129 2.88615 8.71594
27 2 4.1363 1.43122 11.641
28 2 1.87553 1.35221 9.00482
29 2 3.3248 1.3294 6.77438
30 2 5.83889 2.45427 6.2644
31 2 3.78241 4.29891 5.93523
32 2 4.78969 1.10944 1.64612
33 2 3.91142 0.173541 4.01644
34 2 1.43558 1.47162 3.60357
35 2 3.72539 2.97927 3.19837
ITEM: TIMESTEP
4800
ITEM: NUMBER OF ATOMS
35
ITEM: BOX BOUNDS xy xz yz pp pp pp
0.0000000000000000e+00 7.6685730000000003e+00 2.5561910000000001e+00
0.0000000000000000e+00 4.4274529999999999e+00 0.0000000000000000e+00
0.0000000000000000e+00 3.0699265000000000e+01 0.0000000000000000e+00
ITEM: ATOMS id type x y z
1 1 4.05351 2.71882 23.9239
2 1 1.94582 3.21475 25.0833
3 1 6.04965 0.691377 26.1812
4 1 4.99484 0.537282 23.6117
5 1 6.17339 3.27711 22.6396
6 1 5.05567 3.4811 26.6079
7 1 3.52058 0.86362 25.2361
8 1 2.10486 0.888982 23.0291
9 1 2.99205 4.05074 21.4428
10 1 2.54201 2.1916 27.2672
11 1 4.08362 1.6698 21.3854
12 1 5.86057 4.02725 18.097
13 1 6.20788 2.41648 20.4046
14 1 2.44179 0.507241 19.9201
15 1 4.0642 1.90557 18.3661
16 2 2.8556 3.87925 18.9846
17 2 7.31698 3.90796 15.9181
18 2 4.63453 2.70147 15.9538
19 2 1.8396 1.48316 16.8607
20 2 3.42395 0.679969 13.9151
21 2 3.34421 3.64415 13.3544
22 2 4.54237 4.3233 11.3249
23 2 5.72146 2.01675 13.5443
24 2 1.95508 3.06182 11.3457
25 2 6.85834 4.45357 8.96864
26 2 4.45312 2.76597 8.62909
27 2 4.64273 1.4831 11.3639
28 2 1.57981 1.46705 9.1571
29 2 3.24661 1.32116 6.3269
30 2 6.00357 2.70214 5.97163
31 2 3.28598 4.19602 6.31576
32 2 4.55306 0.806538 2.11069
33 2 3.968 -0.0716343 4.26019
34 2 1.68835 1.19564 3.49463
35 2 3.88922 2.94024 3.62664
ITEM: TIMESTEP
4900
ITEM: NUMBER OF ATOMS
35
ITEM: BOX BOUNDS xy xz yz pp pp pp
0.0000000000000000e+00 7.6685730000000003e+00 2.5561910000000001e+00
0.0000000000000000e+00 4.4274529999999999e+00 0.0000000000000000e+00
0.0000000000000000e+00 3.0699265000000000e+01 0.0000000000000000e+00
ITEM: ATOMS id type x y z
1 1 3.97744 3.53163 23.984
2 1 6.62537 2.93029 24.9009
3 1 1.36316 0.52505 25.5932
4 1 5.05577 1.41286 23.7701
5 1 5.79004 3.77112 22.3775
6 1 4.97322 2.65785 26.6396
7 1 3.64321 1.21079 25.4681
8 1 2.60769 1.81947 23.1631
9 1 2.98307 4.30244 21.8303
10 1 2.65869 2.09074 27.4545
11 1 3.90384 2.09655 21.1049
12 1 5.25112 3.69924 18.2138
13 1 5.95835 2.8037 20.227
14 1 2.51745 0.453374 20.1181
15 1 4.77635 1.25484 18.8043
16 2 2.79614 3.45308 18.7044
17 2 7.32777 4.2366 16.1471
18 2 4.58427 2.48034 16.0955
19 2 2.09366 1.31054 16.6136
20 2 3.25104 0.77503 13.4697
21 2 3.65171 3.50197 13.9884
22 2 4.49604 4.45232 11.1349
23 2 6.13671 2.02683 13.6587
24 2 1.87901 2.9921 11.0878
25 2 4.18282 -0.0391597 8.72841
26 2 3.97653 3.06714 8.8318
27 2 4.65144 1.51814 10.8063
28 2 1.80319 1.49433 8.44205
29 2 3.21734 1.38708 6.33702
30 2 5.66606 2.39648 6.41536
31 2 3.04039 4.19741 6.66381
32 2 4.43546 0.77951 1.88852
33 2 6.90115 4.06305 4.47088
34 2 1.6004 1.35238 3.5605
35 2 4.11338 2.76857 4.22284
ITEM: TIMESTEP
5000
ITEM: NUMBER OF ATOMS
35
ITEM: BOX BOUNDS xy xz yz pp pp pp
0.0000000000000000e+00 7.6685730000000003e+00 2.5561910000000001e+00
0.0000000000000000e+00 4.4274529999999999e+00 0.0000000000000000e+00
0.0000000000000000e+00 3.0699265000000000e+01 0.0000000000000000e+00
ITEM: ATOMS id type x y z
1 1 3.76195 4.27932 24.1873
2 1 6.84908 3.08782 24.9159
3 1 0.934705 0.449922 26.6714
4 1 5.23484 1.7728 23.156
5 1 5.80184 4.33286 22.521
6 1 4.93161 2.64097 26.4998
7 1 3.52978 1.08582 25.1013
8 1 2.42605 2.02785 22.8353
9 1 0.25407 0.281179 21.1463
10 1 2.3745 2.6323 26.8986
11 1 4.14112 2.79753 21.1497
12 1 5.7623 3.77366 18.2844
13 1 6.6627 2.66664 20.7929
14 1 2.29101 0.59642 19.7762
15 1 5.12949 1.06424 18.6011
16 2 3.03864 2.5526 18.3053
17 2 7.08488 4.1696 16.268
18 2 4.60224 2.56576 16.2448
19 2 2.06863 1.09423 16.2805
20 2 3.796 0.549759 13.4601
21 2 3.48475 3.54001 13.8195
22 2 1.95402 0.26877 11.259
23 2 6.10347 2.2354 14.073
24 2 2.11269 2.96157 11.2727
25 2 6.36194 4.36492 8.44288
26 2 4.07975 3.15018 8.91806
27 2 4.41474 1.48115 11.168
28 2 1.69992 1.64287 8.89827
29 2 2.84119 1.0442 5.932
30 2 5.35233 2.55762 6.62906
31 2 3.38506 4.07442 6.42049
32 2 4.39051 0.974375 2.31045
33 2 6.81 3.98867 4.18235
34 2 1.57736 1.15671 3.78374
35 2 4.451 2.66206 3.98993
ITEM: TIMESTEP
5100
ITEM: NUMBER OF ATOMS
35
ITEM: BOX BOUNDS xy xz yz pp pp pp
0.0000000000000000e+00 7.6685730000000003e+00 2.5561910000000001e+00
0.0000000000000000e+00 4.4274529999999999e+00 0.0000000000000000e+00
0.0000000000000000e+00 3.0699265000000000e+01 0.0000000000000000e+00
ITEM: ATOMS id type x y z
1 1 1.07964 0.291607 24.5092
2 1 6.46917 3.27865 24.5357
3 1 0.458305 0.878057 26.7733
4 1 5.02355 2.01671 23.1868
5 1 6.07116 4.31106 22.5891
6 1 4.8046 3.24707 25.8193
7 1 3.28468 1.21562 24.8642
8 1 2.7503 2.43038 22.6349
9 1 4.70596 0.979205 20.6673
10 1 2.24464 2.30065 26.8412
11 1 4.2626 3.07874 21.1375
12 1 6.12024 3.25532 18.3235
13 1 1.80299 2.83807 20.4609
14 1 2.55288 0.517999 20.0931
15 1 0.621315 0.734359 17.9721
16 2 3.36737 2.00922 18.4239
17 2 7.23033 3.89613 16.029
18 2 4.60757 2.75399 16.1251
19 2 2.0117 0.930014 16.1257
20 2 3.63705 0.689475 14.0179
21 2 3.60831 3.4199 13.7161
22 2 2.03729 0.261129 11.7825
23 2 6.08373 2.04181 13.7673
24 2 1.95563 3.26121 11.5338
25 2 4.0519 0.371545 8.5295
26 2 3.86461 2.93815 8.92021
27 2 4.68087 1.6149 11.3715
28 2 1.28139 1.70142 9.21556
29 2 3.13229 1.21427 6.07745
30 2 5.75955 2.21372 6.45025
31 2 2.95495 3.93673 6.49556
32 2 4.11427 1.02211 2.14614
33 2 6.89733 3.58349 4.2093
34 2 1.56705 1.00411 3.42454
35 2 4.26749 2.93231 4.04451
ITEM: TIMESTEP
5200
ITEM: NUMBER OF ATOMS
35
ITEM: BOX BOUNDS xy xz yz pp pp pp
0.0000000000000000e+00 7.6685730000000003e+00 2.5561910000000001e+00
0.0000000000000000e+00 4.4274529999999999e+00 0.0000000000000000e+00
0.0000000000000000e+00 3.0699265000000000e+01 0.0000000000000000e+00
ITEM: ATOMS id type x y z
1 1 1.26594 0.352936 23.8843
2 1 7.10493 3.46432 25.0566
3 1 4.67978 1.21596 26.1921
4 1 4.91509 2.38053 23.0062
5 1 5.85817 4.55911 22.3719
6 1 4.11051 3.74204 26.2542
7 1 3.2885 1.05665 24.4289
8 1 2.33299 2.30017 22.8317
9 1 5.38151 1.04796 20.758
10 1 2.2191 1.91772 26.7546
11 1 3.68481 3.06339 21.1289
12 1 5.77535 3.57219 18.3158
13 1 1.35418 3.09807 20.2405
14 1 2.60771 0.86587 20.1916
15 1 1.02298 -0.15511 18.5647
16 2 3.89013 1.79379 18.3546
17 2 2.30327 3.88697 16.1516
18 2 4.85809 2.23101 16.0103
19 2 2.15077 1.29592 16.3865
20 2 3.3917 0.52509 13.8886
21 2 3.5246 3.43768 13.8106
22 2 2.31109 0.374731 11.326
23 2 6.04423 1.85951 13.6202
24 2 7.21837 3.44525 11.3255
25 2 3.79078 0.169424 9.16482
26 2 3.78216 3.21725 9.17946
27 2 4.57211 1.92795 11.3751
28 2 1.43502 1.55322 8.88331
29 2 3.27673 0.961893 6.19829
30 2 5.88707 2.36963 6.39412
31 2 3.12563 3.91185 6.73769
32 2 3.65736 0.955696 2.27953
33 2 6.82439 3.77235 4.0245
34 2 1.36436 1.15734 3.22766
35 2 4.3219 2.55986 4.21783
ITEM: TIMESTEP
5300
ITEM: NUMBER OF ATOMS
35
ITEM: BOX BOUNDS xy xz yz pp pp pp
0.0000000000000000e+00 7.6685730000000003e+00 2.5561910000000001e+00
0.0000000000000000e+00 4.4274529999999999e+00 0.0000000000000000e+00
0.0000000000000000e+00 3.0699265000000000e+01 0.0000000000000000e+00
ITEM: ATOMS id type x y z
1 1 0.530937 0.0134446 23.3053
2 1 6.65957 3.07405 25.09
3 1 4.92378 1.77182 26.2942
4 1 4.61883 2.61259 23.5819
5 1 3.45539 0.455415 22.4817
6 1 3.78021 4.01103 25.609
7 1 3.18279 1.1515 24.7115
8 1 1.86366 2.478 22.708
9 1 5.4382 1.13658 21.3126
10 1 2.36393 1.53157 26.9416
11 1 3.73399 3.12796 20.7789
12 1 6.05831 3.23964 18.0095
13 1 6.16794 3.16142 20.1477
14 1 2.1152 1.11293 20.0231
15 1 3.30528 4.18246 18.7168
16 2 4.56823 1.59295 18.5065
17 2 2.66301 4.0891 16.1263
18 2 4.82694 2.44191 15.8171
19 2 2.168 1.01499 16.9119
20 2 3.48779 -0.0508791 13.5462
21 2 3.48055 3.59454 13.8275
22 2 1.90474 0.836152 11.1603
23 2 6.26517 1.76071 13.6591
24 2 2.35065 3.45417 11.4535
25 2 6.36409 4.18982 8.853
26 2 3.91378 3.00579 8.90411
27 2 4.86889 2.06717 11.4097
28 2 1.61897 1.62733 8.60877
29 2 2.96735 0.852689 6.11905
30 2 5.72195 2.67851 6.55275
31 2 3.33835 3.98797 6.55358
32 2 3.26241 1.24012 2.2403
33 2 6.92991 3.664 4.24342
34 2 1.19629 0.909168 3.89775
35 2 4.16002 2.6745 4.2595
ITEM: TIMESTEP
5400
ITEM: NUMBER OF ATOMS
35
ITEM: BOX BOUNDS xy xz yz pp pp pp
0.0000000000000000e+00 7.6685730000000003e+00 2.5561910000000001e+00
0.0000000000000000e+00 4.4274529999999999e+00 0.0000000000000000e+00
0.0000000000000000e+00 3.0699265000000000e+01 0.0000000000000000e+00
ITEM: ATOMS id type x y z
1 1 4.99101 0.359482 23.43
2 1 6.64564 3.21089 24.9542
3 1 4.90367 1.89855 26.6134
4 1 4.46739 2.55649 23.4724
5 1 2.65005 0.0182587 22.4557
6 1 3.54492 3.63471 25.778
7 1 2.74194 0.780494 24.7316
8 1 1.74625 2.697 22.5801
9 1 4.87877 1.17023 21.274
10 1 2.58329 2.04943 27.2033
11 1 3.7189 3.44822 21.3985
12 1 6.29006 3.12948 17.9533
13 1 6.35907 3.77666 20.4757
14 1 2.19685 1.04723 19.3991
15 1 3.50917 3.35978 18.5598
16 2 4.78341 1.19717 18.6543
17 2 2.4974 4.26157 15.9145
18 2 4.8071 2.56191 16.045
19 2 2.60268 0.909742 16.7781
20 2 3.69208 0.369558 13.7565
21 2 3.76314 3.03836 13.3774
22 2 2.51475 0.611855 11.1708
23 2 1.47074 1.70156 14.1155
24 2 2.1657 3.79617 11.1142
25 2 6.73499 4.46559 8.65448
26 2 4.03567 2.50324 8.71329
27 2 4.83387 2.26286 11.3061
28 2 1.49112 1.20553 8.73522
29 2 3.18978 1.50274 6.09429
30 2 5.50377 2.54617 6.45771
31 2 2.81138 4.13756 6.48925
32 2 2.92614 1.16276 2.62772
33 2 6.46913 3.71337 3.91872
34 2 1.10553 0.876894 4.42713
35 2 4.27801 2.77919 4.10094
ITEM: TIMESTEP
5500
ITEM: NUMBER OF ATOMS
35
ITEM: BOX BOUNDS xy xz yz pp pp pp
0.0000000000000000e+00 7.6685730000000003e+00 2.5561910000000001e+00
0.0000000000000000e+00 4.4274529999999999e+00 0.0000000000000000e+00
0.0000000000000000e+00 3.0699265000000000e+01 0.0000000000000000e+00
ITEM: ATOMS id type x y z
1 1 5.40145 0.545127 24.003
2 1 5.98239 3.01858 25.0889
3 1 4.93351 1.1754 26.1672
4 1 3.80991 2.68857 23.9645
5 1 2.82675 0.515308 22.3846
6 1 4.06831 4.0038 26.1913
7 1 2.61135 1.11353 24.9838
8 1 1.51796 2.40909 22.9364
9 1 4.71966 1.62729 21.2901
10 1 2.12632 2.18469 26.8902
11 1 3.2722 3.36966 20.6071
12 1 6.47463 2.948 17.9668
13 1 5.83403 3.61135 20.7393
14 1 2.28441 1.27445 20.1845
15 1 4.00513 2.82292 18.4856
16 2 4.95188 0.661564 18.4201
17 2 2.74447 4.07011 16.1096
18 2 4.81729 2.67299 16.095
19 2 2.58219 1.06755 16.5983
20 2 3.9872 0.320501 13.6165
21 2 3.78535 3.1428 13.3694
22 2 2.59686 0.711359 11.39
23 2 1.41823 1.8818 14.1796
24 2 2.7978 3.50534 11.0434
25 2 6.25536 4.19728 8.86532
26 2 3.91696 2.89776 8.81535
27 2 5.41659 2.05166 11.0273
28 2 1.44096 1.117 8.82083
29 2 2.89132 1.24881 6.09266
30 2 5.52682 2.92995 6.63926
31 2 2.79036 4.13747 6.49839
32 2 2.55663 0.99817 2.46616
33 2 6.80185 3.76235 3.79652
34 2 0.927657 1.34349 4.27616
35 2 3.94784 2.82584 3.76789
ITEM: TIMESTEP
5600
ITEM: NUMBER OF ATOMS
35
ITEM: BOX BOUNDS xy xz yz pp pp pp
0.0000000000000000e+00 7.6685730000000003e+00 2.5561910000000001e+00
0.0000000000000000e+00 4.4274529999999999e+00 0.0000000000000000e+00
0.0000000000000000e+00 3.0699265000000000e+01 0.0000000000000000e+00
ITEM: ATOMS id type x y z
1 1 5.35391 0.721172 23.6639
2 1 6.11122 3.44329 25.1166
3 1 4.30524 0.829403 26.5359
4 1 3.94942 3.07417 23.5191
5 1 2.98054 0.437912 22.8487
6 1 3.89825 3.43487 26.8501
7 1 2.11556 1.31861 25.0617
8 1 1.66921 2.86597 22.6146
9 1 4.28226 1.28768 21.1797
10 1 1.89016 2.41683 26.958
11 1 3.43736 3.82715 21.1507
12 1 6.21913 2.69869 18.3604
13 1 5.68352 3.28279 20.3319
14 1 2.25629 1.39857 20.0086
15 1 4.0038 3.04362 18.3984
16 2 5.04826 0.57553 18.7578
17 2 2.62557 4.00849 16.0673
18 2 5.35951 2.42676 15.8724
19 2 2.65777 0.729433 16.4784
20 2 4.08455 0.165574 13.6895
21 2 4.13722 3.54496 13.857
22 2 2.9198 0.603145 11.3906
23 2 1.66738 1.78744 13.6589
24 2 3.09529 3.39047 11.2566
25 2 6.19001 4.14445 9.23492
26 2 3.47233 2.67128 8.62139
27 2 5.42126 2.00251 11.4606
28 2 1.29065 1.45803 8.54923
29 2 2.9544 1.16832 5.81701
30 2 5.37662 2.8933 6.5049
31 2 3.00244 4.20074 6.3655
32 2 2.3507 0.903661 2.23948
33 2 6.42884 4.21021 3.88518
34 2 0.80567 1.38105 4.31128
35 2 3.86663 3.00699 3.61861
ITEM: TIMESTEP
5700
ITEM: NUMBER OF ATOMS
35
ITEM: BOX BOUNDS xy xz yz pp pp pp
0.0000000000000000e+00 7.6685730000000003e+00 2.5561910000000001e+00
0.0000000000000000e+00 4.4274529999999999e+00 0.0000000000000000e+00
0.0000000000000000e+00 3.0699265000000000e+01 0.0000000000000000e+00
ITEM: ATOMS id type x y z
1 1 5.08936 0.740499 23.4305
2 1 6.15769 4.02092 24.6829
3 1 4.33217 0.799789 26.6425
4 1 3.92097 2.69583 24.2004
5 1 2.52824 0.391807 22.952
6 1 4.05446 3.36775 26.2295
7 1 1.64374 1.43158 25.2836
8 1 1.67904 2.34618 22.2488
9 1 4.54896 1.73341 21.2548
10 1 1.28158 2.43654 27.7137
11 1 3.23873 4.27729 21.2297
12 1 6.50063 2.90001 18.2824
13 1 6.01645 3.71853 20.398
14 1 2.26726 1.23227 19.3572
15 1 4.00118 2.83886 18.2114
16 2 4.93 0.771821 18.9239
17 2 2.79949 3.63915 16.2144
18 2 5.70894 1.78366 15.9327
19 2 2.75454 0.504146 16.6539
20 2 4.39476 0.381005 13.8928
21 2 4.41931 3.41935 13.9728
22 2 2.94958 0.519558 11.3616
23 2 2.09813 1.86302 13.519
24 2 2.93193 3.94219 11.2868
25 2 6.39871 4.09769 8.72444
26 2 3.66131 2.36583 8.6749
27 2 5.13784 2.15063 11.4618
28 2 0.86722 1.02386 8.72215
29 2 3.17371 1.61037 6.06093
30 2 5.54816 2.8383 6.37456
31 2 2.61358 4.12935 6.43643
32 2 2.08791 1.29557 2.08087
33 2 6.15538 4.04828 3.75267
34 2 0.890855 1.46928 4.16995
35 2 3.54798 3.12061 3.58892
ITEM: TIMESTEP
5800
ITEM: NUMBER OF ATOMS
35
ITEM: BOX BOUNDS xy xz yz pp pp pp
0.0000000000000000e+00 7.6685730000000003e+00 2.5561910000000001e+00
0.0000000000000000e+00 4.4274529999999999e+00 0.0000000000000000e+00
0.0000000000000000e+00 3.0699265000000000e+01 0.0000000000000000e+00
ITEM: ATOMS id type x y z
1 1 5.42684 0.389452 23.6171
2 1 6.31045 3.47536 25.0152
3 1 4.41221 1.04867 26.2824
4 1 3.22507 1.85661 23.8617
5 1 2.51712 -0.345275 22.8705
6 1 4.01631 3.96653 26.5362
7 1 1.66569 1.20892 25.3069
8 1 1.61644 2.57569 22.5948
9 1 3.99747 2.28802 21.2
10 1 5.84515 2.75088 27.2154
11 1 3.31552 4.68988 21.0424
12 1 6.61287 2.9783 18.1047
13 1 6.03856 3.78173 20.6752
14 1 2.60977 1.30796 19.3952
15 1 3.92922 3.40228 18.9848
16 2 5.16293 0.853459 18.4676
17 2 3.20805 2.66597 16.1865
18 2 5.617 1.62953 16.1067
19 2 2.99543 0.363384 16.8983
20 2 4.63074 0.510871 13.864
21 2 4.8423 3.46314 13.9953
22 2 2.59551 0.834883 11.0259
23 2 2.25697 2.17839 13.5581
24 2 2.59676 3.99786 11.3588
25 2 6.08316 3.58693 8.67814
26 2 3.793 2.3412 8.96459
27 2 5.26484 2.57137 11.2602
28 2 1.34034 0.655975 8.96319
29 2 2.7059 1.41421 6.39648
30 2 5.13947 3.00929 6.32711
31 2 2.93303 4.55285 6.32215
32 2 2.08375 1.69331 1.86438
33 2 5.78415 4.33742 3.42755
34 2 0.872649 1.36721 4.2435
35 2 3.45629 2.79058 3.69169
ITEM: TIMESTEP
5900
ITEM: NUMBER OF ATOMS
35
ITEM: BOX BOUNDS xy xz yz pp pp pp
0.0000000000000000e+00 7.6685730000000003e+00 2.5561910000000001e+00
0.0000000000000000e+00 4.4274529999999999e+00 0.0000000000000000e+00
0.0000000000000000e+00 3.0699265000000000e+01 0.0000000000000000e+00
ITEM: ATOMS id type x y z
1 1 0.163144 -0.347961 23.4458
2 1 6.06419 3.19069 24.9082
3 1 4.16493 1.47918 26.0055
4 1 4.2619 2.03134 23.924
5 1 4.89242 3.87939 22.6712
6 1 2.92365 3.61641 26.7832
7 1 1.88482 0.842448 25.0437
8 1 1.75342 2.2378 22.9612
9 1 3.582 1.49398 21.5934
10 1 6.03717 3.10736 27.0192
11 1 0.720495 1.14622 20.8788
12 1 2.05855 2.96498 18.1611
13 1 6.76337 3.64905 20.5785
14 1 2.61219 1.01014 19.5265
15 1 4.53254 3.39201 19.2913
16 2 4.99057 1.03233 18.539
17 2 3.42047 2.94929 16.1224
18 2 6.16477 1.35612 15.8642
19 2 2.96521 -0.312186 16.5903
20 2 4.82114 0.825389 13.7981
21 2 4.93972 4.01088 13.76
22 2 2.62465 1.29783 11.3803
23 2 2.34826 2.18936 13.7765
24 2 2.49924 3.99744 11.3736
25 2 6.62143 3.29992 8.94838
26 2 3.81829 1.95538 8.93322
27 2 5.06741 2.67415 11.4366
28 2 1.26355 0.483031 8.74348
29 2 2.56269 1.46439 6.55232
30 2 4.83681 3.0758 6.08107
31 2 -0.40085 0.0750124 6.54219
32 2 1.85143 2.10329 1.68807
33 2 3.40006 0.070808 3.55674
34 2 0.764196 1.21075 3.80317
35 2 3.30425 2.7946 4.07915
ITEM: TIMESTEP
6000
ITEM: NUMBER OF ATOMS
35
ITEM: BOX BOUNDS xy xz yz pp pp pp
0.0000000000000000e+00 7.6685730000000003e+00 2.5561910000000001e+00
0.0000000000000000e+00 4.4274529999999999e+00 0.0000000000000000e+00
0.0000000000000000e+00 3.0699265000000000e+01 0.0000000000000000e+00
ITEM: ATOMS id type x y z
1 1 2.46335 4.26818 23.3475
2 1 6.17054 3.476 25.0405
3 1 4.08522 0.929536 26.5911
4 1 3.90977 2.14716 23.837
5 1 5.39809 3.50672 21.6373
6 1 2.99457 3.31256 25.9342
7 1 2.09056 0.737533 25.2796
8 1 1.63135 1.3401 23.0822
9 1 3.86505 1.63772 21.4156
10 1 4.98769 3.49587 27.5444
11 1 1.04161 1.43071 20.837
12 1 1.8009 2.90152 18.4626
13 1 7.7671 3.47177 20.9992
14 1 2.74893 0.48825 18.9814
15 1 4.22023 3.04862 19.3068
16 2 5.18797 0.995784 18.1569
17 2 3.57057 3.02123 16.2566
18 2 1.24518 1.31142 16.2235
19 2 6.32518 4.10923 16.3852
20 2 4.9246 1.21514 13.7645
21 2 4.85088 3.98695 13.7683
22 2 2.46661 1.02548 11.3157
23 2 2.33279 2.90183 13.7352
24 2 2.58293 4.35088 11.3369
25 2 6.5063 3.19792 9.05467
26 2 4.14271 1.55223 8.75184
27 2 4.89607 2.58656 11.3048
28 2 1.44111 0.162204 9.02279
29 2 1.91878 1.7981 6.32459
30 2 4.72413 2.93071 6.21679
31 2 4.46306 0.104842 6.34885
32 2 1.86959 2.68391 1.96458
33 2 3.25567 -0.182915 3.76705
34 2 0.733347 1.14849 3.97561
35 2 2.91035 2.75822 4.06843
ITEM: TIMESTEP
6100
ITEM: NUMBER OF ATOMS
35
ITEM: BOX BOUNDS xy xz yz pp pp pp
0.0000000000000000e+00 7.6685730000000003e+00 2.5561910000000001e+00
0.0000000000000000e+00 4.4274529999999999e+00 0.0000000000000000e+00
0.0000000000000000e+00 3.0699265000000000e+01 0.0000000000000000e+00
ITEM: ATOMS id type x y z
1 1 7.08613 4.1262 23.5518
2 1 5.44296 3.04181 24.9095
3 1 4.60453 0.268396 26.3398
4 1 3.88024 2.12529 23.5739
5 1 5.12189 3.50595 21.7269
6 1 3.38134 2.85119 26.0098
7 1 1.50047 1.14463 25.5145
8 1 1.75729 1.26259 22.8752
9 1 3.92253 1.293 21.2889
10 1 4.73394 4.29281 27.2472
11 1 1.87969 1.34023 20.6701
12 1 6.48582 3.08994 18.8141
13 1 2.91314 3.75031 20.8994
14 1 2.69849 0.705173 18.2287
15 1 3.80425 2.70281 19.2082
16 2 5.37851 0.616248 18.524
17 2 4.31126 2.68421 16.7075
18 2 1.76704 1.53804 15.8098
19 2 6.66739 4.41187 15.9921
20 2 4.80216 1.52534 13.9345
21 2 4.92739 4.31934 13.8695
22 2 2.50086 1.14352 11.4427
23 2 2.26709 2.91518 13.5144
24 2 2.3316 4.19094 11.2053
25 2 6.56025 2.88673 8.92259
26 2 4.11606 1.43001 8.67188
27 2 4.92812 2.68691 11.2551
28 2 1.64124 -0.0263222 8.74003
29 2 1.68473 1.6825 6.59925
30 2 4.17761 3.27446 6.58073
31 2 4.53111 0.261193 6.24103
32 2 1.75302 3.03681 2.21025
33 2 5.30376 4.18453 4.01666
34 2 0.411286 1.07004 3.79054
35 2 3.22094 2.49712 4.22
ITEM: TIMESTEP
6200
ITEM: NUMBER OF ATOMS
35
ITEM: BOX BOUNDS xy xz yz pp pp pp
0.0000000000000000e+00 7.6685730000000003e+00 2.5561910000000001e+00
0.0000000000000000e+00 4.4274529999999999e+00 0.0000000000000000e+00
0.0000000000000000e+00 3.0699265000000000e+01 0.0000000000000000e+00
ITEM: ATOMS id type x y z
1 1 7.27442 4.00122 23.7989
2 1 4.97672 3.53965 25.0243
3 1 4.59208 0.0287534 26.0981
4 1 3.56917 2.08028 23.4105
5 1 5.56821 3.52243 22.1583
6 1 3.25775 2.0575 25.6119
7 1 1.24264 1.13847 25.2543
8 1 1.09806 1.05271 22.6255
9 1 4.54775 1.23324 21.0435
10 1 2.50321 0.562686 27.1417
11 1 1.74075 1.40759 20.4903
12 1 6.37332 2.92558 18.6375
13 1 2.75303 3.28774 21.601
14 1 3.0216 0.688004 18.0814
15 1 3.7478 2.46919 19.4262
16 2 5.52512 0.240603 18.5726
17 2 4.69703 2.85745 16.5227
18 2 2.00271 1.76546 15.9208
19 2 7.35957 4.36694 15.9728
20 2 4.79054 1.58131 13.712
21 2 4.71777 4.36224 13.7141
22 2 2.33504 1.40696 11.3126
23 2 2.40557 2.98633 13.5347
24 2 7.40095 4.32608 11.1442
25 2 6.95542 2.93792 8.81433
26 2 4.07779 1.33144 8.85379
27 2 4.90666 2.81636 11.3794
28 2 4.12948 4.5689 9.27203
29 2 1.69933 1.70797 6.26976
30 2 4.23923 3.21696 6.55835
31 2 3.9907 0.0854375 6.39288
32 2 6.64472 3.26493 2.42526
33 2 5.13452 4.00364 4.25541
34 2 5.29596 1.00386 3.51119
35 2 3.00362 2.30384 4.26841
ITEM: TIMESTEP
6300
ITEM: NUMBER OF ATOMS
35
ITEM: BOX BOUNDS xy xz yz pp pp pp
0.0000000000000000e+00 7.6685730000000003e+00 2.5561910000000001e+00
0.0000000000000000e+00 4.4274529999999999e+00 0.0000000000000000e+00
0.0000000000000000e+00 3.0699265000000000e+01 0.0000000000000000e+00
ITEM: ATOMS id type x y z
1 1 7.40056 3.6421 24.243
2 1 4.63818 4.15072 24.3879
3 1 7.29921 3.74978 26.8092
4 1 3.83534 1.18694 23.2891
5 1 5.29483 3.5711 22.1197
6 1 3.47623 1.84132 25.8487
7 1 5.73461 1.97144 24.9248
8 1 1.33583 1.28657 22.8519
9 1 4.43349 0.341781 20.7967
10 1 1.92003 0.636877 27.0766
11 1 2.059 0.640548 20.5164
12 1 6.4187 2.61008 18.5264
13 1 3.14234 3.17411 21.5626
14 1 3.34201 0.398506 18.1894
15 1 4.34217 2.54177 19.2445
16 2 0.686461 0.312199 18.3212
17 2 4.82795 3.06592 15.9803
18 2 2.40867 1.55947 16.3712
19 2 -0.0715817 0.183939 15.9453
20 2 4.9047 1.48203 13.7279
21 2 4.92159 4.49561 13.7028
22 2 2.24234 1.80011 11.4114
23 2 2.18702 3.07743 13.7984
24 2 4.56576 0.283734 11.4172
25 2 1.71431 3.04079 8.81352
26 2 4.44439 1.60053 9.04231
27 2 4.91019 3.02402 11.1108
28 2 1.71541 0.0855895 8.90622
29 2 1.04075 1.36925 6.34258
30 2 3.98417 2.79113 6.80672
31 2 4.14989 0.074926 6.58983
32 2 6.44641 3.46287 2.0658
33 2 5.01541 3.78747 4.22656
34 2 5.29565 0.930927 3.70258
35 2 2.65753 2.36509 4.13074
ITEM: TIMESTEP
6400
ITEM: NUMBER OF ATOMS
35
ITEM: BOX BOUNDS xy xz yz pp pp pp
0.0000000000000000e+00 7.6685730000000003e+00 2.5561910000000001e+00
0.0000000000000000e+00 4.4274529999999999e+00 0.0000000000000000e+00
0.0000000000000000e+00 3.0699265000000000e+01 0.0000000000000000e+00
ITEM: ATOMS id type x y z
1 1 2.85993 2.94548 24.3353
2 1 2.27623 0.161582 24.4518
3 1 1.80927 3.19013 26.7284
4 1 4.29914 0.868552 23.257
5 1 5.5374 3.31783 21.7303
6 1 3.64749 1.08987 26.0521
7 1 5.53827 2.75676 25.2151
8 1 1.46417 1.23598 22.8583
9 1 4.39315 0.0547223 20.4739
10 1 0.759306 0.476834 26.5465
11 1 1.73474 0.529935 20.6868
12 1 2.30612 2.47239 18.8109
13 1 3.09852 2.53115 21.7273
14 1 3.46179 0.175941 18.3563
15 1 4.66394 2.40067 19.2964
16 2 1.18134 0.279815 18.1121
17 2 5.25774 2.99105 16.3887
18 2 2.79179 1.9386 16.2654
19 2 4.78198 0.260998 15.9479
20 2 4.75995 1.97718 13.5418
21 2 2.43852 0.299586 13.7045
22 2 2.10802 1.90286 11.3436
23 2 2.24726 2.83485 14.0188
24 2 4.70573 0.234377 11.4018
25 2 6.90124 3.07373 9.01055
26 2 4.56522 1.57133 9.05068
27 2 4.52299 3.59752 11.4867
28 2 2.0619 0.271453 8.57993
29 2 1.31246 1.35058 6.30743
30 2 3.46126 2.70373 6.49787
31 2 6.16031 4.12363 6.41908
32 2 6.35434 3.6323 2.07634
33 2 5.09995 3.69724 4.20585
34 2 4.8643 0.91518 3.97981
35 2 2.31965 2.22862 4.02551
ITEM: TIMESTEP
6500
ITEM: NUMBER OF ATOMS
35
ITEM: BOX BOUNDS xy xz yz pp pp pp
0.0000000000000000e+00 7.6685730000000003e+00 2.5561910000000001e+00
0.0000000000000000e+00 4.4274529999999999e+00 0.0000000000000000e+00
0.0000000000000000e+00 3.0699265000000000e+01 0.0000000000000000e+00
ITEM: ATOMS id type x y z
1 1 3.1693 2.72484 24.11
2 1 2.17848 0.423995 24.3892
3 1 1.8709 2.48734 26.641
4 1 4.29402 -0.117341 23.416
5 1 5.20644 3.44741 22.2984
6 1 3.26028 0.719122 26.6056
7 1 5.25022 1.58428 24.5462
8 1 1.46113 1.47032 22.4871
9 1 4.65081 0.34779 21.1302
10 1 0.97778 0.156982 26.3754
11 1 1.89828 0.350113 20.3266
12 1 3.00636 2.67573 19.2509
13 1 3.34541 2.25016 21.581
14 1 4.08845 0.309381 18.5327
15 1 5.32021 2.50902 19.4431
16 2 1.5416 0.378749 17.9515
17 2 5.39425 2.97715 16.8643
18 2 2.78483 2.06554 16.5905
19 2 5.20497 0.418814 15.6421
20 2 4.7048 1.88863 13.6521
21 2 2.18304 0.297846 14.2851
22 2 1.92875 1.78945 11.313
23 2 2.21487 3.56209 13.4482
24 2 4.4585 0.465994 11.3459
25 2 2.27642 3.37443 8.94116
26 2 4.64024 1.83008 8.67379
27 2 4.63307 3.30866 11.1596
28 2 2.16288 0.332122 9.10327
29 2 0.794718 1.25395 6.2978
30 2 3.54916 2.73396 6.30886
31 2 6.0474 4.16753 6.59414
32 2 6.3543 3.83729 2.16489
33 2 4.28059 3.62579 3.96411
34 2 4.60056 0.661434 4.16597
35 2 2.28107 1.92253 3.68471
ITEM: TIMESTEP
6600
ITEM: NUMBER OF ATOMS
35
ITEM: BOX BOUNDS xy xz yz pp pp pp
0.0000000000000000e+00 7.6685730000000003e+00 2.5561910000000001e+00
0.0000000000000000e+00 4.4274529999999999e+00 0.0000000000000000e+00
0.0000000000000000e+00 3.0699265000000000e+01 0.0000000000000000e+00
ITEM: ATOMS id type x y z
1 1 3.32878 2.20432 24.4257
2 1 2.2879 0.209903 24.8107
3 1 1.42811 2.60727 25.7757
4 1 6.94209 3.91273 23.6911
5 1 4.5911 3.62749 22.8474
6 1 3.86487 0.362563 26.4172
7 1 5.38331 1.3805 24.5708
8 1 0.978161 1.71838 22.3657
9 1 4.96044 -0.0741539 21.0016
10 1 3.6717 3.42248 26.4724
11 1 2.52 0.0705594 20.4562
12 1 3.02004 2.91551 18.9652
13 1 3.25586 2.17063 21.3653
14 1 4.31991 0.723622 18.6436
15 1 6.19306 2.26565 19.9187
16 2 1.63841 0.656071 18.0358
17 2 5.71299 3.03968 16.6024
18 2 3.17884 2.26314 16.302
19 2 5.08758 0.294927 16.1457
20 2 4.50926 2.22101 13.8018
21 2 2.42646 0.453548 14.4294
22 2 1.89467 1.67691 11.5593
23 2 2.05271 3.46821 13.4514
24 2 4.18488 0.480909 10.7236
25 2 2.33932 3.42209 8.78897
26 2 4.93006 2.19357 8.7947
27 2 4.75506 3.26682 11.3557
28 2 2.12171 0.647749 8.78843
29 2 0.926571 1.21428 6.5353
30 2 3.26925 2.77682 6.39887
31 2 5.77192 4.18899 6.44183
32 2 6.29028 3.90959 2.0803
33 2 4.23074 3.39567 3.6808
34 2 4.40702 0.541374 4.35037
35 2 1.72712 1.72068 3.67602
ITEM: TIMESTEP
6700
ITEM: NUMBER OF ATOMS
35
ITEM: BOX BOUNDS xy xz yz pp pp pp
0.0000000000000000e+00 7.6685730000000003e+00 2.5561910000000001e+00
0.0000000000000000e+00 4.4274529999999999e+00 0.0000000000000000e+00
0.0000000000000000e+00 3.0699265000000000e+01 0.0000000000000000e+00
ITEM: ATOMS id type x y z
1 1 3.06456 1.92645 23.9931
2 1 2.59621 -0.227495 25.3956
3 1 6.50795 2.59623 26.1472
4 1 6.47795 3.78986 22.9506
5 1 4.06129 3.96524 22.7087
6 1 5.03759 0.779941 26.6629
7 1 5.719 0.821003 24.4481
8 1 5.76401 1.60278 22.3281
9 1 2.66839 4.25075 20.8386
10 1 3.6781 2.73134 26.762
11 1 4.98085 4.05936 20.31
12 1 3.33572 3.29182 18.4976
13 1 3.57482 1.54144 21.4106
14 1 4.55881 0.928365 18.8322
15 1 6.05717 2.03893 19.894
16 2 2.25973 0.809928 17.9487
17 2 5.73672 3.17048 16.5866
18 2 3.33358 2.2542 16.1045
19 2 5.35892 0.539414 16.2166
20 2 4.66926 2.04592 13.6683
21 2 1.95229 0.562384 14.4561
22 2 1.75826 1.87679 11.695
23 2 2.06943 3.69152 13.8025
24 2 4.48376 0.346663 11.0438
25 2 2.4042 3.38344 8.61933
26 2 4.94081 2.44443 9.04899
27 2 4.14459 3.6177 11.5089
28 2 2.22078 0.667091 8.82377
29 2 0.700429 1.19861 6.19503
30 2 3.16328 2.68222 6.1237
31 2 5.57002 3.84794 6.33948
32 2 6.32605 3.96718 2.15249
33 2 4.20891 3.1371 3.66782
34 2 4.14714 0.551155 4.25808
35 2 1.6161 1.83724 3.87524
ITEM: TIMESTEP
6800
ITEM: NUMBER OF ATOMS
35
ITEM: BOX BOUNDS xy xz yz pp pp pp
0.0000000000000000e+00 7.6685730000000003e+00 2.5561910000000001e+00
0.0000000000000000e+00 4.4274529999999999e+00 0.0000000000000000e+00
0.0000000000000000e+00 3.0699265000000000e+01 0.0000000000000000e+00
ITEM: ATOMS id type x y z
1 1 2.71619 1.81737 23.835
2 1 5.6147 4.4333 25.3734
3 1 1.49061 2.21059 25.8376
4 1 6.5979 4.17241 23.0185
5 1 4.11793 3.37678 22.9019
6 1 0.857049 0.17162 27.1516
7 1 5.3548 0.675456 24.5681
8 1 5.85993 1.85013 21.9662
9 1 2.52675 4.01225 20.9628
10 1 4.23996 2.18771 26.4242
11 1 4.98506 3.7699 20.2693
12 1 3.51181 3.13154 18.2188
13 1 3.04676 1.60654 21.1665
14 1 5.00113 1.28265 19.0109
15 1 1.55028 2.20061 19.5114
16 2 2.54222 0.768411 17.9297
17 2 5.92073 3.29245 16.6912
18 2 3.2058 2.36027 15.7243
19 2 5.39671 0.71333 16.5457
20 2 4.83152 1.97942 13.5839
21 2 2.07076 0.529869 13.9828
22 2 1.66716 2.44846 11.4397
23 2 6.85281 3.72238 14.1068
24 2 4.13268 0.730675 11.4002
25 2 2.52374 3.81529 8.51069
26 2 4.92488 2.08455 9.19445
27 2 4.12495 3.52268 11.5589
28 2 2.31283 0.742419 9.12256
29 2 5.47117 0.831805 6.54964
30 2 2.95545 2.28146 6.18781
31 2 5.4012 3.68746 6.47541
32 2 6.34499 3.92724 1.93866
33 2 4.04099 3.52368 3.61258
34 2 4.03289 0.418128 4.32338
35 2 1.77369 1.82196 3.59471
ITEM: TIMESTEP
6900
ITEM: NUMBER OF ATOMS
35
ITEM: BOX BOUNDS xy xz yz pp pp pp
0.0000000000000000e+00 7.6685730000000003e+00 2.5561910000000001e+00
0.0000000000000000e+00 4.4274529999999999e+00 0.0000000000000000e+00
0.0000000000000000e+00 3.0699265000000000e+01 0.0000000000000000e+00
ITEM: ATOMS id type x y z
1 1 2.38806 1.60233 23.5369
2 1 3.02874 -0.200821 25.3235
3 1 2.41269 2.60265 25.9428
4 1 6.29498 4.17817 23.1354
5 1 4.10295 3.0302 23.2584
6 1 1.16593 -0.176847 26.5825
7 1 5.82107 0.24097 24.2532
8 1 5.99134 2.28878 21.694
9 1 2.92329 4.42775 21.5217
10 1 4.54165 1.84606 25.9217
11 1 4.66352 3.65309 20.4131
12 1 3.96529 3.05935 17.9704
13 1 3.33172 1.4578 21.3926
14 1 4.71416 1.12901 19.3376
15 1 2.0015 3.40677 19.2802
16 2 2.49515 0.908552 18.1447
17 2 6.02439 3.21147 16.4969
18 2 3.21235 1.91344 15.8705
19 2 5.53184 0.58952 16.5154
20 2 4.8857 2.14155 13.7577
21 2 1.9467 0.669145 13.7299
22 2 1.46313 2.48953 11.132
23 2 7.1624 3.68628 13.8104
24 2 3.84757 1.01666 11.5625
25 2 2.40635 3.58778 9.20896
26 2 4.90439 2.14819 8.8839
27 2 4.06301 4.03609 11.3308
28 2 2.53573 0.799287 9.04944
29 2 5.51313 0.659211 6.50049
30 2 2.63828 1.94428 6.48475
31 2 5.16206 3.53366 6.75875
32 2 6.18813 3.92441 1.93139
33 2 4.03221 3.66527 3.72322
34 2 4.17531 0.28549 4.2963
35 2 1.48517 1.96619 3.51432
ITEM: TIMESTEP
7000
ITEM: NUMBER OF ATOMS
35
ITEM: BOX BOUNDS xy xz yz pp pp pp
0.0000000000000000e+00 7.6685730000000003e+00 2.5561910000000001e+00
0.0000000000000000e+00 4.4274529999999999e+00 0.0000000000000000e+00
0.0000000000000000e+00 3.0699265000000000e+01 0.0000000000000000e+00
ITEM: ATOMS id type x y z
1 1 2.12957 2.00112 23.468
2 1 5.84954 4.18309 25.5392
3 1 2.3187 2.10619 25.9287
4 1 5.8211 4.22737 22.8251
5 1 5.05282 2.01365 23.2135
6 1 1.29184 0.459063 26.7668
7 1 0.43156 -0.232961 24.3828
8 1 6.55399 2.40369 21.3177
9 1 3.45774 3.98698 22.0416
10 1 4.76894 2.10316 25.7506
11 1 4.49282 3.8143 20.2943
12 1 4.07175 2.98422 17.8728
13 1 3.51792 1.44345 20.7576
14 1 5.1733 1.73839 19.4231
15 1 7.12991 3.99263 18.8678
16 2 2.52058 1.1055 18.6166
17 2 5.97171 3.25149 16.1167
18 2 3.14992 1.42832 16.1945
19 2 0.642849 0.234951 16.3185
20 2 4.84004 2.50071 13.9433
21 2 2.17415 0.875747 13.9785
22 2 6.09823 2.54306 11.5378
23 2 2.52991 3.72605 13.4114
24 2 3.76756 1.30653 11.4198
25 2 2.51575 3.51415 8.83814
26 2 5.11398 2.03896 8.97741
27 2 3.70557 4.25911 11.1872
28 2 2.5948 0.453279 8.68373
29 2 5.19809 0.433316 6.69436
30 2 2.67448 2.27856 6.39378
31 2 5.28974 3.36404 6.27297
32 2 5.85698 4.19071 2.15556
33 2 3.95727 3.18802 4.04607
34 2 3.86157 0.45707 4.36842
35 2 1.3395 1.93808 3.93897
ITEM: TIMESTEP
7100
ITEM: NUMBER OF ATOMS
35
ITEM: BOX BOUNDS xy xz yz pp pp pp
0.0000000000000000e+00 7.6685730000000003e+00 2.5561910000000001e+00
0.0000000000000000e+00 4.4274529999999999e+00 0.0000000000000000e+00
0.0000000000000000e+00 3.0699265000000000e+01 0.0000000000000000e+00
ITEM: ATOMS id type x y z
1 1 2.34815 1.77725 23.4493
2 1 3.4226 0.149252 25.325
3 1 2.00475 2.21717 26.4405
4 1 5.70766 3.72065 23.1514
5 1 4.98392 1.6607 23.4412
6 1 0.807597 0.0571708 27.0708
7 1 3.46771 4.1051 24.9095
8 1 1.80836 2.81407 20.7025
9 1 2.975 4.11116 22.4121
10 1 5.09924 2.17218 25.6324
11 1 4.31458 3.79511 20.4477
12 1 4.44719 3.47511 17.8502
13 1 3.96175 1.09355 21.0934
14 1 5.49056 1.83644 18.7958
15 1 7.23976 3.75233 18.3647
16 2 2.67697 1.22706 18.6512
17 2 6.39557 2.91034 16.3975
18 2 3.5701 1.51217 16.1549
19 2 0.822376 0.370905 15.9102
20 2 4.61521 2.59224 14.0756
21 2 2.55558 0.951048 13.537
22 2 6.09067 3.05022 11.4654
23 2 2.18076 3.91239 13.8063
24 2 3.25507 1.38714 10.9913
25 2 2.52861 3.1441 8.86919
26 2 5.28184 1.83948 9.10423
27 2 3.6573 4.25303 11.0885
28 2 2.59227 0.249251 8.65855
29 2 5.35738 0.778099 6.64416
30 2 2.69669 2.06339 6.49435
31 2 5.18494 3.35457 6.16334
32 2 5.43142 4.27217 2.50089
33 2 3.38988 3.26015 3.66776
34 2 3.90236 0.605547 4.60011
35 2 1.22089 1.52539 4.08952
ITEM: TIMESTEP
7200
ITEM: NUMBER OF ATOMS
35
ITEM: BOX BOUNDS xy xz yz pp pp pp
0.0000000000000000e+00 7.6685730000000003e+00 2.5561910000000001e+00
0.0000000000000000e+00 4.4274529999999999e+00 0.0000000000000000e+00
0.0000000000000000e+00 3.0699265000000000e+01 0.0000000000000000e+00
ITEM: ATOMS id type x y z
1 1 2.24595 1.93329 23.9871
2 1 3.84099 0.245639 25.8143
3 1 2.35672 2.01378 26.7778
4 1 5.76779 3.49186 23.1643
5 1 4.27558 1.19948 23.2633
6 1 0.307021 -0.0699036 27.1198
7 1 3.79911 4.12259 24.8507
8 1 1.43666 2.53301 20.8267
9 1 3.22228 3.70969 22.4355
10 1 4.7765 2.54926 26.0767
11 1 4.49814 3.87751 20.3237
12 1 4.48582 3.52194 17.798
13 1 4.3594 1.17409 21.0636
14 1 5.87072 1.87151 18.5058
15 1 2.41328 3.82104 18.7143
16 2 2.90919 1.164 18.6952
17 2 6.64709 3.075 16.3958
18 2 3.8857 1.5136 16.1727
19 2 1.49685 0.384183 15.6154
20 2 4.78685 2.58318 13.5348
21 2 1.98105 1.2187 13.3127
22 2 5.97767 3.24795 11.3308
23 2 7.04212 4.04431 13.9199
24 2 3.4767 1.57119 11.0647
25 2 2.5284 3.23966 8.91313
26 2 5.24112 1.72153 9.08836
27 2 3.32607 4.34107 11.427
28 2 2.70375 -0.00240667 8.63672
29 2 5.53795 0.444666 6.8317
30 2 2.69765 2.12538 6.5528
31 2 4.93635 3.39268 6.06211
32 2 5.23491 4.18303 2.60511
33 2 2.87368 3.14113 3.38409
34 2 3.91016 0.506233 4.78697
35 2 1.08289 1.62434 3.9659
ITEM: TIMESTEP
7300
ITEM: NUMBER OF ATOMS
35
ITEM: BOX BOUNDS xy xz yz pp pp pp
0.0000000000000000e+00 7.6685730000000003e+00 2.5561910000000001e+00
0.0000000000000000e+00 4.4274529999999999e+00 0.0000000000000000e+00
0.0000000000000000e+00 3.0699265000000000e+01 0.0000000000000000e+00
ITEM: ATOMS id type x y z
1 1 1.53214 2.29876 24.5315
2 1 3.37487 -0.183183 25.318
3 1 2.40628 1.83504 26.7164
4 1 5.57585 3.75269 23.111
5 1 4.55625 1.26411 23.8489
6 1 3.67308 4.49893 27.3013
7 1 3.40327 4.17318 24.6471
8 1 1.71776 1.67033 21.4697
9 1 3.0128 3.15858 22.2269
10 1 5.11718 2.30085 26.7186
11 1 4.8472 3.68981 20.3668
12 1 4.23728 3.64861 17.8343
13 1 4.15003 0.968805 20.79
14 1 5.9171 1.70294 18.6344
15 1 2.56499 3.89268 19.2028
16 2 3.37744 1.15986 18.4244
17 2 6.84107 3.31605 16.2926
18 2 4.3839 1.62931 16.0695
19 2 1.89643 0.163932 15.715
20 2 4.32775 2.6049 13.6918
21 2 2.02587 1.83431 13.4202
22 2 5.7752 3.19362 11.0297
23 2 6.95022 4.40509 13.782
24 2 3.50216 1.50461 11.1765
25 2 2.81684 3.26565 9.22422
26 2 5.23367 1.75474 8.83433
27 2 0.709869 0.177006 11.4687
28 2 2.65371 0.233493 8.69707
29 2 0.166079 0.291744 6.64464
30 2 2.24989 2.06748 6.49999
31 2 4.95669 2.98048 5.87533
32 2 5.29833 4.10048 2.69949
33 2 3.14389 2.91959 3.50962
34 2 3.58607 0.553501 4.6791
35 2 5.86913 1.55076 3.86056
ITEM: TIMESTEP
7400
ITEM: NUMBER OF ATOMS
35
ITEM: BOX BOUNDS xy xz yz pp pp pp
0.0000000000000000e+00 7.6685730000000003e+00 2.5561910000000001e+00
0.0000000000000000e+00 4.4274529999999999e+00 0.0000000000000000e+00
0.0000000000000000e+00 3.0699265000000000e+01 0.0000000000000000e+00
ITEM: ATOMS id type x y z
1 1 1.86223 1.55721 24.2027
2 1 3.30511 0.0687495 25.5272
3 1 2.9072 2.24987 26.7124
4 1 5.5071 4.00355 23.0589
5 1 4.1977 1.92124 23.8643
6 1 4.00265 4.14255 26.8641
7 1 3.16128 3.8215 24.7475
8 1 1.17832 0.655944 21.2443
9 1 2.63585 3.364 22.5165
10 1 5.3359 1.73011 26.2823
11 1 5.17167 2.95683 20.4887
12 1 4.23791 3.67095 18.2877
13 1 4.2071 1.33733 21.5144
14 1 5.98554 1.63878 18.6441
15 1 2.39359 2.82877 20.3083
16 2 3.42877 1.22876 18.1959
17 2 2.22256 3.06084 16.4427
18 2 5.0024 1.70698 16.0379
19 2 2.17737 0.481067 15.9481
20 2 4.38072 3.55226 13.6835
21 2 1.65372 1.9054 13.7466
22 2 5.71152 3.0526 11.1593
23 2 4.22502 0.470657 13.6011
24 2 3.32107 1.43024 11.1891
25 2 2.90905 3.3333 9.05597
26 2 5.19551 1.86441 8.51388
27 2 0.957865 0.299708 11.4755
28 2 2.73354 0.413279 8.53545
29 2 5.06137 0.0707951 6.32474
30 2 2.03254 1.915 6.5907
31 2 4.52574 2.94813 6.29312
32 2 5.60068 3.96153 2.20653
33 2 3.13949 3.03229 3.91337
34 2 3.04611 0.287779 4.77981
35 2 0.769538 1.22098 3.35861
ITEM: TIMESTEP
7500
ITEM: NUMBER OF ATOMS
35
ITEM: BOX BOUNDS xy xz yz pp pp pp
0.0000000000000000e+00 7.6685730000000003e+00 2.5561910000000001e+00
0.0000000000000000e+00 4.4274529999999999e+00 0.0000000000000000e+00
0.0000000000000000e+00 3.0699265000000000e+01 0.0000000000000000e+00
ITEM: ATOMS id type x y z
1 1 1.90716 1.3969 23.6266
2 1 6.07958 4.32878 25.7083
3 1 2.58986 2.16391 26.0526
4 1 5.19452 3.57046 23.4811
5 1 4.43267 1.24725 23.7047
6 1 4.21422 4.23203 27.1124
7 1 3.52533 3.70074 24.81
8 1 1.02206 0.600361 20.5843
9 1 2.48422 3.44513 22.4635
10 1 5.36163 2.14 25.9177
11 1 5.5197 3.26505 20.6599
12 1 4.08567 3.59226 18.6344
13 1 3.28968 0.798237 21.7241
14 1 1.1377 1.82131 18.2908
15 1 2.51774 2.77643 19.9858
16 2 3.81431 0.708994 18.9219
17 2 2.6683 3.53206 16.5481
18 2 5.08911 1.84696 16.0274
19 2 2.7459 0.25622 16.3832
20 2 4.18666 3.86766 13.6628
21 2 1.51447 2.43442 13.7588
22 2 5.88862 3.04319 11.2654
23 2 4.24184 0.823241 13.6861
24 2 3.35767 1.63321 11.2146
25 2 2.69014 3.45452 8.76669
26 2 5.3487 1.71493 9.08275
27 2 0.728594 0.19063 11.0733
28 2 2.89704 0.117786 8.42977
29 2 4.75686 0.242592 6.25181
30 2 1.80608 1.90241 6.23638
31 2 4.36163 2.77322 6.42311
32 2 6.02723 3.93792 2.21124
33 2 2.98393 2.87266 3.74824
34 2 5.22095 4.31571 4.49478
35 2 5.49525 1.45028 3.395
ITEM: TIMESTEP
7600
ITEM: NUMBER OF ATOMS
35
ITEM: BOX BOUNDS xy xz yz pp pp pp
0.0000000000000000e+00 7.6685730000000003e+00 2.5561910000000001e+00
0.0000000000000000e+00 4.4274529999999999e+00 0.0000000000000000e+00
0.0000000000000000e+00 3.0699265000000000e+01 0.0000000000000000e+00
ITEM: ATOMS id type x y z
1 1 2.12875 1.50056 23.6564
2 1 6.65403 4.12172 25.7903
3 1 2.25525 1.74448 25.9945
4 1 5.49544 3.09661 23.1256
5 1 4.42941 0.909692 23.5285
6 1 3.46166 4.1371 27.0172
7 1 3.96555 4.12781 24.6602
8 1 1.15813 0.788478 20.6961
9 1 2.97688 3.56944 22.2991
10 1 4.79943 2.06772 26.0963
11 1 4.73601 2.83229 20.9441
12 1 4.70091 3.50054 18.4784
13 1 3.12123 0.986048 21.571
14 1 1.71838 2.06388 18.0405
15 1 3.03686 2.52901 19.8292
16 2 4.22232 0.28417 19.1767
17 2 2.9511 3.69705 16.4307
18 2 5.12636 1.98553 16.1296
19 2 2.95223 0.350598 16.2118
20 2 4.0404 4.12073 13.903
21 2 1.86977 2.64296 14.0712
22 2 5.82237 3.47551 11.5052
23 2 4.18736 1.13105 13.6618
24 2 3.0507 1.7278 11.1428
25 2 2.72525 2.88329 8.6445
26 2 5.45199 1.81623 9.02477
27 2 0.725003 -0.0977473 11.2437
28 2 2.67239 0.242897 8.24563
29 2 4.58631 0.075316 6.068
30 2 1.55838 1.80006 6.13055
31 2 4.1452 2.82942 6.51478
32 2 6.27069 4.1187 2.22275
33 2 2.76015 2.51329 3.40898
34 2 5.10333 4.34433 4.44773
35 2 5.15381 1.56491 3.75847
ITEM: TIMESTEP
7700
ITEM: NUMBER OF ATOMS
35
ITEM: BOX BOUNDS xy xz yz pp pp pp
0.0000000000000000e+00 7.6685730000000003e+00 2.5561910000000001e+00
0.0000000000000000e+00 4.4274529999999999e+00 0.0000000000000000e+00
0.0000000000000000e+00 3.0699265000000000e+01 0.0000000000000000e+00
ITEM: ATOMS id type x y z
1 1 2.42514 1.6312 23.9055
2 1 5.94844 3.73893 25.5162
3 1 2.13841 1.37545 26.2536
4 1 5.97454 3.65158 23.2774
5 1 5.40989 1.12994 24.026
6 1 3.05318 3.94028 27.0593
7 1 3.54569 3.51353 24.7032
8 1 1.44277 0.702473 20.3548
9 1 3.18263 3.64364 22.2336
10 1 4.55196 1.80402 26.1411
11 1 5.66715 2.99636 20.7283
12 1 5.01052 3.3292 18.3895
13 1 4.3189 0.600765 21.2798
14 1 1.48224 1.10488 18.0592
15 1 2.99527 2.48694 19.7299
16 2 4.5705 0.344539 18.6006
17 2 2.87477 3.65318 16.506
18 2 5.21534 2.14893 16.1042
19 2 3.14744 0.722692 15.9845
20 2 4.45008 4.4116 13.8852
21 2 1.87473 2.70775 14.2135
22 2 5.6701 3.10756 11.5846
23 2 4.36203 1.49026 13.4987
24 2 2.79384 1.62681 11.2309
25 2 2.59033 3.1634 9.00947
26 2 5.06699 1.56886 8.8202
27 2 0.521053 0.30126 11.449
28 2 2.55295 0.0367803 8.32153
29 2 4.4448 -0.076107 6.15101
30 2 1.55887 1.76653 6.37561
31 2 4.03167 2.60252 6.21716
32 2 6.28763 4.529 2.18798
33 2 2.49949 2.57657 3.55474
34 2 4.78727 4.26392 4.42702
35 2 5.19422 1.37699 3.84531
ITEM: TIMESTEP
7800
ITEM: NUMBER OF ATOMS
35
ITEM: BOX BOUNDS xy xz yz pp pp pp
0.0000000000000000e+00 7.6685730000000003e+00 2.5561910000000001e+00
0.0000000000000000e+00 4.4274529999999999e+00 0.0000000000000000e+00
0.0000000000000000e+00 3.0699265000000000e+01 0.0000000000000000e+00
ITEM: ATOMS id type x y z
1 1 2.98607 0.952397 23.6977
2 1 5.60752 3.54268 25.6141
3 1 1.56188 1.32349 26.3722
4 1 6.91314 3.65577 22.404
5 1 5.4017 1.59899 23.7811
6 1 2.53666 3.51872 27.0472
7 1 3.23769 3.20282 24.865
8 1 2.70739 0.375646 20.5567
9 1 4.24214 2.91967 22.5202
10 1 4.30939 1.37381 27.0002
11 1 6.57655 2.6367 20.5435
12 1 5.27772 2.83888 18.2739
13 1 4.754 1.30345 20.947
14 1 2.15199 1.76954 18.1972
15 1 3.51088 3.25477 19.652
16 2 4.32574 0.53998 18.4066
17 2 3.00259 3.40863 16.4524
18 2 5.666 2.51934 15.9308
19 2 3.17851 0.766563 16.0355
20 2 1.92928 0.0812933 13.5919
21 2 2.05998 3.23035 13.5398
22 2 5.34515 3.00208 11.1224
23 2 4.56471 1.64052 13.7576
24 2 2.93317 1.54221 11.1678
25 2 2.36525 3.25367 9.13672
26 2 4.6589 1.55346 8.88065
27 2 0.0236657 0.082211 11.4158
28 2 4.92633 4.13804 8.65389
29 2 6.82109 4.19892 6.33349
30 2 1.31565 1.30578 6.788
31 2 3.89123 2.46062 6.38315
32 2 3.35908 0.27766 2.27527
33 2 2.42024 2.91755 3.92595
34 2 4.93826 4.3289 4.45467
35 2 5.14399 1.56054 3.77993
ITEM: TIMESTEP
7900
ITEM: NUMBER OF ATOMS
35
ITEM: BOX BOUNDS xy xz yz pp pp pp
0.0000000000000000e+00 7.6685730000000003e+00 2.5561910000000001e+00
0.0000000000000000e+00 4.4274529999999999e+00 0.0000000000000000e+00
0.0000000000000000e+00 3.0699265000000000e+01 0.0000000000000000e+00
ITEM: ATOMS id type x y z
1 1 3.2785 0.770269 23.7005
2 1 5.43196 3.40216 25.5274
3 1 1.24263 0.620902 26.3459
4 1 2.35876 3.3886 22.5293
5 1 0.794585 1.33315 23.8504
6 1 2.28804 3.21833 27.0364
7 1 2.72093 3.19749 24.8291
8 1 3.44905 0.0264685 20.9913
9 1 5.12274 3.24751 22.8651
10 1 3.7265 1.42153 26.2493
11 1 2.27108 2.40404 20.2343
12 1 4.9633 3.39304 18.2405
13 1 5.46347 1.24155 21.6993
14 1 2.11575 1.46913 17.9184
15 1 3.75126 4.56397 19.9606
16 2 4.48006 0.642143 18.1708
17 2 3.65942 3.79495 16.1842
18 2 6.20961 2.32981 15.8653
19 2 3.19767 0.761152 15.8433
20 2 2.02623 0.311781 13.5141
21 2 2.03008 3.17249 13.5414
22 2 4.93569 3.02973 11.2105
23 2 4.46503 1.71885 13.7971
24 2 2.68285 1.34687 11.2893
25 2 2.08862 2.6792 8.71335
26 2 4.48772 1.30594 8.94351
27 2 2.73516 4.44425 10.8736
28 2 2.20748 0.061954 8.85112
29 2 6.57706 3.88634 6.57029
30 2 1.15266 1.15623 6.77045
31 2 3.81203 2.43495 6.49534
32 2 2.83303 0.304495 2.42586
33 2 2.49113 3.18131 4.066
34 2 2.20567 0.239872 4.83847
35 2 5.14307 1.77841 3.89063
ITEM: TIMESTEP
8000
ITEM: NUMBER OF ATOMS
35
ITEM: BOX BOUNDS xy xz yz pp pp pp
0.0000000000000000e+00 7.6685730000000003e+00 2.5561910000000001e+00
0.0000000000000000e+00 4.4274529999999999e+00 0.0000000000000000e+00
0.0000000000000000e+00 3.0699265000000000e+01 0.0000000000000000e+00
ITEM: ATOMS id type x y z
1 1 4.21555 1.31411 23.0774
2 1 4.9768 2.8706 25.3814
3 1 1.17679 0.276548 26.9434
4 1 2.81988 2.87949 22.2872
5 1 1.56853 0.776282 24.8424
6 1 1.71218 2.94602 27.1085
7 1 2.40902 3.33946 24.8116
8 1 3.91669 0.103839 20.6173
9 1 4.85997 3.98315 23.2057
10 1 3.54981 0.911471 25.7286
11 1 3.56187 2.48375 20.0605
12 1 5.22434 3.19554 18.5317
13 1 5.7138 1.90716 21.566
14 1 2.17851 1.79042 18.2009
15 1 1.53683 0.327716 20.1307
16 2 4.81356 0.560059 18.1716
17 2 3.47479 3.85766 15.9975
18 2 6.08015 2.43511 16.0369
19 2 3.91762 0.77664 15.7291
20 2 1.85407 0.13303 13.7309
21 2 2.08167 3.18273 13.4712
22 2 5.12972 2.8043 11.3579
23 2 4.71214 1.64602 13.5596
24 2 2.41321 1.53626 11.299
25 2 1.82458 2.70558 9.09983
26 2 4.53026 1.43158 8.70652
27 2 2.65911 4.34226 11.1066
28 2 4.65917 4.08005 8.81339
29 2 6.36698 3.89992 6.42092
30 2 0.762629 1.21517 6.60217
31 2 3.54357 2.5322 6.41577
32 2 2.38358 0.357011 2.34362
33 2 2.50191 3.38031 3.90147
34 2 2.26484 0.333228 4.83788
35 2 4.95 1.85705 4.07155
ITEM: TIMESTEP
8100
ITEM: NUMBER OF ATOMS
35
ITEM: BOX BOUNDS xy xz yz pp pp pp
0.0000000000000000e+00 7.6685730000000003e+00 2.5561910000000001e+00
0.0000000000000000e+00 4.4274529999999999e+00 0.0000000000000000e+00
0.0000000000000000e+00 3.0699265000000000e+01 0.0000000000000000e+00
ITEM: ATOMS id type x y z
1 1 4.95052 0.885739 23.2578
2 1 4.39217 2.6703 25.0699
3 1 0.899649 -0.302949 27.3028
4 1 3.17925 2.9439 22.4242
5 1 1.39663 1.19445 25.0135
6 1 6.41063 2.39986 26.8498
7 1 2.32838 3.40416 24.4374
8 1 4.75385 0.246011 20.9911
9 1 4.99634 4.51142 22.5412
10 1 4.00264 0.409132 26.5182
11 1 3.90988 2.24407 19.8848
12 1 5.38908 3.76574 18.2588
13 1 5.85802 2.6144 20.9725
14 1 2.81101 1.89536 18.1098
15 1 2.14652 0.655233 20.3508
16 2 5.2798 0.197011 18.4358
17 2 3.60201 3.55854 16.3185
18 2 6.03405 2.4599 16.0818
19 2 3.47216 0.901157 16.0403
20 2 2.22813 0.0531745 13.8119
21 2 2.20932 2.94899 13.7698
22 2 5.08605 3.15043 10.978
23 2 4.8715 1.58793 13.5101
24 2 2.56746 1.23895 11.4325
25 2 2.01371 2.75515 8.96649
26 2 4.1849 1.17219 9.1236
27 2 2.52366 4.51583 11.3066
28 2 4.27949 4.20133 8.51287
29 2 6.07085 4.03809 6.69917
30 2 0.796655 1.21481 6.60304
31 2 3.37086 2.564 6.34737
32 2 2.13472 0.458437 2.06681
33 2 2.1533 3.47191 3.61538
34 2 2.30306 0.507768 4.38313
35 2 4.7264 1.91913 3.84996
ITEM: TIMESTEP
8200
ITEM: NUMBER OF ATOMS
35
ITEM: BOX BOUNDS xy xz yz pp pp pp
0.0000000000000000e+00 7.6685730000000003e+00 2.5561910000000001e+00
0.0000000000000000e+00 4.4274529999999999e+00 0.0000000000000000e+00
0.0000000000000000e+00 3.0699265000000000e+01 0.0000000000000000e+00
ITEM: ATOMS id type x y z
1 1 5.83145 1.38285 23.4588
2 1 4.50427 2.45538 24.8127
3 1 3.47071 3.39768 26.6257
4 1 3.72868 2.60898 22.3868
5 1 2.04266 0.459843 25.145
6 1 5.96463 1.99486 26.7965
7 1 1.42865 3.43236 24.7614
8 1 5.3875 0.4319 21.1305
9 1 2.94229 0.333062 23.0417
10 1 3.69702 0.783252 26.403
11 1 3.89783 3.06947 20.1688
12 1 5.61362 3.3391 18.4116
13 1 6.62535 2.92008 21.0029
14 1 2.20116 2.05863 18.4494
15 1 2.8926 0.596737 20.4205
16 2 0.305797 0.410297 18.6298
17 2 3.56098 3.80897 16.0839
18 2 6.07454 1.93874 16.1735
19 2 3.51544 0.548566 16.319
20 2 2.61157 -0.141544 13.7265
21 2 2.46879 2.89444 13.9319
22 2 4.92985 2.94178 11.0206
23 2 4.91052 1.60756 13.7939
24 2 2.50372 1.67811 11.4985
25 2 1.84589 2.59363 8.76391
26 2 4.00962 0.918357 9.02224
27 2 5.2137 -0.102671 11.6235
28 2 3.92318 4.45435 8.75432
29 2 5.99895 4.27454 6.50222
30 2 0.580048 1.38744 6.1721
31 2 3.41862 2.62785 6.14106
32 2 1.87335 0.573948 1.97224
33 2 1.88609 3.49584 3.55815
34 2 2.1452 0.610858 4.32293
35 2 4.59138 2.06196 3.48003
ITEM: TIMESTEP
8300
ITEM: NUMBER OF ATOMS
35
ITEM: BOX BOUNDS xy xz yz pp pp pp
0.0000000000000000e+00 7.6685730000000003e+00 2.5561910000000001e+00
0.0000000000000000e+00 4.4274529999999999e+00 0.0000000000000000e+00
0.0000000000000000e+00 3.0699265000000000e+01 0.0000000000000000e+00
ITEM: ATOMS id type x y z
1 1 2.08366 1.57491 23.3752
2 1 3.98301 1.43065 24.3913
3 1 2.8162 3.0602 26.9145
4 1 3.56521 3.5698 22.7462
5 1 1.83182 -0.17476 25.4383
6 1 5.95372 2.16433 26.1873
7 1 7.19042 3.51033 24.6756
8 1 5.60202 1.07737 21.4901
9 1 6.5661 4.04521 22.6555
10 1 3.93438 0.682807 27.1415
11 1 4.80656 3.18455 20.8023
12 1 5.29395 3.37918 18.2094
13 1 2.05099 2.78493 20.7735
14 1 3.13866 2.20983 18.2959
15 1 3.29238 0.778769 20.644
16 2 5.21917 0.767948 18.8333
17 2 3.66963 3.37298 16.3238
18 2 6.16253 2.00673 16.2811
19 2 3.83295 0.45574 16.5129
20 2 5.16356 4.30161 13.5423
21 2 2.58935 2.74788 13.9126
22 2 5.06577 2.7016 11.1624
23 2 5.03967 1.27287 13.9145
24 2 2.28645 1.5468 11.3247
25 2 6.32976 2.62265 8.67113
26 2 3.90278 1.26738 8.82204
27 2 -0.0234573 0.0627877 11.5132
28 2 3.86745 4.00166 9.06856
29 2 5.94906 4.29501 6.52947
30 2 5.46412 1.64779 5.91639
31 2 3.12119 3.16666 6.04346
32 2 1.54953 0.695912 1.79626
33 2 6.99176 3.61394 3.65201
34 2 2.19279 0.472759 4.3434
35 2 4.32839 2.13499 3.07207
ITEM: TIMESTEP
8400
ITEM: NUMBER OF ATOMS
35
ITEM: BOX BOUNDS xy xz yz pp pp pp
0.0000000000000000e+00 7.6685730000000003e+00 2.5561910000000001e+00
0.0000000000000000e+00 4.4274529999999999e+00 0.0000000000000000e+00
0.0000000000000000e+00 3.0699265000000000e+01 0.0000000000000000e+00
ITEM: ATOMS id type x y z
1 1 2.59429 1.91994 23.1668
2 1 4.03919 1.30634 24.8468
3 1 3.1681 2.7047 27.3272
4 1 4.6243 3.90696 23.5086
5 1 4.76955 3.99859 25.7786
6 1 6.30231 1.74548 26.0854
7 1 2.4365 3.27009 25.1367
8 1 5.83552 1.10321 21.639
9 1 6.64686 3.6994 22.3377
10 1 3.67589 0.114362 26.9538
11 1 4.45542 2.97453 21.1281
12 1 5.43158 3.78017 18.8948
13 1 2.43541 3.64969 20.2513
14 1 2.54278 1.87731 18.3199
15 1 3.24255 1.06833 20.5827
16 2 5.61744 1.03959 18.886
17 2 4.08552 3.32211 16.2726
18 2 1.44009 1.9776 16.2117
19 2 3.97077 0.45258 16.0707
20 2 4.99704 4.13226 13.9902
21 2 2.5015 2.57785 13.7546
22 2 4.9253 2.90112 11.6535
23 2 5.20344 1.08945 13.7911
24 2 2.55801 1.17037 11.0976
25 2 6.19611 2.62957 8.73876
26 2 3.77852 1.33184 8.74957
27 2 4.71452 -0.120718 11.0376
28 2 3.52067 4.03092 8.87346
29 2 2.70364 0.265586 6.79596
30 2 5.24864 1.7719 5.67118
31 2 3.00977 3.19599 6.18552
32 2 1.32037 0.856301 2.08088
33 2 7.03948 3.6684 3.41922
34 2 2.17412 0.502756 4.25566
35 2 4.21161 2.13873 2.92128
ITEM: TIMESTEP
8500
ITEM: NUMBER OF ATOMS
35
ITEM: BOX BOUNDS xy xz yz pp pp pp
0.0000000000000000e+00 7.6685730000000003e+00 2.5561910000000001e+00
0.0000000000000000e+00 4.4274529999999999e+00 0.0000000000000000e+00
0.0000000000000000e+00 3.0699265000000000e+01 0.0000000000000000e+00
ITEM: ATOMS id type x y z
1 1 3.28686 2.03418 22.9503
2 1 4.21259 1.17746 25.2343
3 1 3.53342 2.04386 27.3441
4 1 4.76542 3.62671 23.661
5 1 5.16069 3.2041 25.906
6 1 1.38829 1.41176 26.8193
7 1 2.14485 3.392 24.9372
8 1 1.1173 1.09146 22.2407
9 1 7.00943 4.41479 22.9581
10 1 5.00184 -0.0223656 27.4672
11 1 4.80666 3.21269 21.0976
12 1 5.5503 4.25315 18.3968
13 1 6.89438 3.22392 20.107
14 1 3.39787 2.33132 18.5886
15 1 2.87822 0.907649 20.5013
16 2 5.8119 1.28912 18.3256
17 2 4.05427 3.51386 16.5166
18 2 1.45316 1.7634 15.9099
19 2 4.31932 0.352954 16.2233
20 2 5.2053 4.04885 13.9989
21 2 2.57109 2.64169 13.5493
22 2 4.60764 2.80533 11.5184
23 2 5.22975 0.902854 13.3947
24 2 2.06946 1.25391 11.3026
25 2 6.2875 2.61874 8.76331
26 2 3.81415 1.43556 8.87793
27 2 7.32581 3.89336 11.2174
28 2 3.39201 4.29866 8.71329
29 2 2.383 0.371919 6.82975
30 2 5.0823 1.71464 5.45618
31 2 2.26951 3.14378 6.09435
32 2 1.17628 1.0292 2.13745
33 2 6.87238 3.66675 3.37424
34 2 2.29299 0.576414 4.2964
35 2 4.12906 2.32737 3.16673
ITEM: TIMESTEP
8600
ITEM: NUMBER OF ATOMS
35
ITEM: BOX BOUNDS xy xz yz pp pp pp
0.0000000000000000e+00 7.6685730000000003e+00 2.5561910000000001e+00
0.0000000000000000e+00 4.4274529999999999e+00 0.0000000000000000e+00
0.0000000000000000e+00 3.0699265000000000e+01 0.0000000000000000e+00
ITEM: ATOMS id type x y z
1 1 3.61062 2.33358 22.8037
2 1 4.48538 0.793045 25.2853
3 1 4.37783 1.33653 27.7867
4 1 4.86548 4.13755 24.0068
5 1 5.26377 3.84661 26.6636
6 1 1.67675 1.12336 26.689
7 1 2.90868 2.48157 25.0966
8 1 1.02361 1.68722 22.3719
9 1 7.09722 4.3335 22.8475
10 1 2.81811 3.39858 27.1656
11 1 4.31121 2.85218 20.6208
12 1 3.47368 -0.0818553 18.3667
13 1 7.01553 3.46591 20.997
14 1 3.21522 3.16776 18.3297
15 1 3.0762 0.990341 20.7846
16 2 0.99348 1.15779 18.5932
17 2 4.1269 3.21794 15.9768
18 2 1.68161 1.89471 16.0076
19 2 4.23701 0.525838 15.9087
20 2 5.4646 3.94666 13.5982
21 2 3.01724 2.52603 13.8095
22 2 4.52715 2.56642 11.0169
23 2 5.25814 0.990824 13.579
24 2 1.76331 0.933733 11.3294
25 2 6.06591 2.83559 8.52907
26 2 3.43537 1.70081 8.88139
27 2 6.82642 3.93392 11.1063
28 2 3.39062 4.42127 8.9565
29 2 2.62488 0.219745 6.89694
30 2 4.74676 1.68038 5.9982
31 2 2.17146 3.27508 5.88156
32 2 1.05412 1.18511 2.17427
33 2 6.70663 3.70245 3.23186
34 2 2.05248 0.472399 4.48454
35 2 3.97241 2.61505 3.1422
ITEM: TIMESTEP
8700
ITEM: NUMBER OF ATOMS
35
ITEM: BOX BOUNDS xy xz yz pp pp pp
0.0000000000000000e+00 7.6685730000000003e+00 2.5561910000000001e+00
0.0000000000000000e+00 4.4274529999999999e+00 0.0000000000000000e+00
0.0000000000000000e+00 3.0699265000000000e+01 0.0000000000000000e+00
ITEM: ATOMS id type x y z
1 1 3.90178 2.9681 22.4282
2 1 5.03233 -0.0204774 25.6487
3 1 4.65002 0.610912 27.8874
4 1 4.78822 4.6196 24.6686
5 1 5.67616 3.47972 26.9252
6 1 1.75206 1.69316 26.0986
7 1 3.54488 2.18883 24.6661
8 1 6.28909 1.92626 22.2776
9 1 7.06065 4.12807 23.1148
10 1 3.3665 2.85132 27.2919
11 1 4.64696 3.00961 20.1642
12 1 5.84357 4.1312 18.314
13 1 7.45625 3.43719 20.3795
14 1 3.24178 2.69611 17.9976
15 1 2.557 0.678317 21.2628
16 2 0.793738 1.33819 19.0672
17 2 4.7458 3.40712 15.9199
18 2 1.65332 1.76911 16.5547
19 2 4.14011 0.463395 15.9327
20 2 5.6846 3.84125 13.3471
21 2 3.0677 2.50275 13.2253
22 2 4.33921 2.14771 11.0704
23 2 5.97089 1.17555 13.7241
24 2 1.70326 0.952966 11.2925
25 2 5.79578 2.86393 8.61479
26 2 3.0918 1.87958 8.71591
27 2 6.68612 3.94333 10.9204
28 2 0.41085 0.295271 8.78444
29 2 2.28973 0.0991497 6.83042
30 2 4.73875 1.72513 6.13764
31 2 2.65498 3.19045 5.90403
32 2 1.08512 1.21877 2.27564
33 2 6.36137 4.0958 3.25959
34 2 1.41692 0.738245 4.5416
35 2 3.90502 2.39224 3.22628
ITEM: TIMESTEP
8800
ITEM: NUMBER OF ATOMS
35
ITEM: BOX BOUNDS xy xz yz pp pp pp
0.0000000000000000e+00 7.6685730000000003e+00 2.5561910000000001e+00
0.0000000000000000e+00 4.4274529999999999e+00 0.0000000000000000e+00
0.0000000000000000e+00 3.0699265000000000e+01 0.0000000000000000e+00
ITEM: ATOMS id type x y z
1 1 3.64334 3.7191 22.5469
2 1 2.60139 4.12759 25.3119
3 1 4.89006 0.0838671 27.9226
4 1 5.06581 4.18963 24.2847
5 1 5.30419 4.15302 26.4923
6 1 2.00413 1.7872 25.8349
7 1 4.74082 1.6524 24.6722
8 1 5.90603 1.79985 22.4799
9 1 4.2137 0.275482 22.933
10 1 3.80357 2.3448 27.7156
11 1 4.85777 2.94534 20.5385
12 1 3.13747 0.140744 18.5342
13 1 2.01975 3.40266 20.0937
14 1 3.89408 2.69286 18.339
15 1 3.2429 1.01097 20.8114
16 2 0.817305 0.906705 19.0493
17 2 4.29704 3.29765 15.8448
18 2 1.78479 1.70881 16.6529
19 2 4.72281 0.433178 16.0981
20 2 5.93061 4.08956 13.3646
21 2 3.22342 2.81172 13.6269
22 2 4.33866 2.18553 11.0928
23 2 0.951947 0.926655 13.9997
24 2 1.67844 0.823589 10.9326
25 2 5.32107 3.15549 8.8482
26 2 3.01259 1.87163 8.52062
27 2 7.14025 3.64039 11.0827
28 2 5.12733 0.183085 8.3634
29 2 2.35697 0.0706557 6.54521
30 2 4.60117 1.67926 6.14082
31 2 2.09166 3.10189 6.10194
32 2 1.21313 1.23384 1.73641
33 2 6.11185 4.08606 3.82542
34 2 1.34077 1.13725 4.22488
35 2 3.66599 2.57232 3.50908
ITEM: TIMESTEP
8900
ITEM: NUMBER OF ATOMS
35
ITEM: BOX BOUNDS xy xz yz pp pp pp
0.0000000000000000e+00 7.6685730000000003e+00 2.5561910000000001e+00
0.0000000000000000e+00 4.4274529999999999e+00 0.0000000000000000e+00
0.0000000000000000e+00 3.0699265000000000e+01 0.0000000000000000e+00
ITEM: ATOMS id type x y z
1 1 3.03517 3.51653 22.5533
2 1 3.29123 3.57732 24.8814
3 1 2.79877 4.24407 26.9893
4 1 5.27159 4.4204 24.2138
5 1 5.32026 3.93701 27.0012
6 1 1.85881 1.76676 25.6705
7 1 4.78898 2.03828 24.998
8 1 1.5679 1.82262 22.3526
9 1 3.70341 0.952576 22.4107
10 1 3.85942 1.63406 26.9068
11 1 5.05494 3.6472 20.985
12 1 5.96329 4.07451 18.3619
13 1 1.93447 3.09393 20.0278
14 1 4.23773 2.43448 18.6026
15 1 3.50246 1.23071 20.2573
16 2 0.914123 0.547296 18.9654
17 2 4.74022 3.32339 16.2913
18 2 2.1709 2.12818 16.8688
19 2 4.41542 0.234783 16.2994
20 2 5.8086 4.38888 13.6059
21 2 3.24125 2.46238 13.7575
22 2 4.64259 1.90566 11.442
23 2 5.76837 1.39127 13.6265
24 2 1.99244 0.613117 10.9366
25 2 5.09761 3.30463 8.96036
26 2 2.55579 1.70577 8.55932
27 2 2.22078 3.43573 11.2185
28 2 5.35736 0.472888 8.26353
29 2 1.94497 0.0309473 6.17826
30 2 4.26055 1.80432 5.91222
31 2 1.81255 2.92057 6.35225
32 2 1.21501 1.20993 1.75273
33 2 6.10511 3.98619 3.70671
34 2 1.19452 1.30121 4.16379
35 2 3.57579 3.02553 3.5065
ITEM: TIMESTEP
9000
ITEM: NUMBER OF ATOMS
35
ITEM: BOX BOUNDS xy xz yz pp pp pp
0.0000000000000000e+00 7.6685730000000003e+00 2.5561910000000001e+00
0.0000000000000000e+00 4.4274529999999999e+00 0.0000000000000000e+00
0.0000000000000000e+00 3.0699265000000000e+01 0.0000000000000000e+00
ITEM: ATOMS id type x y z
1 1 2.32355 3.8759 21.9302
2 1 2.96299 3.83948 24.2633
3 1 3.24434 3.92744 26.6885
4 1 5.7421 4.25822 24.6001
5 1 5.50195 3.06413 26.6126
6 1 1.75845 1.59526 25.6794
7 1 5.00533 2.0041 24.4038
8 1 1.34292 1.40251 22.1408
9 1 4.08872 1.8247 22.1386
10 1 3.78014 1.47295 26.748
11 1 4.76258 3.69832 21.3185
12 1 6.48607 3.97289 18.2706
13 1 2.34941 2.50186 20.086
14 1 4.33707 2.26984 18.4815
15 1 3.78766 0.734727 20.4387
16 2 1.10663 0.324371 18.8727
17 2 4.79406 3.5247 16.1598
18 2 2.19827 1.9326 17.059
19 2 4.9064 0.800783 16.0058
20 2 5.64465 4.04112 13.7237
21 2 3.10102 2.87532 13.9899
22 2 4.7314 1.77024 11.117
23 2 5.88635 1.41222 13.9351
24 2 2.26138 0.452035 11.5021
25 2 5.06443 3.23029 8.81451
26 2 2.70992 1.90341 8.90554
27 2 2.20964 3.37696 11.24
28 2 5.07161 0.527894 8.67707
29 2 4.22812 4.21859 6.37479
30 2 3.88921 1.50986 5.837
31 2 6.69895 3.11618 6.43637
32 2 1.07338 1.24646 1.949
33 2 3.60426 0.0678883 3.14748
34 2 0.972472 1.64114 4.31941
35 2 3.54296 2.90474 3.1483
ITEM: TIMESTEP
9100
ITEM: NUMBER OF ATOMS
35
ITEM: BOX BOUNDS xy xz yz pp pp pp
0.0000000000000000e+00 7.6685730000000003e+00 2.5561910000000001e+00
0.0000000000000000e+00 4.4274529999999999e+00 0.0000000000000000e+00
0.0000000000000000e+00 3.0699265000000000e+01 0.0000000000000000e+00
ITEM: ATOMS id type x y z
1 1 6.81535 3.9935 22.3943
2 1 3.3372 4.05125 24.3828
3 1 3.22223 3.55445 26.4369
4 1 3.41401 -0.0714651 24.1769
5 1 5.89601 3.16681 26.7085
6 1 1.89727 1.75649 25.0016
7 1 4.89642 1.76629 24.2857
8 1 1.09786 0.929366 22.1687
9 1 3.31665 2.08116 22.5989
10 1 4.17189 0.834215 26.3679
11 1 4.86277 3.33429 20.8229
12 1 6.23016 3.70662 17.7297
13 1 2.04971 2.45375 19.6693
14 1 4.85212 2.25713 18.4087
15 1 4.2732 0.523041 19.8707
16 2 1.48858 -0.0323179 18.8473
17 2 4.54074 3.80601 16.227
18 2 2.46878 1.9005 16.7285
19 2 4.95382 0.959643 16.3567
20 2 6.10181 4.14397 13.8123
21 2 3.32089 2.84235 13.9701
22 2 4.81459 1.99695 11.3458
23 2 1.06113 1.21894 13.5984
24 2 2.10062 0.37526 11.3094
25 2 5.09489 3.56438 8.82602
26 2 2.47868 1.93933 8.91914
27 2 2.24636 3.36845 11.4577
28 2 5.01226 0.243169 8.98037
29 2 3.86177 4.12386 6.32497
30 2 3.56429 1.32225 6.23409
31 2 6.6296 3.17893 6.5099
32 2 0.904163 1.35037 1.98384
33 2 3.50816 0.240128 3.09172
34 2 5.94659 1.88456 4.4045
35 2 3.49084 3.03936 3.2621
ITEM: TIMESTEP
9200
ITEM: NUMBER OF ATOMS
35
ITEM: BOX BOUNDS xy xz yz pp pp pp
0.0000000000000000e+00 7.6685730000000003e+00 2.5561910000000001e+00
0.0000000000000000e+00 4.4274529999999999e+00 0.0000000000000000e+00
0.0000000000000000e+00 3.0699265000000000e+01 0.0000000000000000e+00
ITEM: ATOMS id type x y z
1 1 6.39978 3.1505 22.1759
2 1 3.36189 4.54656 24.038
3 1 3.49594 2.88496 26.818
4 1 5.82314 4.16401 24.7257
5 1 5.94029 2.72063 26.7061
6 1 2.55823 2.4347 24.5201
7 1 4.75629 2.20643 23.7154
8 1 1.04023 0.580701 21.4327
9 1 2.86831 1.32711 22.3413
10 1 4.79424 0.89998 26.1462
11 1 4.45997 2.59905 21.0807
12 1 6.84992 3.96331 18.1132
13 1 2.41478 2.30148 19.873
14 1 5.14298 2.04612 18.4213
15 1 3.61638 0.553482 20.2125
16 2 4.16438 4.39664 18.6427
17 2 4.65234 3.76019 15.9879
18 2 2.4335 2.15487 16.2016
19 2 5.0272 0.983576 15.9666
20 2 6.48881 4.26997 14.0602
21 2 3.86973 2.43799 13.7366
22 2 4.805 2.12262 11.4382
23 2 1.25102 1.25642 13.7538
24 2 2.30706 0.539417 11.1363
25 2 4.88565 3.34446 8.81965
26 2 2.186 1.88671 8.79955
27 2 2.2249 3.42792 11.4887
28 2 4.97317 0.526075 9.08319
29 2 3.85875 4.39661 6.08345
30 2 3.75841 1.55165 6.55725
31 2 6.21256 2.90209 6.60621
32 2 5.89294 1.55495 2.02672
33 2 3.23804 0.0533195 3.74291
34 2 5.59537 1.78937 4.47467
35 2 3.20989 3.37635 3.8308
ITEM: TIMESTEP
9300
ITEM: NUMBER OF ATOMS
35
ITEM: BOX BOUNDS xy xz yz pp pp pp
0.0000000000000000e+00 7.6685730000000003e+00 2.5561910000000001e+00
0.0000000000000000e+00 4.4274529999999999e+00 0.0000000000000000e+00
0.0000000000000000e+00 3.0699265000000000e+01 0.0000000000000000e+00
ITEM: ATOMS id type x y z
1 1 2.17076 3.02072 22.6048
2 1 0.656978 0.513422 23.3197
3 1 4.12372 2.65048 26.4645
4 1 3.31719 -0.0202274 25.0384
5 1 6.32359 2.59167 26.6866
6 1 2.30492 2.17584 24.8878
7 1 4.10433 2.66386 23.4547
8 1 0.12372 0.427845 20.3804
9 1 2.8069 0.362277 22.3724
10 1 0.608664 0.356542 25.913
11 1 4.01009 2.30354 20.9413
12 1 6.70718 4.4011 17.9731
13 1 2.20963 2.31663 19.2111
14 1 4.9798 2.01969 18.3292
15 1 5.90991 3.51136 20.6892
16 2 1.61279 0.148226 18.278
17 2 5.22018 3.85219 16.0638
18 2 2.42686 2.37957 16.4061
19 2 5.09178 0.941386 15.9045
20 2 6.59532 3.6257 13.5898
21 2 4.01259 2.89041 13.5828
22 2 5.10448 1.97105 11.0721
23 2 1.64806 1.09257 13.747
24 2 2.67769 0.659168 11.5702
25 2 4.45914 3.50317 8.93046
26 2 2.24222 1.98506 9.08401
27 2 2.43194 3.61446 11.1832
28 2 4.68107 0.463018 8.74595
29 2 1.31107 0.11762 6.65665
30 2 3.72518 1.51559 6.64183
31 2 6.39302 3.18743 6.65963
32 2 5.79212 1.8328 2.2521
33 2 2.86213 0.243785 4.33835
34 2 5.05228 1.74272 4.53403
35 2 2.71727 3.04341 3.91753
ITEM: TIMESTEP
9400
ITEM: NUMBER OF ATOMS
35
ITEM: BOX BOUNDS xy xz yz pp pp pp
0.0000000000000000e+00 7.6685730000000003e+00 2.5561910000000001e+00
0.0000000000000000e+00 4.4274529999999999e+00 0.0000000000000000e+00
0.0000000000000000e+00 3.0699265000000000e+01 0.0000000000000000e+00
ITEM: ATOMS id type x y z
1 1 1.78913 3.02331 22.5256
2 1 5.16602 0.986395 22.9819
3 1 4.23868 1.71229 25.6417
4 1 6.23818 4.10257 25.4332
5 1 7.0999 2.85966 27.4519
6 1 2.08233 2.05306 24.4827
7 1 4.74996 3.24721 23.8052
8 1 0.606745 0.203489 20.7122
9 1 2.69592 0.29485 22.5319
10 1 0.915134 -0.00850537 25.4231
11 1 3.28355 1.64186 20.7439
12 1 6.27082 4.50609 18.7096
13 1 2.30382 2.43363 18.8756
14 1 4.86582 2.28549 18.2074
15 1 5.52485 2.74634 20.5936
16 2 1.15805 0.325233 18.0524
17 2 5.40496 3.70773 15.8582
18 2 2.96518 2.52247 16.4618
19 2 4.95525 0.798779 15.6142
20 2 6.68663 3.85965 13.4058
21 2 4.09319 2.53323 13.6068
22 2 5.54885 1.92338 11.3327
23 2 1.82093 1.06505 13.8758
24 2 2.96335 0.666753 11.3448
25 2 4.71702 3.70365 9.19679
26 2 2.00501 1.9805 9.11251
27 2 3.08722 3.66194 11.1255
28 2 4.38024 0.35977 8.88008
29 2 1.16955 0.152129 6.60219
30 2 3.32653 1.79368 6.88197
31 2 6.42555 3.27508 6.41527
32 2 5.6325 2.00091 2.56123
33 2 2.22532 0.234512 4.1185
34 2 5.04566 1.70466 4.92132
35 2 2.51475 3.1142 3.84191
ITEM: TIMESTEP
9500
ITEM: NUMBER OF ATOMS
35
ITEM: BOX BOUNDS xy xz yz pp pp pp
0.0000000000000000e+00 7.6685730000000003e+00 2.5561910000000001e+00
0.0000000000000000e+00 4.4274529999999999e+00 0.0000000000000000e+00
0.0000000000000000e+00 3.0699265000000000e+01 0.0000000000000000e+00
ITEM: ATOMS id type x y z
1 1 6.89902 3.24492 22.3904
2 1 5.01435 0.860398 22.9968
3 1 4.49742 1.5585 25.7962
4 1 5.74129 3.45771 25.6295
5 1 3.13787 2.8094 26.8808
6 1 2.23735 1.6769 24.9704
7 1 4.3644 2.99266 23.3702
8 1 3.62235 4.06565 20.8922
9 1 2.27381 0.917662 22.7382
10 1 3.48508 4.32408 25.2932
11 1 3.47253 1.33615 20.5664
12 1 3.36927 0.579626 18.2268
13 1 2.02633 2.83833 18.8716
14 1 4.65065 2.65545 18.2225
15 1 5.57479 2.54385 20.5516
16 2 0.895346 0.290293 18.231
17 2 5.45791 3.53437 15.809
18 2 2.60381 2.34218 16.0142
19 2 5.15434 0.757214 15.9591
20 2 6.98416 4.02382 13.5598
21 2 4.38143 2.42264 13.7308
22 2 5.8727 2.09559 11.5927
23 2 1.86934 1.10117 13.8386
24 2 3.27411 0.736061 11.2537
25 2 4.55141 3.23628 8.83361
26 2 1.79613 2.06415 9.01474
27 2 3.44608 3.53025 11.5263
28 2 4.80452 0.557012 9.09518
29 2 0.992134 0.0757311 6.70372
30 2 3.28936 1.84128 6.97607
31 2 5.99169 3.7005 6.16181
32 2 5.2075 2.06364 2.61607
33 2 2.38199 0.384864 3.73033
34 2 4.69671 1.4931 4.88445
35 2 2.48227 3.36282 3.93218
ITEM: TIMESTEP
9600
ITEM: NUMBER OF ATOMS
35
ITEM: BOX BOUNDS xy xz yz pp pp pp
0.0000000000000000e+00 7.6685730000000003e+00 2.5561910000000001e+00
0.0000000000000000e+00 4.4274529999999999e+00 0.0000000000000000e+00
0.0000000000000000e+00 3.0699265000000000e+01 0.0000000000000000e+00
ITEM: ATOMS id type x y z
1 1 6.35239 3.12356 22.9905
2 1 5.01095 1.12787 23.2646
3 1 4.74554 1.14137 25.778
4 1 5.75947 3.74023 25.3103
5 1 3.70808 3.0775 27.1961
6 1 2.25296 1.74479 25.1826
7 1 3.9682 2.75222 22.322
8 1 3.15568 3.90691 20.8923
9 1 2.70984 0.854841 22.8698
10 1 3.46007 3.48159 24.487
11 1 3.41015 0.691559 20.256
12 1 3.58688 0.560513 18.1902
13 1 1.90477 2.93701 18.4161
14 1 4.47373 2.76006 18.7267
15 1 6.06668 1.86276 20.9429
16 2 1.02023 0.608888 18.7209
17 2 4.97308 3.74997 16.1311
18 2 2.38477 2.28075 16.1959
19 2 5.46037 0.646273 16.1438
20 2 7.12848 4.05923 13.7501
21 2 4.54812 2.49542 13.9284
22 2 6.1242 2.3102 11.4377
23 2 1.94992 0.900809 13.6684
24 2 3.44279 0.643405 11.2303
25 2 4.65777 3.36359 8.84768
26 2 2.11494 2.11133 9.22251
27 2 3.57828 3.58537 11.3231
28 2 4.74756 0.260379 9.09036
29 2 0.605789 0.440057 6.63349
30 2 2.90795 1.73093 6.63603
31 2 5.88913 3.29966 6.33248
32 2 4.9055 2.30026 2.31854
33 2 2.56148 0.529451 3.49473
34 2 4.74981 1.81357 4.7035
35 2 2.31292 3.22037 3.85509
ITEM: TIMESTEP
9700
ITEM: NUMBER OF ATOMS
35
ITEM: BOX BOUNDS xy xz yz pp pp pp
0.0000000000000000e+00 7.6685730000000003e+00 2.5561910000000001e+00
0.0000000000000000e+00 4.4274529999999999e+00 0.0000000000000000e+00
0.0000000000000000e+00 3.0699265000000000e+01 0.0000000000000000e+00
ITEM: ATOMS id type x y z
1 1 6.54235 2.98835 23.2623
2 1 5.18249 0.507569 23.5728
3 1 4.61307 1.47592 26.0772
4 1 6.3546 3.86551 25.8687
5 1 4.01668 3.71947 26.3603
6 1 1.96012 1.24109 25.6359
7 1 4.15408 2.15306 21.5489
8 1 2.55843 3.87192 21.0903
9 1 2.59673 0.637284 23.4504
10 1 3.84672 2.6374 24.1566
11 1 2.46376 -0.0713155 21.1442
12 1 3.3701 1.17504 17.9931
13 1 2.08978 3.32863 18.5153
14 1 4.5967 2.78711 19.2397
15 1 1.28238 1.75658 21.3236
16 2 1.22326 0.941894 18.6977
17 2 4.95338 3.51 16.6488
18 2 2.45058 2.4329 16.028
19 2 4.9914 0.901049 16.2426
20 2 7.20425 3.87384 13.8918
21 2 4.61387 2.39928 13.8801
22 2 5.87857 2.33662 11.5502
23 2 2.17861 0.890696 13.7045
24 2 3.66945 0.754857 11.5277
25 2 4.94385 3.27261 9.06637
26 2 2.29135 1.58681 8.95372
27 2 3.48611 3.83089 11.2581
28 2 4.63701 0.519856 8.83024
29 2 0.623341 0.156935 6.37395
30 2 3.03374 1.73304 6.23582
31 2 5.74023 3.39343 6.56219
32 2 4.75384 2.44794 1.83791
33 2 2.02192 0.351698 3.63029
34 2 5.03156 2.12066 4.29837
35 2 2.27532 3.48812 3.59795
ITEM: TIMESTEP
9800
ITEM: NUMBER OF ATOMS
35
ITEM: BOX BOUNDS xy xz yz pp pp pp
0.0000000000000000e+00 7.6685730000000003e+00 2.5561910000000001e+00
0.0000000000000000e+00 4.4274529999999999e+00 0.0000000000000000e+00
0.0000000000000000e+00 3.0699265000000000e+01 0.0000000000000000e+00
ITEM: ATOMS id type x y z
1 1 6.6989 2.16461 23.8239
2 1 5.41605 0.122831 23.9468
3 1 4.96752 1.87756 26.2898
4 1 6.05349 3.83787 25.7358
5 1 3.83209 4.21327 26.0421
6 1 2.63774 1.55414 26.1652
7 1 3.34669 1.28627 21.362
8 1 2.64828 4.06557 21.2667
9 1 2.57424 0.0931899 24.1278
10 1 4.12629 2.60556 23.5426
11 1 5.06591 3.63817 21.8872
12 1 3.38905 1.25929 18.6008
13 1 2.03395 3.47456 18.303
14 1 4.63842 3.42026 19.3083
15 1 1.37848 2.04197 21.0558
16 2 0.96811 1.15527 18.8126
17 2 5.04078 3.7795 16.8642
18 2 2.26649 2.17518 16.2569
19 2 4.93535 0.897768 16.0825
20 2 7.23601 3.80018 13.734
21 2 4.75849 2.48412 13.9613
22 2 6.17764 2.31113 11.4936
23 2 2.07188 0.665721 14.1718
24 2 3.45779 1.02973 11.2901
25 2 4.55047 3.10132 9.1996
26 2 2.2117 1.5311 8.58487
27 2 3.32777 3.96573 11.4154
28 2 4.96769 0.436726 8.64801
29 2 3.38465 4.38815 6.01845
30 2 3.27316 1.7152 5.93284
31 2 5.89634 3.39535 6.50608
32 2 4.58797 2.29671 1.92839
33 2 2.16516 0.633289 3.60362
34 2 5.05382 2.10092 4.21754
35 2 2.00783 3.80455 3.3155
ITEM: TIMESTEP
9900
ITEM: NUMBER OF ATOMS
35
ITEM: BOX BOUNDS xy xz yz pp pp pp
0.0000000000000000e+00 7.6685730000000003e+00 2.5561910000000001e+00
0.0000000000000000e+00 4.4274529999999999e+00 0.0000000000000000e+00
0.0000000000000000e+00 3.0699265000000000e+01 0.0000000000000000e+00
ITEM: ATOMS id type x y z
1 1 1.13733 2.3975 23.8692
2 1 0.189941 -0.146037 23.8512
3 1 5.44463 1.68274 25.8725
4 1 6.57759 4.16294 26.5324
5 1 4.04134 4.00304 26.1813
6 1 2.84051 1.88008 26.2108
7 1 3.8439 1.47425 21.0929
8 1 2.62206 4.14013 21.2843
9 1 2.63275 0.043989 23.9592
10 1 3.98142 2.28355 24.2177
11 1 4.53028 3.35207 22.0747
12 1 3.32106 1.33906 18.651
13 1 2.39587 3.43837 19.0713
14 1 5.12131 3.79182 19.847
15 1 6.49309 1.72798 21.2748
16 2 0.734444 1.49291 18.5873
17 2 4.74243 3.79444 16.6648
18 2 2.32453 2.28845 16.4428
19 2 4.74558 0.567649 16.3905
20 2 7.06733 3.69643 13.8427
21 2 4.64585 2.13997 13.8889
22 2 6.03534 2.54861 11.2258
23 2 2.12174 0.724585 13.995
24 2 3.37555 1.00098 11.1443
25 2 4.61681 3.20334 8.70606
26 2 2.27303 1.7381 8.55804
27 2 3.56061 4.0644 11.3686
28 2 4.63013 0.0872352 8.60859
29 2 0.944476 0.129567 6.00124
30 2 3.16041 1.50882 5.99194
31 2 6.07576 3.10973 6.64785
32 2 4.36795 2.13919 2.03336
33 2 2.39646 0.966539 3.17521
34 2 5.23355 2.2887 4.42821
35 2 7.32411 3.77992 3.44674
ITEM: TIMESTEP
10000
ITEM: NUMBER OF ATOMS
35
ITEM: BOX BOUNDS xy xz yz pp pp pp
0.0000000000000000e+00 7.6685730000000003e+00 2.5561910000000001e+00
0.0000000000000000e+00 4.4274529999999999e+00 0.0000000000000000e+00
0.0000000000000000e+00 3.0699265000000000e+01 0.0000000000000000e+00
ITEM: ATOMS id type x y z
1 1 6.64589 2.46157 23.7213
2 1 0.0875313 0.517329 24.0103
3 1 5.46675 1.69488 26.1744
4 1 7.17695 4.00567 26.3978
5 1 4.39009 3.56101 26.8028
6 1 2.71703 2.00587 26.6045
7 1 3.90129 1.71289 20.4566
8 1 6.90724 3.66018 21.6313
9 1 2.86698 0.372299 24.2556
10 1 4.04745 2.58235 24.3061
11 1 4.71232 3.55257 22.3054
12 1 3.33978 1.03103 18.3307
13 1 2.90614 3.73951 18.5818
14 1 5.20563 3.8375 19.8646
15 1 1.15985 1.06617 21.2434
16 2 5.82913 1.85605 18.5759
17 2 4.64042 3.45043 16.5972
18 2 2.0582 2.19632 16.12
19 2 4.53352 0.665431 16.2228
20 2 6.98767 3.51973 13.9352
21 2 4.56852 1.87889 13.7967
22 2 5.81994 2.6804 11.0349
23 2 1.96357 0.761319 13.6876
24 2 3.73163 1.04791 11.2504
25 2 4.44363 3.24778 8.70998
26 2 2.0096 1.53698 9.03616
27 2 3.46726 4.13413 11.2363
28 2 4.62757 0.387016 8.85848
29 2 3.46681 4.36246 6.24225
30 2 3.4773 1.3834 5.82104
31 2 6.32874 3.02081 6.62027
32 2 4.5369 2.24474 2.02684
33 2 2.07723 0.856003 2.9975
34 2 5.28952 2.64421 4.31886
35 2 2.63776 3.74247 3.81499
ITEM: TIMESTEP
10100
ITEM: NUMBER OF ATOMS
35
ITEM: BOX BOUNDS xy xz yz pp pp pp
0.0000000000000000e+00 7.6685730000000003e+00 2.5561910000000001e+00
0.0000000000000000e+00 4.4274529999999999e+00 0.0000000000000000e+00
0.0000000000000000e+00 3.0699265000000000e+01 0.0000000000000000e+00
ITEM: ATOMS id type x y z
1 1 1.9457 2.48409 24.0514
2 1 5.47216 0.815683 23.5672
3 1 5.95672 1.78485 26.3449
4 1 7.01066 3.86966 26.1565
5 1 4.28111 4.1339 27.0658
6 1 3.51783 1.22778 26.7794
7 1 3.61268 2.24175 20.3291
8 1 1.66271 2.63914 21.1525
9 1 2.98851 0.651734 24.441
10 1 4.04154 2.99225 25.2857
11 1 4.26043 3.64659 22.4268
12 1 3.28957 0.717496 17.9482
13 1 3.01528 3.46121 18.3925
14 1 2.48356 0.0882402 20.0095
15 1 5.25011 0.861267 20.9084
16 2 6.03058 2.07446 18.5366
17 2 4.58156 3.5459 16.2699
18 2 1.7942 1.69399 15.9187
19 2 4.55403 0.627441 15.7489
20 2 7.03083 3.50926 13.5789
21 2 4.52134 2.31869 13.6515
22 2 6.04978 2.76105 11.4153
23 2 1.82559 0.28903 13.588
24 2 3.25156 1.35671 11.5638
25 2 4.10492 3.02872 8.68606
26 2 2.06873 1.54992 9.16432
27 2 3.21326 4.02183 11.2781
28 2 4.54727 0.479294 8.65678
29 2 1.38721 0.197398 6.39707
30 2 3.65825 1.18292 5.81653
31 2 6.54134 2.76925 7.08482
32 2 4.63138 2.19471 2.09445
33 2 2.29833 0.821246 3.19791
34 2 5.39319 2.80857 4.45023
35 2 2.52072 3.87355 3.74495
ITEM: TIMESTEP
10200
ITEM: NUMBER OF ATOMS
35
ITEM: BOX BOUNDS xy xz yz pp pp pp
0.0000000000000000e+00 7.6685730000000003e+00 2.5561910000000001e+00
0.0000000000000000e+00 4.4274529999999999e+00 0.0000000000000000e+00
0.0000000000000000e+00 3.0699265000000000e+01 0.0000000000000000e+00
ITEM: ATOMS id type x y z
1 1 6.82698 3.47245 23.0339
2 1 5.29368 1.04111 23.2011
3 1 1.00477 1.589 26.2124
4 1 2.511 3.66295 26.1206
5 1 4.51422 4.15231 27.8494
6 1 3.72187 1.81642 27.3525
7 1 3.52663 2.72336 19.8445
8 1 5.62505 2.2057 21.0235
9 1 3.24493 0.64435 24.4434
10 1 4.73271 2.91854 24.77
11 1 4.17483 3.16543 22.6604
12 1 3.45843 0.981914 18.3023
13 1 3.2044 4.15357 17.9587
14 1 2.2781 0.268366 20.364
15 1 4.49143 -0.447442 20.7019
16 2 5.80985 2.13896 18.3799
17 2 4.54034 3.2823 15.9691
18 2 2.04714 2.12117 16.1116
19 2 4.44279 0.268385 15.9328
20 2 2.0183 3.3663 13.5531
21 2 4.49481 1.86928 13.7129
22 2 5.35893 2.80967 11.0346
23 2 1.90239 0.730128 13.7051
24 2 3.16518 1.26191 11.44
25 2 4.41422 3.0915 8.70714
26 2 1.82385 1.33654 9.10069
27 2 3.15679 4.3344 10.9931
28 2 4.28486 0.152198 8.75416
29 2 1.45047 0.00813602 6.2099
30 2 3.8278 1.35052 6.13281
31 2 6.57168 2.84401 6.82263
32 2 4.83922 2.09865 2.56888
33 2 2.71148 1.05572 3.58969
34 2 5.56184 2.77494 4.76067
35 2 2.53282 3.95205 3.7222
ITEM: TIMESTEP
10300
ITEM: NUMBER OF ATOMS
35
ITEM: BOX BOUNDS xy xz yz pp pp pp
0.0000000000000000e+00 7.6685730000000003e+00 2.5561910000000001e+00
0.0000000000000000e+00 4.4274529999999999e+00 0.0000000000000000e+00
0.0000000000000000e+00 3.0699265000000000e+01 0.0000000000000000e+00
ITEM: ATOMS id type x y z
1 1 6.31994 3.51873 22.9705
2 1 5.92193 1.2349 23.45
3 1 1.3141 1.27497 26.0579
4 1 2.56044 3.59758 25.2919
5 1 5.20428 4.03536 27.1622
6 1 3.77421 1.88431 26.8674
7 1 3.16649 2.56138 19.8683
8 1 4.80986 1.17803 20.9627
9 1 3.37182 1.34377 24.8034
10 1 5.04861 3.26944 25.1559
11 1 3.66761 3.12698 22.1555
12 1 2.92785 0.670573 18.344
13 1 3.34289 4.22914 18.1668
14 1 2.13684 0.611207 21.0054
15 1 6.31824 3.76121 20.247
16 2 5.64845 2.77081 18.3332
17 2 4.76652 3.17945 15.8019
18 2 2.2282 1.96891 16.3071
19 2 4.4554 0.548613 16.3186
20 2 1.90145 3.30492 13.3521
21 2 4.53735 1.6781 13.5671
22 2 5.38478 2.91937 11.1645
23 2 1.91577 0.388296 13.8377
24 2 2.99754 1.20949 11.0731
25 2 4.33728 2.88247 8.35994
26 2 1.53265 1.33745 8.88503
27 2 3.00359 4.40769 11.324
28 2 4.19182 0.190845 8.97528
29 2 3.77892 4.40719 6.27685
30 2 3.84654 1.13583 6.47925
31 2 1.86431 2.94279 6.7945
32 2 5.21083 2.13139 2.27053
33 2 2.61432 1.16223 4.07949
34 2 5.59961 2.8718 4.66459
35 2 3.03278 4.00436 3.80335
ITEM: TIMESTEP
10400
ITEM: NUMBER OF ATOMS
35
ITEM: BOX BOUNDS xy xz yz pp pp pp
0.0000000000000000e+00 7.6685730000000003e+00 2.5561910000000001e+00
0.0000000000000000e+00 4.4274529999999999e+00 0.0000000000000000e+00
0.0000000000000000e+00 3.0699265000000000e+01 0.0000000000000000e+00
ITEM: ATOMS id type x y z
1 1 5.92572 4.00152 22.6769
2 1 1.47064 0.952311 23.9693
3 1 1.08446 1.42539 26.1607
4 1 2.21406 3.32348 24.6389
5 1 6.3746 4.14855 26.6062
6 1 3.93394 2.23443 26.2915
7 1 2.93964 2.93669 20.3236
8 1 4.81153 0.987699 21.6252
9 1 4.20495 1.33295 23.7469
10 1 4.62114 3.34762 24.6399
11 1 3.15865 3.26146 22.4966
12 1 3.30449 0.890266 18.31
13 1 3.01598 4.47655 18.5641
14 1 1.96391 1.33041 21.7402
15 1 5.31873 2.85575 20.7174
16 2 5.38053 2.4039 18.1973
17 2 4.77811 3.40281 16.0553
18 2 2.17083 1.8362 16.0685
19 2 4.78208 0.456146 15.8448
20 2 1.80313 3.04104 13.9938
21 2 4.27335 1.8073 13.5171
22 2 5.59566 2.85795 11.1805
23 2 1.93085 0.225635 13.6132
24 2 2.8019 1.74657 11.3032
25 2 4.13576 2.94624 8.67425
26 2 1.39414 1.1842 8.86203
27 2 3.19238 4.24593 11.4295
28 2 6.59996 4.27131 9.12365
29 2 1.75076 0.260169 6.36129
30 2 4.20382 1.07679 6.37975
31 2 1.6935 2.79436 6.71927
32 2 5.64056 2.24096 2.33657
33 2 2.92323 1.41531 3.86426
34 2 5.05468 2.69736 4.62075
35 2 2.89398 4.1078 3.52352
ITEM: TIMESTEP
10500
ITEM: NUMBER OF ATOMS
35
ITEM: BOX BOUNDS xy xz yz pp pp pp
0.0000000000000000e+00 7.6685730000000003e+00 2.5561910000000001e+00
0.0000000000000000e+00 4.4274529999999999e+00 0.0000000000000000e+00
0.0000000000000000e+00 3.0699265000000000e+01 0.0000000000000000e+00
ITEM: ATOMS id type x y z
1 1 5.70972 3.12473 22.6381
2 1 1.92312 1.09617 23.8969
3 1 1.02809 1.46012 26.4451
4 1 2.30418 3.24144 24.5356
5 1 6.99479 4.57038 26.5669
6 1 3.14277 2.15514 26.5298
7 1 2.1544 2.92422 19.8784
8 1 4.14738 0.697895 20.768
9 1 4.39503 1.13429 24.2634
10 1 5.0907 3.69667 25.2867
11 1 3.42651 3.94969 22.6791
12 1 3.21798 0.447389 18.7218
13 1 3.41137 3.75277 18.1604
14 1 1.80543 1.32296 21.5048
15 1 4.8911 3.33093 20.5119
16 2 5.55453 2.1179 18.1857
17 2 4.51292 3.4478 16.0383
18 2 2.33772 1.8428 16.5445
19 2 4.92778 0.538681 15.7759
20 2 6.77424 3.05149 13.7782
21 2 4.33448 1.93757 13.7013
22 2 5.46496 2.86268 11.3663
23 2 1.96713 0.370695 13.5597
24 2 3.05865 1.52798 11.1876
25 2 3.8417 2.62627 8.94559
26 2 1.49405 1.27436 8.92493
27 2 0.273721 0.164577 11.2903
28 2 6.46468 4.0991 9.01864
29 2 4.42109 4.30588 6.55847
30 2 4.41684 1.26628 6.72985
31 2 2.09133 2.92044 6.38122
32 2 6.04582 2.49629 2.25503
33 2 2.8075 1.17912 3.40491
34 2 5.09642 2.87529 4.44985
35 2 2.47182 4.32356 3.61469
ITEM: TIMESTEP
10600
ITEM: NUMBER OF ATOMS
35
ITEM: BOX BOUNDS xy xz yz pp pp pp
0.0000000000000000e+00 7.6685730000000003e+00 2.5561910000000001e+00
0.0000000000000000e+00 4.4274529999999999e+00 0.0000000000000000e+00
0.0000000000000000e+00 3.0699265000000000e+01 0.0000000000000000e+00
ITEM: ATOMS id type x y z
1 1 6.12813 2.79589 23.2714
2 1 2.25727 0.495033 24.0981
3 1 1.04186 1.53781 25.9822
4 1 2.8349 3.8217 24.8266
5 1 4.33195 -0.149267 27.1981
6 1 3.36234 2.16526 26.8911
7 1 2.05904 3.00584 19.7003
8 1 4.28903 1.38326 21.3122
9 1 4.41029 1.69096 24.3212
10 1 4.87221 3.86592 26.092
11 1 2.70127 3.42769 22.0355
12 1 3.21361 0.0854498 18.1468
13 1 3.58783 3.84264 17.907
14 1 1.41724 1.14088 21.1796
15 1 4.32815 3.37664 20.0377
16 2 5.19996 1.64119 18.3574
17 2 5.04851 3.40605 15.8654
18 2 2.52203 1.9799 16.4954
19 2 4.7375 0.510055 16.0351
20 2 7.03051 3.40486 13.7597
21 2 4.15351 1.94906 13.5685
22 2 5.47004 3.0896 11.3703
23 2 1.84211 0.521788 13.7484
24 2 2.66076 1.29763 11.293
25 2 3.9356 2.68327 9.07596
26 2 1.32786 1.23221 8.90656
27 2 0.224391 0.137568 11.3081
28 2 6.49303 3.96875 8.66135
29 2 4.46973 4.37015 6.66081
30 2 4.56146 1.32619 6.57149
31 2 2.29295 2.62859 5.87638
32 2 6.16109 2.79183 1.92173
33 2 2.54435 1.08586 3.64912
34 2 5.0764 2.76837 4.34591
35 2 7.80622 4.43291 4.02504
ITEM: TIMESTEP
10700
ITEM: NUMBER OF ATOMS
35
ITEM: BOX BOUNDS xy xz yz pp pp pp
0.0000000000000000e+00 7.6685730000000003e+00 2.5561910000000001e+00
0.0000000000000000e+00 4.4274529999999999e+00 0.0000000000000000e+00
0.0000000000000000e+00 3.0699265000000000e+01 0.0000000000000000e+00
ITEM: ATOMS id type x y z
1 1 6.04093 2.25073 23.6412
2 1 2.26463 0.201318 23.3711
3 1 1.11624 2.03584 25.8332
4 1 2.45687 4.18448 24.6202
5 1 7.68595 3.99152 26.935
6 1 3.45237 1.67091 26.8071
7 1 2.26942 3.06127 19.6383
8 1 4.07762 1.24938 22.2818
9 1 3.51632 2.05014 24.6577
10 1 4.9067 3.96259 26.4153
11 1 2.66849 3.49945 22.0235
12 1 5.68935 4.53288 18.0662
13 1 3.49229 3.61435 17.8143
14 1 1.44344 1.26578 21.5647
15 1 4.9731 3.73004 20.6438
16 2 5.00224 1.56622 18.843
17 2 5.19779 3.15048 15.6627
18 2 2.24951 1.83203 16.3274
19 2 4.92585 0.686259 16.0247
20 2 7.02461 3.59276 13.6124
21 2 4.28234 1.95247 13.4102
22 2 5.37317 3.08113 11.2818
23 2 1.59989 0.875462 14.0138
24 2 2.59989 1.61152 11.2729
25 2 3.91229 2.66274 8.98649
26 2 1.23168 1.11704 8.87968
27 2 2.79051 4.25725 11.2172
28 2 6.62927 3.93096 8.42529
29 2 4.67887 4.0623 6.33206
30 2 4.72479 1.25478 6.42817
31 2 1.94603 2.48984 6.17355
32 2 6.4855 3.03328 2.35497
33 2 2.75448 1.24049 3.73145
34 2 4.86046 2.79432 4.14061
35 2 0.139148 0.04854 3.91616
ITEM: TIMESTEP
10800
ITEM: NUMBER OF ATOMS
35
ITEM: BOX BOUNDS xy xz yz pp pp pp
0.0000000000000000e+00 7.6685730000000003e+00 2.5561910000000001e+00
0.0000000000000000e+00 4.4274529999999999e+00 0.0000000000000000e+00
0.0000000000000000e+00 3.0699265000000000e+01 0.0000000000000000e+00
ITEM: ATOMS id type x y z
1 1 6.08228 1.95989 23.7752
2 1 4.63986 3.78142 23.7066
3 1 6.48108 1.69437 26.3984
4 1 4.19072 0.442562 24.4515
5 1 2.68382 3.87933 26.3567
6 1 4.03065 1.36651 26.8348
7 1 2.9943 2.28451 19.8256
8 1 3.64391 1.58366 21.9987
9 1 2.9349 2.43452 24.4916
10 1 5.23852 4.07188 25.751
11 1 2.79958 3.54794 22.1687
12 1 3.19784 -0.140857 18.7825
13 1 3.52358 3.47142 18.0488
14 1 0.748276 1.60283 21.2561
15 1 5.56437 4.2637 21.0616
16 2 5.16596 1.53841 18.8775
17 2 4.58696 3.57648 15.774
18 2 2.40802 1.85023 16.5722
19 2 4.84543 0.571708 16.5211
20 2 6.73273 3.59468 13.5223
21 2 4.14648 2.12644 13.4581
22 2 5.25872 3.20402 11.0768
23 2 1.78343 0.762402 13.5549
24 2 2.87098 1.4843 11.0511
25 2 3.87714 2.28575 8.54628
26 2 1.51946 0.918406 8.71576
27 2 2.77827 4.62587 10.9741
28 2 6.42686 3.92625 8.86077
29 2 4.54916 4.09393 6.57269
30 2 4.59128 1.01671 6.47212
31 2 2.07394 2.60658 6.11684
32 2 6.99421 2.94547 2.28974
33 2 2.67419 1.01534 3.77242
34 2 4.79741 2.94819 3.90733
35 2 0.277198 0.369801 4.18965
ITEM: TIMESTEP
10900
ITEM: NUMBER OF ATOMS
35
ITEM: BOX BOUNDS xy xz yz pp pp pp
0.0000000000000000e+00 7.6685730000000003e+00 2.5561910000000001e+00
0.0000000000000000e+00 4.4274529999999999e+00 0.0000000000000000e+00
0.0000000000000000e+00 3.0699265000000000e+01 0.0000000000000000e+00
ITEM: ATOMS id type x y z
1 1 1.06073 1.60244 24.0884
2 1 4.61365 4.08321 23.2863
3 1 1.7038 1.40007 26.3706
4 1 4.04227 0.021092 24.2371
5 1 2.61904 3.98774 26.7092
6 1 4.18088 1.78005 26.2559
7 1 2.79217 1.63507 19.8068
8 1 3.44946 2.01712 22.4045
9 1 3.04753 2.74089 24.5279
10 1 5.48686 3.57471 26.1777
11 1 6.96593 4.21643 21.7718
12 1 6.67354 3.95635 18.5644
13 1 3.92723 3.75359 18.9333
14 1 1.19753 1.7157 21.3389
15 1 4.77596 3.51232 20.7495
16 2 5.53725 1.66019 18.5125
17 2 4.50917 3.77374 16.1609
18 2 2.1188 2.14941 16.586
19 2 4.41728 0.471904 16.1453
20 2 6.77268 3.76819 13.815
21 2 3.99242 2.20632 13.7384
22 2 5.21442 2.98445 11.2185
23 2 1.49617 0.546273 13.3354
24 2 2.81665 1.72387 11.1478
25 2 3.93086 2.42964 8.78763
26 2 1.41265 1.06025 8.7512
27 2 0.243032 0.326611 11.1765
28 2 6.62488 3.65761 8.76901
29 2 4.56022 4.04964 6.2994
30 2 4.288 0.877137 6.50496
31 2 2.09399 2.643 5.62784
32 2 2.18905 2.96162 2.43664
33 2 3.04403 1.0427 3.89178
34 2 5.06481 2.77847 3.76988
35 2 0.243836 0.159296 4.0406
ITEM: TIMESTEP
11000
ITEM: NUMBER OF ATOMS
35
ITEM: BOX BOUNDS xy xz yz pp pp pp
0.0000000000000000e+00 7.6685730000000003e+00 2.5561910000000001e+00
0.0000000000000000e+00 4.4274529999999999e+00 0.0000000000000000e+00
0.0000000000000000e+00 3.0699265000000000e+01 0.0000000000000000e+00
ITEM: ATOMS id type x y z
1 1 5.50214 2.02081 24.0001
2 1 4.39567 4.33134 22.8135
3 1 1.80919 1.47492 26.2118
4 1 6.61433 4.40981 23.8351
5 1 3.16997 3.87908 27.3185
6 1 4.457 1.01126 26.1366
7 1 2.9811 1.25207 18.9234
8 1 3.09655 1.74997 22.9254
9 1 3.66141 3.1525 24.9991
10 1 5.25561 3.41638 26.5784
11 1 6.75926 4.40642 20.8436
12 1 6.79149 3.79721 18.2055
13 1 3.91054 3.95808 18.8201
14 1 1.08459 1.61891 21.3366
15 1 4.46258 3.16783 20.6475
16 2 5.51908 1.92715 18.4571
17 2 4.46404 3.6647 16.1391
18 2 2.03039 2.24481 16.2633
19 2 4.3336 0.919478 16.046
20 2 6.5776 3.48861 13.7436
21 2 3.97569 2.30999 13.8578
22 2 5.31719 3.21635 11.567
23 2 1.50865 0.843676 14.1508
24 2 2.48223 1.73689 11.5348
25 2 4.1909 2.65899 9.07514
26 2 1.43783 0.929284 8.6642
27 2 2.52519 4.40091 11.1178
28 2 6.72665 3.8761 8.43466
29 2 4.32584 3.73322 6.31861
30 2 4.39271 1.23288 6.46532
31 2 1.74058 2.53595 5.9228
32 2 2.22752 2.66839 2.10104
33 2 3.26166 0.869763 3.81872
34 2 5.29345 2.61634 3.73826
35 2 0.884675 0.0973811 3.87053
ITEM: TIMESTEP
11100
ITEM: NUMBER OF ATOMS
35
ITEM: BOX BOUNDS xy xz yz pp pp pp
0.0000000000000000e+00 7.6685730000000003e+00 2.5561910000000001e+00
0.0000000000000000e+00 4.4274529999999999e+00 0.0000000000000000e+00
0.0000000000000000e+00 3.0699265000000000e+01 0.0000000000000000e+00
ITEM: ATOMS id type x y z
1 1 5.29963 2.24606 23.5965
2 1 3.94342 4.26386 23.0493
3 1 2.09382 1.49578 25.6117
4 1 6.689 4.22099 23.1245
5 1 3.31031 3.15704 27.5553
6 1 4.393 0.685906 25.8404
7 1 2.61353 1.98932 18.4843
8 1 2.62572 1.87602 23.6175
9 1 3.72671 3.86886 25.3989
10 1 5.98356 3.13206 26.7248
11 1 6.63714 4.37161 20.2912
12 1 6.28567 3.9909 18.0844
13 1 4.20346 4.21489 18.7131
14 1 1.4417 1.31341 20.8555
15 1 4.29629 2.66806 21.0856
16 2 5.07175 2.00066 18.7809
17 2 4.53552 3.6783 16.277
18 2 1.99557 2.37294 16.2018
19 2 4.67241 1.01736 16.2875
20 2 6.5334 3.92158 13.8996
21 2 4.00816 2.32828 13.478
22 2 4.98336 3.3204 11.239
23 2 1.26828 0.808877 13.8203
24 2 2.42919 1.40391 11.5432
25 2 4.21909 2.23331 9.09673
26 2 1.88516 1.17719 8.836
27 2 5.13334 0.323725 11.3659
28 2 6.57922 3.86456 8.6111
29 2 4.16177 4.10482 6.61419
30 2 4.40949 1.09847 6.38983
31 2 1.83412 2.42663 5.94452
32 2 2.55256 2.34696 2.11329
33 2 3.44322 0.830478 3.99835
34 2 5.4754 2.64555 3.66244
35 2 3.28029 4.12018 3.6756
ITEM: TIMESTEP
11200
ITEM: NUMBER OF ATOMS
35
ITEM: BOX BOUNDS xy xz yz pp pp pp
0.0000000000000000e+00 7.6685730000000003e+00 2.5561910000000001e+00
0.0000000000000000e+00 4.4274529999999999e+00 0.0000000000000000e+00
0.0000000000000000e+00 3.0699265000000000e+01 0.0000000000000000e+00
ITEM: ATOMS id type x y z
1 1 5.28183 2.12163 23.4132
2 1 3.61782 4.47149 23.1608
3 1 1.99171 1.39021 25.4459
4 1 6.25137 4.24598 23.2573
5 1 3.42678 2.2392 27.3435
6 1 4.67071 0.891756 25.4246
7 1 2.30689 2.34155 18.6972
8 1 2.34843 2.54179 23.2064
9 1 4.15123 3.43467 25.1746
10 1 5.91803 3.2394 26.7711
11 1 6.71819 3.93162 20.6379
12 1 6.27157 4.3396 18.1149
13 1 0.94813 -0.203142 18.9584
14 1 2.09079 1.07391 20.9381
15 1 4.2336 2.51469 21.2696
16 2 4.80552 2.10231 18.9803
17 2 4.39576 3.95242 16.3393
18 2 2.24116 2.28972 16.0348
19 2 4.94545 1.14713 16.0933
20 2 6.23328 4.11049 13.9542
21 2 3.87631 2.54824 13.8185
22 2 5.28144 3.11718 11.1299
23 2 1.30685 0.856963 13.5021
24 2 2.70658 2.10476 11.2418
25 2 4.18743 2.27247 8.60755
26 2 1.41527 0.893814 8.91147
27 2 4.92479 0.281126 11.2557
28 2 6.77564 3.79429 8.98449
29 2 4.48136 4.0681 6.46498
30 2 4.47405 0.940383 6.54465
31 2 2.06539 2.57032 5.89041
32 2 2.86334 1.88474 2.14151
33 2 3.06286 0.750809 4.23848
34 2 5.49071 2.33503 3.76582
35 2 3.20491 4.17699 4.01304
ITEM: TIMESTEP
11300
ITEM: NUMBER OF ATOMS
35
ITEM: BOX BOUNDS xy xz yz pp pp pp
0.0000000000000000e+00 7.6685730000000003e+00 2.5561910000000001e+00
0.0000000000000000e+00 4.4274529999999999e+00 0.0000000000000000e+00
0.0000000000000000e+00 3.0699265000000000e+01 0.0000000000000000e+00
ITEM: ATOMS id type x y z
1 1 5.09087 2.35051 23.4385
2 1 0.71467 0.231603 22.6142
3 1 1.44368 1.55235 25.4592
4 1 3.38869 0.432264 23.9657
5 1 3.60797 1.42549 26.7064
6 1 5.08398 -0.0363098 25.6745
7 1 2.18231 1.84557 18.4056
8 1 2.47251 2.57287 22.7758
9 1 3.90662 2.90688 25.2138
10 1 5.84617 3.44217 26.6852
11 1 7.19781 3.22793 20.5384
12 1 6.35978 4.38347 18.3997
13 1 3.13815 4.46135 18.8216
14 1 2.2275 1.0637 20.7036
15 1 4.65145 3.17225 20.9535
16 2 4.66387 2.32927 18.549
17 2 4.53932 4.02315 16.3117
18 2 2.3379 2.38126 16.1808
19 2 4.82218 1.32509 16.1391
20 2 6.22065 3.90649 14.0007
21 2 3.63429 2.85176 13.7409
22 2 5.33294 3.36265 11.4462
23 2 1.42036 1.36778 13.4189
24 2 2.80839 2.15328 11.1617
25 2 3.96915 2.50892 8.83237
26 2 1.31127 0.8023 8.87452
27 2 5.07883 0.643265 11.4115
28 2 6.49049 3.56873 8.60899
29 2 4.86331 3.62333 6.51637
30 2 5.00369 0.85685 6.41076
31 2 2.10365 2.45309 6.43368
32 2 2.90834 1.79131 2.37729
33 2 3.00392 0.544604 4.5518
34 2 5.48844 2.28151 3.63267
35 2 2.86308 3.81416 3.8253
ITEM: TIMESTEP
11400
ITEM: NUMBER OF ATOMS
35
ITEM: BOX BOUNDS xy xz yz pp pp pp
0.0000000000000000e+00 7.6685730000000003e+00 2.5561910000000001e+00
0.0000000000000000e+00 4.4274529999999999e+00 0.0000000000000000e+00
0.0000000000000000e+00 3.0699265000000000e+01 0.0000000000000000e+00
ITEM: ATOMS id type x y z
1 1 5.38921 2.8061 22.9557
2 1 0.571604 0.263079 22.3706
3 1 1.64098 1.82565 25.2274
4 1 3.33858 0.393404 23.7776
5 1 3.21653 1.00486 26.8861
6 1 2.41621 4.18782 25.5743
7 1 2.05348 2.41118 18.5999
8 1 2.70544 2.0395 22.5605
9 1 3.96039 2.1888 24.8705
10 1 4.47714 3.24143 27.3439
11 1 7.44582 3.99246 20.3484
12 1 6.28477 4.58512 18.137
13 1 1.00616 0.315709 18.5605
14 1 3.17186 0.883304 20.6913
15 1 4.72248 2.61283 20.8748
16 2 4.60722 2.17456 18.2925
17 2 4.68554 4.24251 16.0495
18 2 2.02467 2.80867 16.202
19 2 4.87617 1.07048 15.9954
20 2 6.45513 4.47137 13.9692
21 2 3.83096 3.0023 13.4443
22 2 5.28424 3.98013 11.3832
23 2 1.28011 1.35914 13.9264
24 2 2.30511 2.08016 11.4182
25 2 3.93076 1.93899 9.13559
26 2 1.38267 1.09043 9.04434
27 2 5.16699 0.682724 11.338
28 2 6.11657 3.95667 8.91465
29 2 4.68365 3.19447 6.51112
30 2 5.38559 0.598899 6.4219
31 2 2.60483 2.07192 6.6311
32 2 2.93901 1.18284 2.2383
33 2 2.96341 0.59158 4.63448
34 2 5.45334 2.38185 3.6659
35 2 2.81756 3.80773 3.76206
ITEM: TIMESTEP
11500
ITEM: NUMBER OF ATOMS
35
ITEM: BOX BOUNDS xy xz yz pp pp pp
0.0000000000000000e+00 7.6685730000000003e+00 2.5561910000000001e+00
0.0000000000000000e+00 4.4274529999999999e+00 0.0000000000000000e+00
0.0000000000000000e+00 3.0699265000000000e+01 0.0000000000000000e+00
ITEM: ATOMS id type x y z
1 1 5.4911 2.51829 22.7465
2 1 0.843264 0.369835 23.1126
3 1 1.47032 1.69729 24.6371
4 1 3.32393 0.100103 24.1434
5 1 2.83653 0.658739 26.4585
6 1 2.62276 4.24809 25.4125
7 1 2.0524 2.30352 18.9124
8 1 2.93522 2.46663 22.7676
9 1 4.37236 2.62494 25.0744
10 1 3.19491 3.11045 27.2073
11 1 3.21043 3.96785 20.6502
12 1 3.62334 0.183592 18.2351
13 1 0.835228 0.523736 18.0191
14 1 2.4796 0.512132 20.4335
15 1 5.35697 2.04732 20.6408
16 2 4.52845 2.57878 18.3004
17 2 4.79597 4.11439 15.8021
18 2 2.25145 2.77601 16.2492
19 2 4.66316 1.3434 16.1574
20 2 3.73513 0.304548 13.4328
21 2 4.14051 2.98265 13.7443
22 2 4.81558 3.86938 11.2536
23 2 1.29692 1.65145 13.8913
24 2 2.17667 2.59908 11.7142
25 2 3.85404 2.62767 9.34973
26 2 1.0817 0.796266 8.78548
27 2 5.07921 0.773142 11.2838
28 2 6.49822 3.8039 8.86703
29 2 5.36036 3.16632 6.46436
30 2 4.96877 0.125995 6.39954
31 2 2.40452 1.89473 6.91199
32 2 2.91481 0.371099 2.20051
33 2 3.06381 0.815056 4.64063
34 2 5.52928 2.20628 3.85199
35 2 3.10818 3.80794 3.79288
ITEM: TIMESTEP
11600
ITEM: NUMBER OF ATOMS
35
ITEM: BOX BOUNDS xy xz yz pp pp pp
0.0000000000000000e+00 7.6685730000000003e+00 2.5561910000000001e+00
0.0000000000000000e+00 4.4274529999999999e+00 0.0000000000000000e+00
0.0000000000000000e+00 3.0699265000000000e+01 0.0000000000000000e+00
ITEM: ATOMS id type x y z
1 1 5.32936 2.67242 22.6124
2 1 0.979968 0.0512572 22.9509
3 1 1.84023 2.61138 25.0645
4 1 3.50854 0.332904 23.8395
5 1 2.52296 0.00276432 26.3879
6 1 0.324701 0.629103 25.3606
7 1 2.03549 2.46633 18.8404
8 1 2.63968 2.13779 22.6395
9 1 4.41014 2.48036 25.0666
10 1 2.72745 2.77337 27.3082
11 1 2.60412 3.311 20.9458
12 1 3.63438 0.429299 18.3547
13 1 0.88184 0.883874 17.9591
14 1 3.29477 0.281961 21.1083
15 1 5.59592 1.34829 20.5865
16 2 4.51122 2.98058 18.577
17 2 5.03503 4.21993 16.2213
18 2 2.22964 2.78705 16.4069
19 2 4.56383 1.38996 15.7683
20 2 3.7617 0.0966819 13.7004
21 2 3.6586 3.04857 13.5712
22 2 4.83873 4.18365 11.4206
23 2 1.32384 1.72859 13.8956
24 2 2.25268 2.63141 11.2461
25 2 3.71358 2.41794 8.98959
26 2 1.20751 0.961693 8.78066
27 2 4.8746 1.38827 11.1271
28 2 6.16425 3.75406 8.92043
29 2 4.85455 3.02135 6.37304
30 2 5.3053 0.163434 6.24624
31 2 2.75667 1.76259 6.86932
32 2 2.96081 -0.11814 2.50794
33 2 3.07378 1.02644 4.57387
34 2 5.83752 1.9497 3.89701
35 2 3.25951 3.38746 3.79906
ITEM: TIMESTEP
11700
ITEM: NUMBER OF ATOMS
35
ITEM: BOX BOUNDS xy xz yz pp pp pp
0.0000000000000000e+00 7.6685730000000003e+00 2.5561910000000001e+00
0.0000000000000000e+00 4.4274529999999999e+00 0.0000000000000000e+00
0.0000000000000000e+00 3.0699265000000000e+01 0.0000000000000000e+00
ITEM: ATOMS id type x y z
1 1 4.70394 2.34564 22.3158
2 1 0.987487 0.0429661 23.0969
3 1 1.23326 2.70564 25.1336
4 1 3.84088 0.599555 24.0237
5 1 5.73126 4.25225 26.3897
6 1 0.84931 0.593232 25.7639
7 1 1.96044 2.78751 18.7008
8 1 2.34422 2.00771 22.8437
9 1 3.83475 2.91701 24.7406
10 1 2.89348 2.50214 26.8001
11 1 3.05082 3.05311 21.0154
12 1 3.36098 0.829051 18.802
13 1 0.827639 0.732829 18.0542
14 1 3.22012 0.177247 21.4834
15 1 5.88559 1.04961 20.2235
16 2 4.70332 3.22015 19.13
17 2 4.80527 4.11922 16.3342
18 2 2.20578 3.00896 16.3278
19 2 4.64521 1.57839 15.7786
20 2 6.16761 4.34204 13.7067
21 2 3.55721 3.33993 13.6493
22 2 4.93667 4.66414 11.3304
23 2 1.31704 1.5319 13.7883
24 2 2.22096 2.95776 10.9049
25 2 3.89009 2.17361 8.80254
26 2 1.00687 0.910489 8.99542
27 2 4.78413 1.56039 11.635
28 2 5.97704 4.01342 8.83873
29 2 5.21778 3.0935 6.31128
30 2 0.197618 0.216719 6.38966
31 2 2.21383 1.80405 6.57684
32 2 5.75031 3.85082 2.25408
33 2 3.54633 0.325754 4.58412
34 2 5.91052 1.65917 3.82696
35 2 3.18651 3.35142 3.59953
ITEM: TIMESTEP
11800
ITEM: NUMBER OF ATOMS
35
ITEM: BOX BOUNDS xy xz yz pp pp pp
0.0000000000000000e+00 7.6685730000000003e+00 2.5561910000000001e+00
0.0000000000000000e+00 4.4274529999999999e+00 0.0000000000000000e+00
0.0000000000000000e+00 3.0699265000000000e+01 0.0000000000000000e+00
ITEM: ATOMS id type x y z
1 1 4.59212 2.14005 22.2534
2 1 0.67036 0.176033 22.7489
3 1 5.97075 2.11951 25.2526
4 1 3.67705 0.549682 24.3032
5 1 6.26476 4.50292 26.9119
6 1 0.908993 0.174873 26.2726
7 1 1.93495 3.35225 18.7171
8 1 2.14896 2.53661 23.1282
9 1 4.08103 3.2492 24.2717
10 1 2.72847 2.11572 26.148
11 1 2.75845 3.09917 21.0692
12 1 3.28075 1.19602 18.8677
13 1 0.43504 1.02221 17.9266
14 1 5.85853 4.23816 21.222
15 1 1.37728 1.24454 20.7986
16 2 4.69442 3.22036 19.0842
17 2 4.84179 4.39204 16.4481
18 2 2.2579 3.10007 16.1572
19 2 4.47275 1.49516 15.8726
20 2 6.18018 4.26704 13.877
21 2 3.61071 3.16151 13.7371
22 2 2.27726 0.325294 11.1773
23 2 1.59272 1.67469 13.9392
24 2 2.19423 3.52684 11.1859
25 2 3.53312 2.59822 8.79835
26 2 0.872481 0.867173 9.11004
27 2 4.80218 1.70691 11.9138
28 2 6.11687 3.9508 8.53165
29 2 4.6853 3.02684 6.31521
30 2 0.0987294 0.159376 6.74657
31 2 2.55051 1.822 6.17512
32 2 5.9311 3.57095 2.00094
33 2 3.63242 0.0428057 4.29102
34 2 6.10689 1.25811 3.59601
35 2 3.44054 2.88447 3.62988
ITEM: TIMESTEP
11900
ITEM: NUMBER OF ATOMS
35
ITEM: BOX BOUNDS xy xz yz pp pp pp
0.0000000000000000e+00 7.6685730000000003e+00 2.5561910000000001e+00
0.0000000000000000e+00 4.4274529999999999e+00 0.0000000000000000e+00
0.0000000000000000e+00 3.0699265000000000e+01 0.0000000000000000e+00
ITEM: ATOMS id type x y z
1 1 4.08927 2.33409 21.8372
2 1 0.536173 0.829245 22.8789
3 1 5.22031 1.54055 25.5266
4 1 3.72467 0.258075 24.4575
5 1 6.57833 3.48408 26.7123
6 1 4.19705 4.25698 26.7507
7 1 7.11196 4.41159 18.5122
8 1 1.8345 2.46152 23.7178
9 1 4.01767 3.74623 24.128
10 1 2.94965 2.10933 25.9141
11 1 2.58763 3.48906 20.6303
12 1 3.29569 1.40759 18.8176
13 1 5.97978 1.55032 18.0649
14 1 5.80394 4.23714 21.8747
15 1 1.17176 1.26064 20.4212
16 2 4.46917 3.30191 18.6466
17 2 2.27644 0.130815 16.5455
18 2 2.17 3.00735 16.4574
19 2 4.69407 1.68107 15.8727
20 2 6.37672 4.38388 13.8272
21 2 3.88184 3.39533 13.916
22 2 2.3469 0.41788 11.4147
23 2 1.47994 1.39189 14.1423
24 2 2.25763 3.32763 11.5267
25 2 3.25672 2.61567 9.22212
26 2 0.853022 1.52514 8.89617
27 2 4.77832 1.96787 11.7178
28 2 5.55066 3.98157 8.50369
29 2 4.88612 2.9908 6.02462
30 2 5.07312 0.413699 6.16334
31 2 2.21088 1.41646 6.09103
32 2 6.11741 3.37864 2.11747
33 2 6.28384 4.11323 4.34522
34 2 1.16955 0.844122 3.44219
35 2 3.88972 2.33302 3.59067
ITEM: TIMESTEP
12000
ITEM: NUMBER OF ATOMS
35
ITEM: BOX BOUNDS xy xz yz pp pp pp
0.0000000000000000e+00 7.6685730000000003e+00 2.5561910000000001e+00
0.0000000000000000e+00 4.4274529999999999e+00 0.0000000000000000e+00
0.0000000000000000e+00 3.0699265000000000e+01 0.0000000000000000e+00
ITEM: ATOMS id type x y z
1 1 3.68447 2.52465 21.5775
2 1 5.26095 0.893717 22.9165
3 1 5.66904 1.45032 25.657
4 1 3.75566 -0.0754272 24.05
5 1 6.81304 3.61153 26.2557
6 1 4.47446 3.85717 26.6191
7 1 7.09567 4.4391 18.6926
8 1 1.82355 2.14782 23.7964
9 1 4.00969 3.24301 24.4041
10 1 3.30941 1.39553 25.9918
11 1 6.72923 3.89535 20.9972
12 1 2.85287 2.03109 19.7636
13 1 1.01063 1.68716 18.1369
14 1 2.11122 0.161303 22.3188
15 1 5.64733 1.4205 20.6475
16 2 4.79326 3.86171 18.8886
17 2 2.39363 0.121101 16.0294
18 2 2.39701 3.28603 16.2206
19 2 4.60342 1.72632 16.2803
20 2 3.95059 0.133364 13.8403
21 2 3.9312 2.97183 13.9508
22 2 2.10079 0.46947 11.3083
23 2 1.5024 1.92062 13.8856
24 2 2.21613 3.31675 11.4294
25 2 3.27249 2.82409 8.88992
26 2 5.54291 1.28727 8.95563
27 2 4.98208 2.14256 11.4005
28 2 2.96745 0.198906 8.67031
29 2 4.66263 2.87605 6.22527
30 2 7.55539 4.33021 6.79624
31 2 2.37151 1.80804 6.39164
32 2 6.41752 3.14295 1.6773
33 2 6.576 3.59393 4.2047
34 2 1.31751 0.38184 3.51282
35 2 3.90924 1.89098 3.35078
ITEM: TIMESTEP
12100
ITEM: NUMBER OF ATOMS
35
ITEM: BOX BOUNDS xy xz yz pp pp pp
0.0000000000000000e+00 7.6685730000000003e+00 2.5561910000000001e+00
0.0000000000000000e+00 4.4274529999999999e+00 0.0000000000000000e+00
0.0000000000000000e+00 3.0699265000000000e+01 0.0000000000000000e+00
ITEM: ATOMS id type x y z
1 1 3.28107 3.01622 21.915
2 1 4.7632 1.23597 23.2768
3 1 5.92474 1.34249 25.4957
4 1 5.86693 3.72386 23.9941
5 1 7.47902 3.79798 25.9103
6 1 4.89575 3.23992 26.7051
7 1 4.87436 0.0936876 18.6482
8 1 2.13766 1.34451 23.8679
9 1 3.72205 2.98258 24.5927
10 1 2.96996 1.33584 26.5339
11 1 6.3702 3.83007 21.3902
12 1 3.3636 2.04021 19.1437
13 1 1.4462 2.13275 17.9315
14 1 1.56885 0.784489 21.2811
15 1 5.06892 1.986 20.446
16 2 4.78045 3.98129 18.9847
17 2 2.36931 0.195381 16.1358
18 2 2.46362 3.5919 16.422
19 2 4.51458 1.83987 16.6769
20 2 4.22675 0.374629 13.495
21 2 3.86257 3.11327 13.5922
22 2 2.08616 0.667874 11.3699
23 2 1.23917 1.90505 13.8552
24 2 2.13768 3.73895 11.0586
25 2 3.27983 2.92094 8.89739
26 2 5.69337 1.52534 9.05495
27 2 4.55685 2.16373 11.3177
28 2 3.07903 -0.0558471 8.97836
29 2 4.7991 2.91433 6.27291
30 2 7.40749 4.60074 6.60302
31 2 2.22301 1.1497 6.21035
32 2 6.69546 3.02038 2.01727
33 2 6.78753 3.08761 4.3694
34 2 1.55965 -0.00842707 3.6648
35 2 3.88231 1.48572 3.17513
ITEM: TIMESTEP
12200
ITEM: NUMBER OF ATOMS
35
ITEM: BOX BOUNDS xy xz yz pp pp pp
0.0000000000000000e+00 7.6685730000000003e+00 2.5561910000000001e+00
0.0000000000000000e+00 4.4274529999999999e+00 0.0000000000000000e+00
0.0000000000000000e+00 3.0699265000000000e+01 0.0000000000000000e+00
ITEM: ATOMS id type x y z
1 1 3.41678 3.36709 22.0733
2 1 4.80007 1.08729 23.0048
3 1 5.60575 1.37072 25.5483
4 1 6.52638 2.88034 23.8258
5 1 7.26172 3.78686 26.5139
6 1 4.57673 3.3348 26.8779
7 1 4.99078 -0.0665732 19.2887
8 1 2.24627 0.360794 23.3567
9 1 3.70326 2.83788 24.354
10 1 2.90616 1.32103 25.982
11 1 6.14928 4.20446 21.4035
12 1 3.41111 2.27484 18.9894
13 1 1.09627 1.91086 18.2532
14 1 2.09584 1.32063 20.894
15 1 5.13048 2.05651 20.4931
16 2 5.01624 4.04976 18.5189
17 2 2.37421 0.463276 16.1815
18 2 2.26653 3.82337 16.1735
19 2 4.34684 2.12264 16.4767
20 2 3.82682 0.456926 13.6729
21 2 3.82072 3.63185 13.8443
22 2 1.89641 1.13139 11.7443
23 2 1.22662 1.97531 14.323
24 2 7.04144 3.78348 11.1563
25 2 3.38559 2.64914 8.53482
26 2 1.03853 1.51587 8.70504
27 2 4.39096 2.28294 11.1866
28 2 5.68844 4.32482 8.83656
29 2 4.54764 2.72264 6.23313
30 2 4.79797 0.312504 6.07816
31 2 2.30409 0.846368 6.29546
32 2 6.82175 2.82718 2.36719
33 2 1.74475 2.63463 4.7857
34 2 4.24271 4.13025 3.58567
35 2 4.24475 1.25021 3.54812
ITEM: TIMESTEP
12300
ITEM: NUMBER OF ATOMS
35
ITEM: BOX BOUNDS xy xz yz pp pp pp
0.0000000000000000e+00 7.6685730000000003e+00 2.5561910000000001e+00
0.0000000000000000e+00 4.4274529999999999e+00 0.0000000000000000e+00
0.0000000000000000e+00 3.0699265000000000e+01 0.0000000000000000e+00
ITEM: ATOMS id type x y z
1 1 3.62244 3.71489 21.9058
2 1 4.99266 1.11871 22.9418
3 1 5.30597 0.80078 25.264
4 1 1.80482 2.65009 23.5341
5 1 6.38315 3.36015 25.8996
6 1 4.45482 3.38116 26.6623
7 1 7.80114 4.44106 19.3445
8 1 2.94455 0.475661 23.3595
9 1 4.18989 3.18417 24.418
10 1 2.68022 1.05445 25.6288
11 1 6.05925 3.88105 21.2707
12 1 3.51934 2.04328 18.3968
13 1 0.966398 1.68951 17.9811
14 1 2.57848 1.78914 20.7851
15 1 4.87732 2.01543 20.7662
16 2 5.39058 4.09574 18.5328
17 2 1.96525 0.633214 16.0699
18 2 7.2417 4.02939 16.6187
19 2 4.31072 2.31619 16.2038
20 2 3.60522 0.898345 13.7705
21 2 3.65405 3.49592 13.7227
22 2 1.64445 1.10656 11.7935
23 2 6.13317 2.61189 14.3208
24 2 7.06343 3.88549 11.3748
25 2 3.39239 2.87519 8.62113
26 2 0.492528 1.13719 8.86457
27 2 4.55261 2.54605 11.1177
28 2 6.09053 4.28824 8.98298
29 2 4.5352 2.63382 5.87095
30 2 7.59513 4.24436 6.39792
31 2 2.5143 0.895293 6.71573
32 2 1.82547 2.63244 2.19295
33 2 1.55792 2.31607 4.72111
34 2 4.36651 4.00322 3.48597
35 2 4.47251 1.02483 3.81741
ITEM: TIMESTEP
12400
ITEM: NUMBER OF ATOMS
35
ITEM: BOX BOUNDS xy xz yz pp pp pp
0.0000000000000000e+00 7.6685730000000003e+00 2.5561910000000001e+00
0.0000000000000000e+00 4.4274529999999999e+00 0.0000000000000000e+00
0.0000000000000000e+00 3.0699265000000000e+01 0.0000000000000000e+00
ITEM: ATOMS id type x y z
1 1 4.13963 3.95284 21.5631
2 1 5.67436 1.57093 23.044
3 1 5.03742 0.319886 25.4271
4 1 2.35174 3.18455 22.5857
5 1 6.15381 2.62986 24.9462
6 1 3.64542 3.16283 26.5845
7 1 3.03367 4.14556 19.559
8 1 3.15219 0.786115 23.3473
9 1 4.09013 3.28912 24.0753
10 1 2.61129 1.16551 25.8063
11 1 6.57209 3.96777 20.9223
12 1 3.15 2.15603 18.4171
13 1 6.03599 1.63246 18.139
14 1 1.88687 1.64674 20.5601
15 1 4.62108 1.71824 20.3416
16 2 5.42383 4.20191 18.8762
17 2 1.89346 0.766402 15.8727
18 2 7.19078 3.96351 16.9379
19 2 4.20597 2.44152 16.0102
20 2 3.92158 1.15577 13.68
21 2 3.39093 3.96461 13.7409
22 2 1.94722 1.01775 11.5674
23 2 5.99991 2.8021 13.8277
24 2 6.97427 3.99938 11.4993
25 2 3.15479 2.90513 9.08664
26 2 5.75474 1.43317 9.1032
27 2 4.4556 2.62145 11.3956
28 2 5.52673 4.01624 9.27266
29 2 4.89439 2.53385 6.2846
30 2 2.45952 4.02674 6.56865
31 2 2.58353 0.946046 6.83086
32 2 1.99521 2.42425 2.06249
33 2 2.081 2.05973 4.44395
34 2 4.35781 3.88406 3.59377
35 2 4.20108 0.601034 3.53869
ITEM: TIMESTEP
12500
ITEM: NUMBER OF ATOMS
35
ITEM: BOX BOUNDS xy xz yz pp pp pp
0.0000000000000000e+00 7.6685730000000003e+00 2.5561910000000001e+00
0.0000000000000000e+00 4.4274529999999999e+00 0.0000000000000000e+00
0.0000000000000000e+00 3.0699265000000000e+01 0.0000000000000000e+00
ITEM: ATOMS id type x y z
1 1 4.27082 3.77178 22.0963
2 1 5.73753 1.25656 22.5333
3 1 5.01275 0.590941 24.9712
4 1 2.12937 2.95107 23.1345
5 1 6.2549 2.62791 25.1955
6 1 3.42632 2.75648 26.0802
7 1 2.64922 3.87433 19.249
8 1 3.329 1.0722 23.2148
9 1 4.42808 3.69694 24.107
10 1 2.34605 0.346959 25.852
11 1 6.79202 4.69728 21.289
12 1 3.05205 1.85801 18.1994
13 1 5.58425 1.60596 18.144
14 1 1.68204 1.87191 20.4267
15 1 4.25816 2.36092 20.1097
16 2 5.20538 3.93866 18.4662
17 2 2.11541 1.35905 16.12
18 2 6.94926 4.03929 16.2731
19 2 4.66956 2.62553 16.1357
20 2 3.55714 1.13823 13.9951
21 2 3.61182 4.38341 13.9587
22 2 2.07598 1.14063 11.4647
23 2 6.23704 2.9055 13.8593
24 2 6.99999 3.99863 11.1539
25 2 2.82968 2.70949 9.06027
26 2 5.50438 1.39178 9.08212
27 2 4.47563 2.43437 11.707
28 2 5.24144 4.3066 9.00513
29 2 5.21637 2.42597 6.80024
30 2 2.66438 4.01398 6.45042
31 2 2.48277 0.862635 6.73719
32 2 1.8916 2.17167 2.2107
33 2 2.21312 1.99726 4.57987
34 2 4.37234 3.44088 3.9009
35 2 4.52157 0.477292 3.48421
ITEM: TIMESTEP
12600
ITEM: NUMBER OF ATOMS
35
ITEM: BOX BOUNDS xy xz yz pp pp pp
0.0000000000000000e+00 7.6685730000000003e+00 2.5561910000000001e+00
0.0000000000000000e+00 4.4274529999999999e+00 0.0000000000000000e+00
0.0000000000000000e+00 3.0699265000000000e+01 0.0000000000000000e+00
ITEM: ATOMS id type x y z
1 1 4.11608 4.26843 21.5784
2 1 5.588 1.58474 22.8322
3 1 5.32069 0.527597 25.111
4 1 1.83943 3.84607 23.4026
5 1 6.21119 2.72725 26.2853
6 1 3.65034 1.90586 25.5652
7 1 1.95558 3.66241 18.9733
8 1 3.02967 1.50058 23.2961
9 1 4.56402 3.46362 23.964
10 1 2.09251 0.210164 26.7482
11 1 3.87738 -0.196754 21.2482
12 1 3.18489 1.79492 18.4959
13 1 5.5788 1.29583 18.2302
14 1 1.77048 1.72504 20.6581
15 1 4.61592 1.86505 20.4451
16 2 4.9497 3.85512 18.1316
17 2 2.04356 1.68693 16.4078
18 2 7.39803 4.61685 16.1913
19 2 4.73851 2.97333 15.6253
20 2 3.42705 1.29674 13.9209
21 2 0.885203 0.153932 13.7391
22 2 1.94926 1.0063 11.4509
23 2 6.54554 2.83008 13.5256
24 2 7.21474 3.9868 11.383
25 2 2.65002 2.58102 8.57171
26 2 4.76688 1.09937 9.25719
27 2 4.59851 2.56739 11.7004
28 2 5.20371 3.94457 9.1208
29 2 5.16848 2.41479 6.53693
30 2 2.84934 4.12154 6.46865
31 2 3.09818 0.659512 6.6398
32 2 1.62494 1.74342 2.23279
33 2 1.84879 2.16713 4.82575
34 2 4.80942 3.31704 4.05135
35 2 4.86049 0.56824 3.88037
ITEM: TIMESTEP
12700
ITEM: NUMBER OF ATOMS
35
ITEM: BOX BOUNDS xy xz yz pp pp pp
0.0000000000000000e+00 7.6685730000000003e+00 2.5561910000000001e+00
0.0000000000000000e+00 4.4274529999999999e+00 0.0000000000000000e+00
0.0000000000000000e+00 3.0699265000000000e+01 0.0000000000000000e+00
ITEM: ATOMS id type x y z
1 1 3.16747 3.8926 21.522
2 1 5.38841 1.94406 23.6459
3 1 0.298464 0.531131 25.6217
4 1 6.93191 4.10495 23.7377
5 1 6.43479 2.63279 26.2892
6 1 3.32969 1.61663 25.5191
7 1 2.1693 3.78335 18.8989
8 1 2.74109 1.66739 23.0473
9 1 4.51297 4.09952 24.1317
10 1 5.0991 4.42964 27.196
11 1 5.67171 3.64879 21.0155
12 1 3.46318 1.29691 18.3064
13 1 6.25342 1.72033 19.2562
14 1 2.77857 1.87168 20.6274
15 1 4.989 1.52829 21.2266
16 2 4.38802 3.7463 17.9893
17 2 2.19103 2.1877 16.0352
18 2 4.9734 0.43155 16.5672
19 2 4.53904 3.23531 15.4148
20 2 3.5679 1.17586 13.6229
21 2 0.944741 0.311728 13.635
22 2 2.30379 1.10536 10.8911
23 2 6.37487 2.94378 13.6494
24 2 2.22983 3.90414 11.2065
25 2 1.97557 2.36296 8.46496
26 2 4.78341 0.839286 9.03963
27 2 4.44123 2.61066 11.6335
28 2 4.59905 3.51449 9.15224
29 2 5.19 2.25605 6.66712
30 2 3.53332 4.20481 6.51167
31 2 3.32902 0.403751 6.71512
32 2 1.64961 1.41572 2.66062
33 2 2.38748 2.23501 4.90015
34 2 4.7418 3.79823 3.73555
35 2 4.56522 0.573965 4.04272
ITEM: TIMESTEP
12800
ITEM: NUMBER OF ATOMS
35
ITEM: BOX BOUNDS xy xz yz pp pp pp
0.0000000000000000e+00 7.6685730000000003e+00 2.5561910000000001e+00
0.0000000000000000e+00 4.4274529999999999e+00 0.0000000000000000e+00
0.0000000000000000e+00 3.0699265000000000e+01 0.0000000000000000e+00
ITEM: ATOMS id type x y z
1 1 3.03587 3.52615 21.6003
2 1 5.31879 2.09639 24.065
3 1 5.28843 0.209614 26.6721
4 1 6.81496 4.00539 23.6154
5 1 6.49204 2.96398 25.8845
6 1 3.50987 1.57954 25.2688
7 1 7.21665 3.8773 19.3954
8 1 2.86004 1.67675 23.0518
9 1 1.41728 0.0322443 24.4978
10 1 2.78306 0.114298 26.7594
11 1 5.18748 3.51618 20.8847
12 1 3.0294 1.67684 18.2599
13 1 5.66102 1.47561 18.6805
14 1 3.28701 1.43913 20.4641
15 1 5.55555 1.61868 22.0808
16 2 4.69738 3.60901 18.2908
17 2 2.03934 2.18971 16.3052
18 2 4.57684 0.684672 16.2512
19 2 4.76754 3.40467 15.596
20 2 3.37665 1.31933 13.6057
21 2 0.968079 0.236946 13.4459
22 2 2.32905 1.23721 10.8754
23 2 6.68609 3.05869 13.6366
24 2 7.03833 3.89181 11.1438
25 2 2.04895 2.11422 8.34356
26 2 4.668 0.691911 8.84053
27 2 4.93867 2.57207 11.7306
28 2 4.2594 3.41968 9.03993
29 2 5.4426 2.31857 6.07489
30 2 3.46024 3.98651 6.50769
31 2 3.45616 0.339381 6.61811
32 2 1.62564 2.02526 2.87286
33 2 2.54265 2.27047 5.11383
34 2 4.68886 3.32127 3.90738
35 2 4.52068 0.602156 3.93458
ITEM: TIMESTEP
12900
ITEM: NUMBER OF ATOMS
35
ITEM: BOX BOUNDS xy xz yz pp pp pp
0.0000000000000000e+00 7.6685730000000003e+00 2.5561910000000001e+00
0.0000000000000000e+00 4.4274529999999999e+00 0.0000000000000000e+00
0.0000000000000000e+00 3.0699265000000000e+01 0.0000000000000000e+00
ITEM: ATOMS id type x y z
1 1 2.71312 3.34849 21.4987
2 1 5.17948 2.48717 23.8205
3 1 4.93227 0.305683 27.2718
4 1 6.67833 4.1294 23.6007
5 1 1.62623 2.77657 26.0365
6 1 3.95163 1.98737 25.8466
7 1 1.97194 3.33512 19.226
8 1 2.76793 1.49915 23.4314
9 1 3.52342 4.29201 24.6604
10 1 2.43501 0.0364166 26.5621
11 1 5.23364 3.36499 20.9694
12 1 3.42749 1.74629 18.4263
13 1 5.51278 1.03383 18.4491
14 1 3.97267 1.11687 21.0971
15 1 1.4262 1.28613 21.2826
16 2 4.89469 3.92868 18.2498
17 2 1.61231 1.95587 16.3017
18 2 4.41781 0.610695 16.1364
19 2 4.39862 3.68599 15.7846
20 2 3.864 1.51879 13.7829
21 2 1.22923 0.282369 13.4442
22 2 2.11088 1.09217 11.1024
23 2 6.4185 2.99123 13.9548
24 2 7.41573 3.99865 11.2379
25 2 1.98959 2.10961 8.18673
26 2 4.60032 0.919376 8.97906
27 2 4.77615 2.50843 11.5727
28 2 4.83998 3.54811 9.21775
29 2 5.27878 2.09302 6.10812
30 2 3.32157 3.99379 6.79527
31 2 3.45586 0.236159 6.58939
32 2 1.67335 2.54696 2.38024
33 2 2.48761 1.77259 4.73154
34 2 4.39348 3.72921 3.48847
35 2 4.71542 0.295129 3.74006
ITEM: TIMESTEP
13000
ITEM: NUMBER OF ATOMS
35
ITEM: BOX BOUNDS xy xz yz pp pp pp
0.0000000000000000e+00 7.6685730000000003e+00 2.5561910000000001e+00
0.0000000000000000e+00 4.4274529999999999e+00 0.0000000000000000e+00
0.0000000000000000e+00 3.0699265000000000e+01 0.0000000000000000e+00
ITEM: ATOMS id type x y z
1 1 2.95834 2.82692 21.8017
2 1 4.86177 2.07933 23.2337
3 1 4.68394 0.048813 27.3032
4 1 6.22812 4.28202 23.7302
5 1 6.7716 2.40184 26.0754
6 1 4.3174 2.37563 25.806
7 1 7.41016 3.30716 19.2415
8 1 2.46287 2.10659 23.9812
9 1 3.43994 4.5991 24.6176
10 1 5.19026 4.67684 26.2359
11 1 5.38201 3.20126 21.17
12 1 3.56507 1.9166 18.2213
13 1 0.320633 1.2351 18.8083
14 1 4.73078 0.580608 21.314
15 1 2.36571 0.956437 20.4991
16 2 5.09554 4.03151 18.3721
17 2 1.46938 1.93333 16.4955
18 2 4.07409 0.271306 16.483
19 2 3.65475 3.35375 16.0674
20 2 3.85548 1.71704 14.0035
21 2 1.43945 0.257917 13.695
22 2 2.15069 1.33601 11.0777
23 2 6.35501 3.17958 13.8595
24 2 2.42161 3.83298 11.4415
25 2 2.17458 2.17948 8.42166
26 2 4.82181 1.0791 8.98258
27 2 4.76744 2.35838 11.3904
28 2 5.17916 3.93507 9.05462
29 2 5.20242 1.81695 6.2026
30 2 3.31537 3.60644 6.493
31 2 3.19447 0.0861842 6.43142
32 2 1.64084 2.57904 1.95689
33 2 2.10911 2.02435 4.43571
34 2 4.75436 3.81306 3.21121
35 2 4.5202 0.628603 3.75783
ITEM: TIMESTEP
13100
ITEM: NUMBER OF ATOMS
35
ITEM: BOX BOUNDS xy xz yz pp pp pp
0.0000000000000000e+00 7.6685730000000003e+00 2.5561910000000001e+00
0.0000000000000000e+00 4.4274529999999999e+00 0.0000000000000000e+00
0.0000000000000000e+00 3.0699265000000000e+01 0.0000000000000000e+00
ITEM: ATOMS id type x y z
1 1 3.72904 3.11871 21.8834
2 1 5.05418 2.05704 23.2749
3 1 0.713497 0.109038 26.4121
4 1 5.38777 4.30409 23.7017
5 1 6.2299 2.38401 26.5835
6 1 4.05412 2.65151 25.7946
7 1 2.39207 3.60982 19.4487
8 1 1.95813 2.15539 24.2577
9 1 2.9588 4.21127 24.2525
10 1 3.00424 0.387231 26.0468
11 1 6.08281 2.76041 20.9884
12 1 2.98488 1.65253 18.2898
13 1 5.61022 1.4444 18.8289
14 1 5.49269 0.67919 21.5691
15 1 2.93366 0.888558 20.955
16 2 4.98482 3.83146 18.9306
17 2 5.99098 1.6317 16.3871
18 2 3.60469 0.0789124 16.2083
19 2 3.85685 3.10741 16.23
20 2 3.77426 1.72538 13.7712
21 2 1.26742 0.380179 14.0153
22 2 2.48439 0.99118 11.3237
23 2 6.38489 3.29926 13.8379
24 2 7.40864 4.19236 11.3609
25 2 2.71946 2.44991 8.74527
26 2 5.13515 0.946305 8.79651
27 2 5.02757 2.4954 11.4654
28 2 4.82946 3.7753 8.90162
29 2 5.42922 1.84778 6.41606
30 2 3.16229 3.46043 6.08459
31 2 2.9769 0.383948 5.88641
32 2 1.93769 2.32346 2.02518
33 2 1.78016 2.36121 4.33795
34 2 4.60887 3.57268 3.51049
35 2 4.5069 1.07924 3.51149
ITEM: TIMESTEP
13200
ITEM: NUMBER OF ATOMS
35
ITEM: BOX BOUNDS xy xz yz pp pp pp
0.0000000000000000e+00 7.6685730000000003e+00 2.5561910000000001e+00
0.0000000000000000e+00 4.4274529999999999e+00 0.0000000000000000e+00
0.0000000000000000e+00 3.0699265000000000e+01 0.0000000000000000e+00
ITEM: ATOMS id type x y z
1 1 4.53876 2.88134 21.3082
2 1 4.34906 1.87635 23.794
3 1 0.745975 0.384374 26.0322
4 1 2.72451 0.0398717 23.4428
5 1 6.50155 2.8906 27.1166
6 1 3.80746 2.70356 25.9419
7 1 1.82226 3.47209 18.6238
8 1 1.72833 1.81654 24.5663
9 1 2.70922 3.78107 23.5919
10 1 3.64392 0.293412 25.6373
11 1 7.08928 3.12626 21.7663
12 1 3.12085 1.39308 18.3736
13 1 5.89293 1.35955 18.9325
14 1 0.616018 0.958296 21.2589
15 1 3.08003 1.10801 21.0972
16 2 4.49974 3.5116 19.0516
17 2 5.90689 1.44344 16.4114
18 2 3.57304 0.0498136 16.1759
19 2 3.5765 3.2349 16.5411
20 2 3.71832 1.85385 13.7062
21 2 0.979335 0.25612 13.7159
22 2 2.52124 0.966043 11.4624
23 2 6.36657 3.10481 13.8088
24 2 2.69197 3.92141 11.2614
25 2 2.61029 2.2045 8.97608
26 2 5.02647 0.644506 8.89817
27 2 5.19104 2.67833 11.3002
28 2 5.28174 4.02942 8.74222
29 2 5.5806 2.32206 6.75094
30 2 3.19654 3.80398 6.25306
31 2 3.16127 0.747019 6.05769
32 2 2.40416 2.03582 1.79895
33 2 1.48586 2.28974 4.20759
34 2 4.10666 4.0789 3.60351
35 2 4.36982 0.722631 3.30526
ITEM: TIMESTEP
13300
ITEM: NUMBER OF ATOMS
35
ITEM: BOX BOUNDS xy xz yz pp pp pp
0.0000000000000000e+00 7.6685730000000003e+00 2.5561910000000001e+00
0.0000000000000000e+00 4.4274529999999999e+00 0.0000000000000000e+00
0.0000000000000000e+00 3.0699265000000000e+01 0.0000000000000000e+00
ITEM: ATOMS id type x y z
1 1 4.83633 3.02596 21.0748
2 1 4.11381 1.55505 23.2872
3 1 0.664077 1.1946 26.3078
4 1 5.33391 4.16708 23.3237
5 1 6.79608 2.94689 27.0534
6 1 4.07932 2.41618 26.5512
7 1 6.7917 3.32356 18.5303
8 1 1.50387 2.29908 24.0938
9 1 3.02875 4.29487 24.3438
10 1 3.26291 0.0805137 25.5943
11 1 2.34988 3.07423 20.9729
12 1 3.3056 1.09385 18.1816
13 1 0.339111 1.28999 18.9629
14 1 0.833865 0.717036 21.4684
15 1 3.51232 0.665088 20.7193
16 2 4.1237 3.39666 18.8932
17 2 6.04156 1.73401 16.4214
18 2 3.29957 0.161203 16.0218
19 2 3.3248 3.04122 16.3045
20 2 3.81554 1.74044 14.0538
21 2 1.15762 0.180267 13.7754
22 2 2.62022 0.958384 11.3665
23 2 6.20298 3.05168 13.7824
24 2 2.76051 3.6629 11.266
25 2 2.58991 2.36301 8.7765
26 2 5.29449 0.93008 8.95431
27 2 5.22381 2.21893 11.1295
28 2 5.23158 3.83083 8.97296
29 2 5.70011 2.58015 6.67977
30 2 3.00935 4.18498 6.33885
31 2 3.37768 1.18915 6.23021
32 2 2.55513 1.99175 2.11915
33 2 1.2875 2.45294 4.32731
34 2 4.18357 3.86991 3.61605
35 2 4.11917 0.489578 3.35617
ITEM: TIMESTEP
13400
ITEM: NUMBER OF ATOMS
35
ITEM: BOX BOUNDS xy xz yz pp pp pp
0.0000000000000000e+00 7.6685730000000003e+00 2.5561910000000001e+00
0.0000000000000000e+00 4.4274529999999999e+00 0.0000000000000000e+00
0.0000000000000000e+00 3.0699265000000000e+01 0.0000000000000000e+00
ITEM: ATOMS id type x y z
1 1 5.15889 2.65878 21.1843
2 1 4.05583 2.02555 23.3668
3 1 0.750403 1.18844 26.7708
4 1 5.3754 3.9505 23.3395
5 1 2.16085 3.62945 26.5437
6 1 4.20879 2.60327 25.5801
7 1 6.47046 3.5333 18.4215
8 1 1.76386 2.21197 23.826
9 1 2.98203 4.18359 24.2742
10 1 2.97473 0.431423 25.7708
11 1 2.56529 2.29691 20.9926
12 1 2.56356 1.56507 18.3325
13 1 5.27849 1.05509 19.2452
14 1 1.09056 0.61429 22.0879
15 1 3.70564 0.194851 20.9228
16 2 4.16774 3.54612 18.3852
17 2 5.73097 1.60015 16.2872
18 2 5.67175 4.27149 15.9577
19 2 3.27044 3.19543 16.0621
20 2 3.80526 1.61849 13.6531
21 2 1.23695 0.249321 13.895
22 2 2.81735 0.525842 11.4876
23 2 6.4108 3.11037 13.568
24 2 2.55172 3.66379 11.2649
25 2 2.94221 2.61157 8.50118
26 2 5.3407 0.977744 8.80067
27 2 5.14131 2.01058 11.6622
28 2 5.09876 3.92838 9.20705
29 2 5.52998 3.08855 6.84412
30 2 3.32957 4.36743 6.28768
31 2 3.09088 1.44766 5.91879
32 2 2.33112 2.29679 2.30415
33 2 1.31575 2.00078 4.42132
34 2 4.19447 3.40537 3.96812
35 2 4.37322 0.540184 3.84155
ITEM: TIMESTEP
13500
ITEM: NUMBER OF ATOMS
35
ITEM: BOX BOUNDS xy xz yz pp pp pp
0.0000000000000000e+00 7.6685730000000003e+00 2.5561910000000001e+00
0.0000000000000000e+00 4.4274529999999999e+00 0.0000000000000000e+00
0.0000000000000000e+00 3.0699265000000000e+01 0.0000000000000000e+00
ITEM: ATOMS id type x y z
1 1 4.94643 2.58055 21.0423
2 1 4.02783 1.57059 22.9443
3 1 5.37489 2.06627 27.2033
4 1 5.82103 3.70836 22.8778
5 1 2.45532 3.35326 25.9037
6 1 5.17716 3.03359 25.0935
7 1 6.86839 3.91584 18.4563
8 1 1.70348 1.74251 23.9439
9 1 2.96969 4.32326 24.0187
10 1 3.38653 1.24139 25.8014
11 1 2.34774 2.14651 21.1198
12 1 2.50482 1.39179 18.5837
13 1 5.48711 1.6561 19.1718
14 1 1.1714 0.00461732 21.2654
15 1 6.38781 4.34591 20.7369
16 2 4.26128 3.62715 18.4795
17 2 5.24481 1.32136 16.6022
18 2 5.59776 4.43105 16.0388
19 2 2.78068 2.77242 15.9738
20 2 3.8169 1.61337 13.8933
21 2 1.1336 0.215047 13.6
22 2 2.4142 0.807286 11.4701
23 2 6.59841 3.12615 13.7683
24 2 2.77136 3.44583 11.0973
25 2 2.74601 2.30714 8.73086
26 2 5.0939 1.01853 8.87647
27 2 5.2256 2.13673 11.0643
28 2 5.39131 4.20637 9.12317
29 2 5.88787 3.38774 6.67843
30 2 0.564144 0.0650107 6.5571
31 2 3.62968 1.56028 6.38319
32 2 2.17658 2.39986 2.50441
33 2 1.39358 1.85215 4.70731
34 2 4.33212 3.40432 3.91879
35 2 4.08306 0.151494 3.72719
ITEM: TIMESTEP
13600
ITEM: NUMBER OF ATOMS
35
ITEM: BOX BOUNDS xy xz yz pp pp pp
0.0000000000000000e+00 7.6685730000000003e+00 2.5561910000000001e+00
0.0000000000000000e+00 4.4274529999999999e+00 0.0000000000000000e+00
0.0000000000000000e+00 3.0699265000000000e+01 0.0000000000000000e+00
ITEM: ATOMS id type x y z
1 1 4.63853 2.31472 21.0921
2 1 4.55538 1.32919 23.6324
3 1 5.67672 2.75545 27.0629
4 1 5.68161 3.78653 22.5871
5 1 2.34903 3.20812 25.9099
6 1 5.07416 4.00835 24.9968
7 1 6.73502 3.55168 18.1937
8 1 1.80873 1.78066 23.5808
9 1 3.37512 3.78088 23.0941
10 1 4.14805 0.949085 25.8461
11 1 2.19402 2.61841 20.7686
12 1 3.57745 1.29913 18.2297
13 1 0.886319 1.34768 18.9355
14 1 0.967101 0.10038 21.0786
15 1 3.52526 0.0614145 20.3146
16 2 4.3428 3.70669 18.7073
17 2 5.24415 1.37753 16.4783
18 2 4.74626 4.15473 16.1103
19 2 2.53164 2.56823 16.3047
20 2 4.01073 1.6355 13.9079
21 2 1.19402 0.132906 13.838
22 2 2.68018 0.982197 11.369
23 2 6.05226 3.05556 13.6269
24 2 2.77211 3.94158 11.3409
25 2 2.22907 2.39863 8.84567
26 2 5.15824 0.884382 8.94633
27 2 5.1642 2.56822 11.3313
28 2 5.15174 3.91747 8.87094
29 2 6.03425 3.41522 6.50613
30 2 3.60559 4.36856 6.70789
31 2 3.90605 1.7934 6.54819
32 2 2.09787 2.07672 2.38446
33 2 1.88351 1.49057 4.89244
34 2 4.03177 3.39611 3.78525
35 2 4.07895 0.328742 3.68992
ITEM: TIMESTEP
13700
ITEM: NUMBER OF ATOMS
35
ITEM: BOX BOUNDS xy xz yz pp pp pp
0.0000000000000000e+00 7.6685730000000003e+00 2.5561910000000001e+00
0.0000000000000000e+00 4.4274529999999999e+00 0.0000000000000000e+00
0.0000000000000000e+00 3.0699265000000000e+01 0.0000000000000000e+00
ITEM: ATOMS id type x y z
1 1 4.61839 2.55878 21.4774
2 1 4.88708 1.68707 23.7079
3 1 5.73274 3.19581 26.366
4 1 6.15428 4.12744 23.1936
5 1 3.00148 2.6461 25.2929
6 1 4.5801 4.48995 25.0653
7 1 7.03596 3.80157 18.1933
8 1 1.97843 1.49785 23.2622
9 1 3.35512 3.48742 23.0144
10 1 4.67932 1.01558 26.0884
11 1 2.47036 2.39945 20.6611
12 1 2.99488 1.2529 18.1876
13 1 5.84966 1.54259 18.6607
14 1 0.806331 0.602469 21.1661
15 1 3.29964 0.297238 20.659
16 2 4.16545 3.38709 18.949
17 2 5.09521 1.07013 16.0281
18 2 4.9317 3.83043 16.4171
19 2 2.38072 2.53705 15.9016
20 2 3.41952 1.58832 13.8062
21 2 1.24349 0.285335 13.8722
22 2 2.66442 1.15482 11.2826
23 2 6.50883 3.32262 13.8722
24 2 2.47846 4.30416 11.5786
25 2 2.39003 2.40877 8.87306
26 2 4.77086 0.894536 9.19613
27 2 5.02548 2.63007 11.4933
28 2 4.6934 3.8146 9.09976
29 2 6.48903 3.34471 6.06854
30 2 1.1705 0.118336 6.65446
31 2 4.02703 1.61865 6.67561
32 2 1.65213 1.7004 2.22987
33 2 2.01378 1.53055 4.63022
34 2 4.15897 3.10551 3.79736
35 2 4.68024 0.518714 3.88049
ITEM: TIMESTEP
13800
ITEM: NUMBER OF ATOMS
35
ITEM: BOX BOUNDS xy xz yz pp pp pp
0.0000000000000000e+00 7.6685730000000003e+00 2.5561910000000001e+00
0.0000000000000000e+00 4.4274529999999999e+00 0.0000000000000000e+00
0.0000000000000000e+00 3.0699265000000000e+01 0.0000000000000000e+00
ITEM: ATOMS id type x y z
1 1 5.02821 2.82253 21.8281
2 1 4.71731 1.85997 24.0264
3 1 6.15204 3.20305 25.6548
4 1 6.26311 3.94651 23.5002
5 1 3.28987 2.25669 25.6362
6 1 1.72324 0.615616 25.0592
7 1 6.55457 3.63966 18.5212
8 1 2.67313 1.66016 22.4141
9 1 3.39898 4.04521 23.3434
10 1 4.74675 0.546527 26.3901
11 1 1.93164 2.72698 20.2853
12 1 2.64702 1.31659 18.8491
13 1 5.33159 1.22904 18.4316
14 1 1.00689 0.544619 20.5633
15 1 3.72993 0.846046 20.6911
16 2 4.24173 3.18268 19.1057
17 2 4.80047 0.735942 16.0651
18 2 5.00348 3.79638 16.1626
19 2 2.60639 2.4384 16.4709
20 2 3.90918 1.98544 13.7057
21 2 1.24707 0.3406 13.866
22 2 1.9867 1.26603 11.3336
23 2 6.12863 3.43935 13.7634
24 2 2.41328 3.85286 11.379
25 2 2.10917 2.53541 8.80907
26 2 4.60788 0.921824 9.0767
27 2 4.96471 2.67368 11.5077
28 2 4.88228 3.85678 9.15122
29 2 6.34649 3.52627 6.34576
30 2 1.38572 0.198875 6.77759
31 2 3.97373 1.92953 6.56355
32 2 1.20987 1.61678 2.16342
33 2 2.38962 1.35925 4.35876
34 2 4.79957 3.11534 3.86661
35 2 4.84558 0.012513 3.76455
ITEM: TIMESTEP
13900
ITEM: NUMBER OF ATOMS
35
ITEM: BOX BOUNDS xy xz yz pp pp pp
0.0000000000000000e+00 7.6685730000000003e+00 2.5561910000000001e+00
0.0000000000000000e+00 4.4274529999999999e+00 0.0000000000000000e+00
0.0000000000000000e+00 3.0699265000000000e+01 0.0000000000000000e+00
ITEM: ATOMS id type x y z
1 1 4.89595 2.82255 21.2654
2 1 5.13194 1.52327 24.1692
3 1 5.84697 2.8301 25.6357
4 1 5.93236 4.07223 23.18
5 1 3.49307 3.18335 25.9379
6 1 2.35593 0.847888 25.3664
7 1 6.57447 3.32169 18.1982
8 1 2.20667 2.10462 23.5423
9 1 3.62656 4.12543 23.3589
10 1 4.78037 0.439843 26.3942
11 1 2.28331 3.37984 21.1342
12 1 2.75128 0.891095 18.4058
13 1 5.4764 0.914325 18.4206
14 1 1.57544 0.843427 21.2871
15 1 3.89908 0.974831 20.5821
16 2 3.94592 2.91443 18.9173
17 2 4.84027 0.850157 16.0587
18 2 4.71815 3.81649 16.335
19 2 2.59833 2.18464 16.3059
20 2 3.63958 1.97243 13.8832
21 2 1.05333 0.577007 13.8476
22 2 2.23383 0.838071 11.4487
23 2 6.43066 3.33106 13.8946
24 2 7.25465 3.95389 11.2794
25 2 2.14525 2.38833 8.79474
26 2 4.73785 1.14125 8.88079
27 2 4.60293 2.4522 11.2105
28 2 4.78337 4.09281 8.9064
29 2 6.34873 3.64508 6.5156
30 2 1.15885 0.780611 6.47764
31 2 4.00754 2.10702 6.38852
32 2 0.892799 1.42485 2.28945
33 2 2.78824 1.37903 4.22536
34 2 5.09177 3.06513 4.08895
35 2 2.56132 3.94037 3.89714
ITEM: TIMESTEP
14000
ITEM: NUMBER OF ATOMS
35
ITEM: BOX BOUNDS xy xz yz pp pp pp
0.0000000000000000e+00 7.6685730000000003e+00 2.5561910000000001e+00
0.0000000000000000e+00 4.4274529999999999e+00 0.0000000000000000e+00
0.0000000000000000e+00 3.0699265000000000e+01 0.0000000000000000e+00
ITEM: ATOMS id type x y z
1 1 5.49584 3.09253 20.9828
2 1 4.34438 1.87722 23.3646
3 1 6.51388 3.23443 26.3402
4 1 6.01837 4.15926 23.2499
5 1 3.79999 3.07275 25.8894
6 1 2.23357 0.757691 26.2225
7 1 6.38186 2.89162 18.8571
8 1 1.85442 1.87971 24.0729
9 1 3.68041 4.08557 23.4715
10 1 5.23592 1.43304 26.0371
11 1 3.17827 3.22782 21.3832
12 1 2.74978 0.595456 18.2677
13 1 5.5309 0.79637 19.1782
14 1 1.35848 1.15257 21.5302
15 1 4.06578 0.532485 20.7136
16 2 3.65068 3.03819 18.6039
17 2 4.98193 0.950501 16.5708
18 2 4.68635 3.60986 16.1936
19 2 2.05224 2.18912 15.9991
20 2 3.51208 1.69756 13.5018
21 2 1.00235 0.293147 13.653
22 2 2.22592 0.869238 11.2149
23 2 6.06736 3.44699 13.8539
24 2 7.276 3.87874 11.2643
25 2 2.41482 2.50762 9.14684
26 2 4.98826 1.18779 8.75661
27 2 4.78312 2.40678 11.354
28 2 4.53126 4.08195 8.5625
29 2 6.48526 3.83263 6.59229
30 2 1.24711 1.10926 5.88562
31 2 3.55451 2.50847 6.67522
32 2 0.817125 1.114 2.5117
33 2 3.08825 1.13247 3.81203
34 2 5.27846 2.85257 4.22407
35 2 2.62418 3.96745 4.32719
ITEM: TIMESTEP
14100
ITEM: NUMBER OF ATOMS
35
ITEM: BOX BOUNDS xy xz yz pp pp pp
0.0000000000000000e+00 7.6685730000000003e+00 2.5561910000000001e+00
0.0000000000000000e+00 4.4274529999999999e+00 0.0000000000000000e+00
0.0000000000000000e+00 3.0699265000000000e+01 0.0000000000000000e+00
ITEM: ATOMS id type x y z
1 1 5.5389 3.18239 20.8681
2 1 4.48482 2.30683 23.4706
3 1 6.9932 3.91706 26.4212
4 1 5.65678 4.07658 23.7509
5 1 3.88135 3.08798 25.6618
6 1 2.75329 0.974323 26.656
7 1 6.27466 3.21114 18.2948
8 1 2.36879 2.01916 24.1978
9 1 2.94043 4.17143 23.9087
10 1 5.28103 1.31323 25.4121
11 1 2.53695 2.99623 20.7004
12 1 2.33154 0.774701 18.5468
13 1 5.5392 1.08586 19.5107
14 1 1.78523 0.682848 21.6825
15 1 4.08784 0.877642 21.4486
16 2 3.78043 2.95222 18.4086
17 2 4.55262 0.529431 16.8037
18 2 4.5411 3.47662 15.9017
19 2 2.11223 2.42005 16.0992
20 2 3.56179 1.59158 13.7425
21 2 0.628778 0.0490823 13.8341
22 2 2.01892 0.920526 11.0871
23 2 5.81753 3.23371 13.4704
24 2 7.56195 3.87794 11.4207
25 2 2.20829 2.65613 8.90774
26 2 4.97896 1.22387 8.75706
27 2 5.09568 2.66776 11.1246
28 2 4.76923 4.12552 8.93617
29 2 6.34584 4.34913 6.79112
30 2 1.42271 1.18757 5.85112
31 2 3.70844 2.52339 6.66525
32 2 1.04573 0.875737 2.57625
33 2 3.45175 1.00602 3.57417
34 2 5.0112 2.96654 4.0949
35 2 2.6498 3.37818 4.31649
ITEM: TIMESTEP
14200
ITEM: NUMBER OF ATOMS
35
ITEM: BOX BOUNDS xy xz yz pp pp pp
0.0000000000000000e+00 7.6685730000000003e+00 2.5561910000000001e+00
0.0000000000000000e+00 4.4274529999999999e+00 0.0000000000000000e+00
0.0000000000000000e+00 3.0699265000000000e+01 0.0000000000000000e+00
ITEM: ATOMS id type x y z
1 1 4.76433 3.22062 20.6209
2 1 5.06601 2.35958 23.4449
3 1 6.77995 3.69122 26.1275
4 1 5.60364 4.28889 24.2816
5 1 4.39964 3.73917 26.5457
6 1 3.10867 1.4878 26.4501
7 1 6.2273 3.0916 18.451
8 1 2.06411 2.48607 24.07
9 1 2.67292 4.31902 23.2944
10 1 5.60617 1.23081 25.9078
11 1 2.27725 3.02606 20.8218
12 1 2.1713 0.747685 18.6423
13 1 4.67832 0.589916 19.1972
14 1 1.67329 0.897187 21.9214
15 1 3.8306 0.756869 21.6895
16 2 3.75444 2.81809 18.2105
17 2 4.51029 0.689605 16.5668
18 2 4.8149 3.68213 16.0686
19 2 1.91009 1.92712 16.106
20 2 3.23604 1.52876 13.9604
21 2 0.54926 0.408077 14.2922
22 2 2.59898 1.26506 11.7022
23 2 6.08887 2.83254 13.4414
24 2 7.40814 4.08753 11.2348
25 2 2.16854 2.65044 8.41395
26 2 4.83569 1.00209 8.79009
27 2 4.55565 2.38649 11.0892
28 2 4.84306 4.39528 8.92597
29 2 6.36204 4.38575 6.13987
30 2 1.10246 0.943914 5.89824
31 2 4.39692 2.87265 6.50764
32 2 1.25464 0.708934 2.92667
33 2 3.85106 0.962022 3.60297
34 2 5.09343 3.03856 3.94915
35 2 2.46599 2.98521 4.2077
ITEM: TIMESTEP
14300
ITEM: NUMBER OF ATOMS
35
ITEM: BOX BOUNDS xy xz yz pp pp pp
0.0000000000000000e+00 7.6685730000000003e+00 2.5561910000000001e+00
0.0000000000000000e+00 4.4274529999999999e+00 0.0000000000000000e+00
0.0000000000000000e+00 3.0699265000000000e+01 0.0000000000000000e+00
ITEM: ATOMS id type x y z
1 1 4.62585 3.06373 20.9764
2 1 4.27733 2.71967 23.4201
3 1 6.7153 3.34191 26.3519
4 1 3.39516 -0.0274839 24.131
5 1 4.3217 3.95863 27.1641
6 1 3.39772 1.9289 26.1206
7 1 5.69688 2.65177 18.85
8 1 1.91079 2.54537 24.0881
9 1 3.06159 4.36157 23.8793
10 1 0.957008 1.24068 25.6565
11 1 2.51436 3.54865 21.2833
12 1 2.15935 0.529009 19.0172
13 1 4.93308 0.514497 19.3382
14 1 0.809931 1.2098 21.5054
15 1 3.36567 1.07154 21.077
16 2 3.33259 2.77172 18.1701
17 2 4.60987 0.700268 16.7225
18 2 4.97936 3.5944 15.8845
19 2 1.8413 1.87846 16.4399
20 2 3.60704 1.66182 14.2166
21 2 0.772761 0.0527145 13.8662
22 2 1.83127 0.832647 11.306
23 2 5.90367 3.25551 13.5775
24 2 7.22432 4.23505 11.175
25 2 2.12482 2.57035 8.20866
26 2 4.85898 0.961351 8.54969
27 2 4.93015 2.70916 11.1799
28 2 4.81004 4.24976 8.86209
29 2 3.86726 0.193084 6.11926
30 2 1.43795 1.05948 5.89049
31 2 4.18396 2.73061 6.68182
32 2 1.39994 0.830669 2.89673
33 2 4.13502 0.562908 3.37735
34 2 5.18522 3.10129 3.80804
35 2 2.5997 2.78653 4.61288
ITEM: TIMESTEP
14400
ITEM: NUMBER OF ATOMS
35
ITEM: BOX BOUNDS xy xz yz pp pp pp
0.0000000000000000e+00 7.6685730000000003e+00 2.5561910000000001e+00
0.0000000000000000e+00 4.4274529999999999e+00 0.0000000000000000e+00
0.0000000000000000e+00 3.0699265000000000e+01 0.0000000000000000e+00
ITEM: ATOMS id type x y z
1 1 4.66352 3.87367 21.3639
2 1 4.33273 1.85873 23.2571
3 1 6.81505 4.07929 26.2791
4 1 2.88202 0.161102 24.2275
5 1 4.37494 3.74127 26.7814
6 1 3.87732 2.00594 25.5251
7 1 6.11015 2.58937 19.0167
8 1 1.61588 2.36318 23.4468
9 1 3.04429 4.38897 23.6057
10 1 0.991374 1.7646 26.3756
11 1 1.84586 3.78444 21.6237
12 1 2.28542 0.486848 18.5378
13 1 4.59883 0.706754 19.503
14 1 0.459204 1.33759 21.4508
15 1 3.17966 1.55984 21.3953
16 2 3.4073 2.92744 18.7306
17 2 4.59112 0.203513 16.6916
18 2 4.40434 3.5104 16.3649
19 2 1.97751 1.87811 16.0363
20 2 3.75437 1.60972 13.9142
21 2 1.04661 0.0329929 13.3958
22 2 2.05122 1.33769 11.1491
23 2 6.22148 3.39328 13.6408
24 2 6.90318 4.04973 11.0195
25 2 2.01419 2.51444 8.50931
26 2 4.9481 0.996555 8.82118
27 2 4.47723 2.42444 11.2133
28 2 4.74475 3.91808 8.95199
29 2 3.86591 0.0235409 6.34187
30 2 1.25656 1.00204 5.84351
31 2 4.27978 2.82309 6.72695
32 2 1.92854 1.19905 2.67113
33 2 4.2234 0.435336 3.15428
34 2 5.21223 2.71124 4.04004
35 2 2.7016 3.02951 4.49347
ITEM: TIMESTEP
14500
ITEM: NUMBER OF ATOMS
35
ITEM: BOX BOUNDS xy xz yz pp pp pp
0.0000000000000000e+00 7.6685730000000003e+00 2.5561910000000001e+00
0.0000000000000000e+00 4.4274529999999999e+00 0.0000000000000000e+00
0.0000000000000000e+00 3.0699265000000000e+01 0.0000000000000000e+00
ITEM: ATOMS id type x y z
1 1 3.9492 4.14201 21.5944
2 1 4.4615 1.9743 22.9934
3 1 5.07294 0.285453 25.675
4 1 5.26911 3.93778 24.2545
5 1 4.68917 4.33087 26.4987
6 1 3.21669 2.07626 25.476
7 1 6.04578 2.72394 18.4615
8 1 1.36342 1.44269 24.2506
9 1 2.73537 3.93055 23.596
10 1 6.36599 2.46788 26.3505
11 1 6.40065 4.24193 21.3422
12 1 2.22819 0.9262 18.0352
13 1 4.37813 0.2712 18.9347
14 1 5.7018 1.98289 20.9132
15 1 2.92708 1.76888 21.2624
16 2 3.54947 3.02772 19.1672
17 2 4.38696 0.272837 16.5287
18 2 4.32363 2.92974 16.4009
19 2 1.88219 1.83842 15.8453
20 2 3.88198 1.51152 13.7578
21 2 1.22303 0.350926 13.5084
22 2 1.83304 1.18028 11.1871
23 2 6.36636 3.04358 13.7177
24 2 6.95589 4.01254 11.2491
25 2 2.35135 2.3979 8.64959
26 2 4.66992 0.972054 8.8513
27 2 4.60453 2.6347 11.4361
28 2 4.70218 4.09374 9.20318
29 2 3.77404 -0.00729153 6.38432
30 2 1.37459 0.995591 5.86715
31 2 4.14214 2.62277 6.76856
32 2 1.90322 1.38679 2.60838
33 2 4.51495 0.352395 2.90999
34 2 5.22483 2.88926 4.04984
35 2 2.9099 2.88217 4.58577
ITEM: TIMESTEP
14600
ITEM: NUMBER OF ATOMS
35
ITEM: BOX BOUNDS xy xz yz pp pp pp
0.0000000000000000e+00 7.6685730000000003e+00 2.5561910000000001e+00
0.0000000000000000e+00 4.4274529999999999e+00 0.0000000000000000e+00
0.0000000000000000e+00 3.0699265000000000e+01 0.0000000000000000e+00
ITEM: ATOMS id type x y z
1 1 3.93191 4.32212 21.3019
2 1 4.3688 1.54444 22.9338
3 1 4.98775 0.590785 26.0204
4 1 5.40416 3.42191 24.2391
5 1 2.38563 0.997548 26.3443
6 1 3.69027 2.82843 25.2089
7 1 6.24893 2.8187 18.1869
8 1 1.62509 0.865809 23.8479
9 1 2.61244 3.08383 23.4002
10 1 6.1053 2.82066 26.4236
11 1 6.28952 4.28525 20.8934
12 1 2.16575 0.640191 18.5144
13 1 4.42364 0.745264 18.6067
14 1 5.2949 2.25935 20.5272
15 1 2.14768 2.11228 21.2384
16 2 3.28162 3.14594 18.9651
17 2 4.47015 -0.00355416 16.1709
18 2 4.17208 2.95901 16.2398
19 2 1.70549 1.4953 16.1109
20 2 3.87501 1.54634 13.8841
21 2 1.26726 -0.188797 14.1665
22 2 1.81245 1.18901 11.3021
23 2 6.33076 3.09438 13.7955
24 2 7.30069 4.22283 11.4371
25 2 1.94919 2.46266 8.77235
26 2 4.81192 0.933955 8.9644
27 2 4.67526 2.88251 11.4062
28 2 4.74563 4.05068 8.84469
29 2 6.48392 4.21955 6.22041
30 2 1.23564 0.940629 6.04153
31 2 4.28766 2.67111 6.7946
32 2 2.0171 1.24146 2.76421
33 2 4.77209 0.428109 3.15909
34 2 5.29911 3.43549 3.6856
35 2 2.83653 2.64561 4.63634
ITEM: TIMESTEP
14700
ITEM: NUMBER OF ATOMS
35
ITEM: BOX BOUNDS xy xz yz pp pp pp
0.0000000000000000e+00 7.6685730000000003e+00 2.5561910000000001e+00
0.0000000000000000e+00 4.4274529999999999e+00 0.0000000000000000e+00
0.0000000000000000e+00 3.0699265000000000e+01 0.0000000000000000e+00
ITEM: ATOMS id type x y z
1 1 3.38548 4.44708 21.2319
2 1 4.30158 0.725547 22.9763
3 1 4.80367 0.952988 25.2634
4 1 5.81398 3.21685 23.6638
5 1 2.60257 1.12958 25.5029
6 1 3.56143 3.43427 26.232
7 1 5.49507 3.46941 18.5944
8 1 1.63791 0.889715 23.4222
9 1 3.42635 3.07847 23.3565
10 1 5.9551 3.36059 26.2616
11 1 4.0952 0.0660584 19.9522
12 1 1.76762 0.889108 19.0035
13 1 4.89052 0.997781 17.9874
14 1 5.15425 2.37399 20.8319
15 1 2.29358 2.13165 21.324
16 2 2.90976 3.06111 18.8763
17 2 6.58642 4.08043 16.1278
18 2 4.04421 2.87702 16.5478
19 2 1.81271 1.28444 16.4552
20 2 3.83292 1.3057 13.7621
21 2 3.85596 4.21232 13.7527
22 2 2.50333 1.48023 11.5889
23 2 6.357 2.69925 13.9164
24 2 7.24678 4.21487 11.4395
25 2 1.88589 2.683 8.90983
26 2 4.73547 1.01238 9.01374
27 2 4.56358 2.77009 11.1116
28 2 4.7525 4.4109 9.07303
29 2 6.43818 4.12835 6.3015
30 2 1.31073 1.02344 5.95342
31 2 4.24461 2.41636 6.8564
32 2 2.31457 1.54623 2.27128
33 2 4.99144 0.612835 3.75106
34 2 5.09738 3.36766 3.78294
35 2 2.93787 2.24898 4.60142
ITEM: TIMESTEP
14800
ITEM: NUMBER OF ATOMS
35
ITEM: BOX BOUNDS xy xz yz pp pp pp
0.0000000000000000e+00 7.6685730000000003e+00 2.5561910000000001e+00
0.0000000000000000e+00 4.4274529999999999e+00 0.0000000000000000e+00
0.0000000000000000e+00 3.0699265000000000e+01 0.0000000000000000e+00
ITEM: ATOMS id type x y z
1 1 1.03702 -0.0019849 21.4275
2 1 4.25231 0.661469 22.7861
3 1 5.1944 1.41146 25.0084
4 1 6.25506 3.0293 23.324
5 1 2.34506 1.29565 25.5691
6 1 3.55452 3.75707 26.0739
7 1 5.35283 3.48001 18.5092
8 1 1.86596 0.579958 23.3351
9 1 3.22772 2.90824 24.0574
10 1 6.18131 3.68978 25.4618
11 1 3.43802 0.783437 20.3972
12 1 1.26658 1.11364 19.4772
13 1 4.36527 1.06038 18.089
14 1 5.23777 2.6911 21.0586
15 1 2.60558 2.64915 21.539
16 2 2.96185 2.98001 18.6853
17 2 6.39822 3.85027 16.079
18 2 3.79766 2.76328 15.8521
19 2 1.52667 1.08153 16.6139
20 2 3.96369 1.00715 14.0866
21 2 3.97402 4.00745 13.5491
22 2 2.10043 1.28749 11.3336
23 2 6.35188 2.33305 13.8021
24 2 7.26638 4.31849 11.5147
25 2 2.22706 2.91991 8.90363
26 2 4.71446 1.19701 9.18199
27 2 5.12195 2.84893 11.2075
28 2 2.08588 0.11253 8.91093
29 2 6.44643 3.85816 6.44905
30 2 1.23359 0.690579 6.54272
31 2 3.97767 2.63737 6.93463
32 2 2.52691 2.05767 2.11633
33 2 5.18824 0.535912 3.85236
34 2 5.39806 3.46435 3.82066
35 2 2.76166 2.22362 4.47795
ITEM: TIMESTEP
14900
ITEM: NUMBER OF ATOMS
35
ITEM: BOX BOUNDS xy xz yz pp pp pp
0.0000000000000000e+00 7.6685730000000003e+00 2.5561910000000001e+00
0.0000000000000000e+00 4.4274529999999999e+00 0.0000000000000000e+00
0.0000000000000000e+00 3.0699265000000000e+01 0.0000000000000000e+00
ITEM: ATOMS id type x y z
1 1 1.12336 0.309454 21.3533
2 1 4.2784 0.816188 22.9229
3 1 4.98712 1.61087 25.6535
4 1 5.77894 2.99753 23.0918
5 1 2.68143 2.05092 26.4495
6 1 4.01346 3.92157 26.1304
7 1 5.10757 3.3851 18.1925
8 1 2.09692 0.686621 24.069
9 1 2.9635 2.95468 23.8426
10 1 6.57051 3.7776 25.3832
11 1 3.54986 0.596754 20.2131
12 1 1.01583 1.2769 18.8352
13 1 3.67453 1.10568 17.6789
14 1 4.97451 2.92122 20.4856
15 1 2.97746 2.47511 21.437
16 2 2.69938 3.28732 18.5955
17 2 6.35391 3.5684 16.1658
18 2 3.72816 2.52793 16.0426
19 2 1.04995 0.832438 16.3139
20 2 3.99833 0.62826 13.7965
21 2 4.07975 3.71536 13.7221
22 2 2.38181 1.3522 11.2349
23 2 6.55199 2.19386 13.727
24 2 4.94698 0.0153994 11.5117
25 2 2.33809 3.02749 9.06785
26 2 4.68618 1.48539 9.07937
27 2 4.8332 2.89542 11.436
28 2 5.03877 4.14769 8.97473
29 2 6.34477 3.94853 6.44458
30 2 1.12087 0.967574 6.63215
31 2 4.07259 2.18453 6.74663
32 2 2.86053 2.44786 2.37333
33 2 5.32372 0.667799 3.64581
34 2 5.17185 3.64959 3.87476
35 2 2.57742 2.00748 4.66062
ITEM: TIMESTEP
15000
ITEM: NUMBER OF ATOMS
35
ITEM: BOX BOUNDS xy xz yz pp pp pp
0.0000000000000000e+00 7.6685730000000003e+00 2.5561910000000001e+00
0.0000000000000000e+00 4.4274529999999999e+00 0.0000000000000000e+00
0.0000000000000000e+00 3.0699265000000000e+01 0.0000000000000000e+00
ITEM: ATOMS id type x y z
1 1 1.3754 0.674819 21.7263
2 1 4.21005 0.621431 23.1663
3 1 5.27523 2.02379 25.8919
4 1 5.13565 2.63237 22.8539
5 1 2.82539 1.92916 26.4557
6 1 4.38766 4.30123 26.0161
7 1 4.55339 3.12047 18.0943
8 1 1.51893 1.49409 24.0355
9 1 3.43458 3.32525 24.007
10 1 6.6455 4.28118 25.6179
11 1 4.35576 0.47862 20.9661
12 1 0.81641 1.19159 19.133
13 1 3.1336 1.043 18.4887
14 1 4.91526 2.93845 20.4719
15 1 2.23482 2.69094 21.4024
16 2 2.08236 3.47081 18.7263
17 2 6.39951 3.48957 15.9813
18 2 3.74551 1.88211 15.9649
19 2 1.01506 0.660976 15.9947
20 2 3.82291 0.564861 13.7311
21 2 3.81307 3.63368 13.7015
22 2 2.68901 1.45688 11.4057
23 2 1.46568 2.07041 13.6215
24 2 2.68937 4.30265 11.2289
25 2 2.5491 2.80903 8.85133
26 2 5.30771 1.30183 9.10565
27 2 5.0837 2.87149 11.4552
28 2 5.13807 4.42903 8.97647
29 2 6.39641 3.89881 6.38196
30 2 1.38658 0.604397 6.82896
31 2 3.92405 2.43783 6.55002
32 2 3.11538 2.7485 2.40151
33 2 4.99844 0.910021 3.73248
34 2 4.97929 3.7421 3.91174
35 2 2.23115 2.03973 4.58561
ITEM: TIMESTEP
15100
ITEM: NUMBER OF ATOMS
35
ITEM: BOX BOUNDS xy xz yz pp pp pp
0.0000000000000000e+00 7.6685730000000003e+00 2.5561910000000001e+00
0.0000000000000000e+00 4.4274529999999999e+00 0.0000000000000000e+00
0.0000000000000000e+00 3.0699265000000000e+01 0.0000000000000000e+00
ITEM: ATOMS id type x y z
1 1 1.79316 0.249001 22.2886
2 1 3.65493 0.654315 23.7332
3 1 5.56912 2.60649 25.7075
4 1 5.12484 2.41927 22.9806
5 1 3.10704 2.20524 25.933
6 1 1.59087 0.305786 26.3926
7 1 4.33582 3.06386 17.6614
8 1 1.65389 1.90469 24.02
9 1 3.23869 3.78115 23.8833
10 1 6.90887 4.36539 26.8719
11 1 3.65368 1.24573 21.1541
12 1 5.53132 1.13217 18.9991
13 1 2.88161 1.2207 18.7841
14 1 4.47533 3.58965 19.7814
15 1 2.32848 3.05856 21.2528
16 2 6.73576 3.37131 18.583
17 2 6.55429 3.16285 16.1574
18 2 3.49862 1.41841 16.1967
19 2 1.11433 0.50808 16.7527
20 2 3.8319 0.496144 13.4727
21 2 3.72246 3.23901 13.61
22 2 2.84857 1.35833 11.1846
23 2 6.08217 1.9971 13.8774
24 2 2.85081 4.26158 11.2628
25 2 2.9335 2.82109 8.68264
26 2 5.41638 1.46454 8.90697
27 2 5.75944 2.82431 11.1342
28 2 5.72486 4.34604 9.00025
29 2 6.56689 3.90553 6.63238
30 2 1.36156 0.645906 6.42193
31 2 4.24128 2.14544 6.17201
32 2 3.02133 2.97504 2.31318
33 2 4.44507 0.936339 4.01936
34 2 4.98813 3.92976 3.85827
35 2 1.89573 2.29472 4.50616
ITEM: TIMESTEP
15200
ITEM: NUMBER OF ATOMS
35
ITEM: BOX BOUNDS xy xz yz pp pp pp
0.0000000000000000e+00 7.6685730000000003e+00 2.5561910000000001e+00
0.0000000000000000e+00 4.4274529999999999e+00 0.0000000000000000e+00
0.0000000000000000e+00 3.0699265000000000e+01 0.0000000000000000e+00
ITEM: ATOMS id type x y z
1 1 1.43453 0.710882 21.881
2 1 3.478 0.0299837 23.9509
3 1 5.75023 3.4578 25.7583
4 1 4.5759 2.65331 22.9103
5 1 3.52414 2.37781 26.1622
6 1 1.56103 0.885732 26.2845
7 1 4.63059 2.81666 17.8731
8 1 2.04359 1.89079 24.0734
9 1 3.50126 4.09289 24.3818
10 1 6.69565 4.42904 27.5418
11 1 3.42477 1.5483 21.1579
12 1 5.44169 1.60705 19.8721
13 1 2.74715 1.0986 18.4584
14 1 3.76583 3.73094 19.922
15 1 6.62944 3.68474 21.5323
16 2 6.90249 3.43465 18.7571
17 2 6.37182 3.05116 16.0415
18 2 3.41843 1.11154 15.9319
19 2 0.740197 0.380735 16.8726
20 2 3.71504 -0.0136576 13.5845
21 2 3.72289 3.19312 14.2484
22 2 3.13539 1.51581 11.1418
23 2 1.05514 1.27462 13.8782
24 2 0.858832 0.0275574 11.0791
25 2 3.35433 3.02725 8.73003
26 2 5.69635 1.39344 8.58423
27 2 5.51657 2.74609 11.3651
28 2 5.64644 4.31176 8.9776
29 2 6.73518 3.66868 6.34861
30 2 1.86497 0.538449 6.22633
31 2 4.32369 2.23791 6.42297
32 2 2.67644 3.09454 2.11703
33 2 4.58119 0.875749 3.67367
34 2 4.49346 4.11125 3.68617
35 2 1.73242 2.56525 4.26423
ITEM: TIMESTEP
15300
ITEM: NUMBER OF ATOMS
35
ITEM: BOX BOUNDS xy xz yz pp pp pp
0.0000000000000000e+00 7.6685730000000003e+00 2.5561910000000001e+00
0.0000000000000000e+00 4.4274529999999999e+00 0.0000000000000000e+00
0.0000000000000000e+00 3.0699265000000000e+01 0.0000000000000000e+00
ITEM: ATOMS id type x y z
1 1 0.415444 0.648524 22.65
2 1 3.63188 0.670104 23.8947
3 1 5.80351 3.44241 25.5838
4 1 4.38155 2.75326 23.29
5 1 3.61099 2.33992 26.1721
6 1 1.27883 1.26476 26.76
7 1 4.18945 2.35294 17.9403
8 1 2.13028 2.60736 23.8205
9 1 3.54138 4.36929 24.8634
10 1 4.44612 0.563355 27.365
11 1 2.73816 1.68537 21.1811
12 1 5.70742 1.45672 19.88
13 1 2.42689 0.861926 18.5844
14 1 4.35471 3.75096 20.4574
15 1 6.37335 3.66535 21.3598
16 2 6.96423 3.72078 18.7475
17 2 6.1398 2.72766 16.1096
18 2 3.08633 0.984243 15.9726
19 2 0.529146 0.213186 16.7191
20 2 6.33545 4.1222 13.5027
21 2 3.92625 2.92078 14.4456
22 2 3.24994 1.61575 11.4407
23 2 1.32444 1.15107 13.6136
24 2 0.753067 0.0298788 11.338
25 2 3.12282 2.87556 8.8831
26 2 0.942838 1.41694 8.70825
27 2 5.63315 2.7814 11.4109
28 2 3.41716 0.112534 8.93029
29 2 7.35218 3.86126 6.48307
30 2 2.2273 0.635495 6.26438
31 2 4.34097 2.20422 6.19931
32 2 2.25806 3.06354 1.62322
33 2 4.30935 1.03291 3.44932
34 2 4.47758 4.07078 3.46755
35 2 1.60689 2.35773 3.90496
ITEM: TIMESTEP
15400
ITEM: NUMBER OF ATOMS
35
ITEM: BOX BOUNDS xy xz yz pp pp pp
0.0000000000000000e+00 7.6685730000000003e+00 2.5561910000000001e+00
0.0000000000000000e+00 4.4274529999999999e+00 0.0000000000000000e+00
0.0000000000000000e+00 3.0699265000000000e+01 0.0000000000000000e+00
ITEM: ATOMS id type x y z
1 1 0.896954 0.898343 22.5933
2 1 3.1769 1.05645 23.958
3 1 5.60813 3.19961 25.7389
4 1 4.67803 3.34639 23.1122
5 1 3.44618 2.91399 25.7522
6 1 2.14638 1.52727 27.1718
7 1 3.9105 2.62595 17.9635
8 1 1.67485 2.94036 23.5311
9 1 0.481294 0.96372 25.1035
10 1 4.25455 0.243595 26.8879
11 1 3.01412 1.35102 21.53
12 1 4.91465 1.52365 20.2908
13 1 1.83801 0.743089 18.6493
14 1 3.97058 3.53597 20.6264
15 1 6.60385 3.52544 21.2911
16 2 6.77943 3.52119 18.8051
17 2 5.91324 2.57273 16.4632
18 2 2.9892 0.801448 16.3156
19 2 0.413273 -0.285376 16.1574
20 2 6.91361 4.28542 13.9198
21 2 4.14393 2.71721 13.9979
22 2 3.08105 1.43568 11.7234
23 2 1.38844 1.49528 13.8167
24 2 3.02322 4.2445 11.3675
25 2 3.53707 2.80847 8.9839
26 2 5.87159 1.64857 8.6865
27 2 5.85838 2.95948 10.9596
28 2 3.71664 0.0535472 8.76466
29 2 2.45445 3.91015 6.27818
30 2 2.35868 0.866399 6.22721
31 2 5.00277 2.28287 5.94231
32 2 1.93049 3.10113 1.82035
33 2 3.94777 1.02308 3.38132
34 2 4.18587 3.73865 3.23933
35 2 1.69684 2.3056 4.2242
ITEM: TIMESTEP
15500
ITEM: NUMBER OF ATOMS
35
ITEM: BOX BOUNDS xy xz yz pp pp pp
0.0000000000000000e+00 7.6685730000000003e+00 2.5561910000000001e+00
0.0000000000000000e+00 4.4274529999999999e+00 0.0000000000000000e+00
0.0000000000000000e+00 3.0699265000000000e+01 0.0000000000000000e+00
ITEM: ATOMS id type x y z
1 1 0.446785 1.45793 22.4229
2 1 2.98368 0.799227 24.0481
3 1 5.67902 3.3741 26.0914
4 1 4.21343 3.18773 23.0996
5 1 3.43551 3.4394 25.8361
6 1 2.19333 1.46041 26.5951
7 1 3.84592 2.40057 18.8647
8 1 1.93847 3.51391 23.5365
9 1 5.52394 1.22354 24.8044
10 1 4.55708 0.893159 26.9281
11 1 2.82627 1.22598 21.0741
12 1 5.14544 1.39981 20.2018
13 1 1.50786 0.618239 18.4448
14 1 3.6616 3.73532 20.7797
15 1 6.38877 3.42518 21.4313
16 2 6.41949 3.48398 18.7103
17 2 5.56313 2.13186 16.4806
18 2 3.07259 0.970235 16.4881
19 2 3.08771 3.63329 16.1639
20 2 6.70938 4.33754 13.6951
21 2 4.33773 2.85634 13.7167
22 2 3.09148 1.31004 11.4064
23 2 1.84404 1.55746 14.1106
24 2 3.17288 4.43239 11.3053
25 2 3.76184 3.08227 8.72063
26 2 6.41709 1.39615 8.35599
27 2 5.60426 2.96546 11.3954
28 2 3.62918 -0.0168774 8.61256
29 2 2.65966 3.97652 6.13999
30 2 2.77763 0.776998 6.32109
31 2 4.78458 2.57159 6.32153
32 2 1.55285 3.09155 1.93972
33 2 4.04576 0.788677 3.49523
34 2 3.99258 3.77254 3.44321
35 2 1.72298 2.17751 4.26651
ITEM: TIMESTEP
15600
ITEM: NUMBER OF ATOMS
35
ITEM: BOX BOUNDS xy xz yz pp pp pp
0.0000000000000000e+00 7.6685730000000003e+00 2.5561910000000001e+00
0.0000000000000000e+00 4.4274529999999999e+00 0.0000000000000000e+00
0.0000000000000000e+00 3.0699265000000000e+01 0.0000000000000000e+00
ITEM: ATOMS id type x y z
1 1 5.54266 0.802394 22.4831
2 1 2.56733 1.18925 23.5212
3 1 6.55395 4.02996 26.1537
4 1 4.00215 3.26969 23.668
5 1 3.50656 3.48933 25.9125
6 1 2.26246 1.32884 26.463
7 1 3.00125 2.1725 18.2656
8 1 6.64956 3.41113 23.9603
9 1 4.76333 1.47358 24.6758
10 1 4.9488 1.98024 27.0311
11 1 2.24413 1.49786 20.6581
12 1 5.14574 1.30538 19.7282
13 1 1.32631 0.0865068 18.3337
14 1 3.89355 3.30518 21.0416
15 1 6.23034 3.79511 21.1581
16 2 6.16221 3.68224 18.5789
17 2 5.46381 2.05211 16.2193
18 2 3.20634 0.449994 16.396
19 2 3.05975 3.56004 16.2808
20 2 4.33936 0.142942 13.6591
21 2 4.247 3.07909 13.862
22 2 3.06957 1.57376 10.8887
23 2 1.85288 1.34094 14.0244
24 2 0.704755 0.112227 11.1867
25 2 3.8425 3.10858 8.75221
26 2 1.58944 1.59209 8.6473
27 2 5.64663 2.67412 11.312
28 2 6.62013 4.29446 9.08944
29 2 2.74775 4.18848 6.23191
30 2 2.78016 0.647233 5.98076
31 2 5.07844 2.34889 6.47139
32 2 6.20166 2.71593 2.15797
33 2 4.2774 0.967822 3.60352
34 2 4.17757 3.80184 3.75152
35 2 1.30237 2.19029 4.3829
ITEM: TIMESTEP
15700
ITEM: NUMBER OF ATOMS
35
ITEM: BOX BOUNDS xy xz yz pp pp pp
0.0000000000000000e+00 7.6685730000000003e+00 2.5561910000000001e+00
0.0000000000000000e+00 4.4274529999999999e+00 0.0000000000000000e+00
0.0000000000000000e+00 3.0699265000000000e+01 0.0000000000000000e+00
ITEM: ATOMS id type x y z
1 1 5.15963 1.36243 22.1439
2 1 2.86844 1.44537 22.5297
3 1 6.79623 4.43107 27.2213
4 1 3.95036 3.67235 23.3342
5 1 4.06924 4.10227 25.6844
6 1 2.41361 1.81301 26.2312
7 1 2.47122 1.56258 17.7324
8 1 6.02104 3.09985 24.0291
9 1 4.10568 1.30051 24.743
10 1 5.41871 2.47868 26.8756
11 1 1.62972 1.49081 20.3457
12 1 4.45641 1.48897 19.4878
13 1 3.23276 4.33726 18.6339
14 1 3.81787 3.32478 21.1074
15 1 6.13146 3.7322 21.3913
16 2 5.95848 3.48107 18.6953
17 2 5.74948 1.87512 16.4415
18 2 2.87983 0.206782 15.5159
19 2 2.88981 3.55139 15.993
20 2 4.54957 0.207678 13.4962
21 2 4.28598 2.77836 13.7964
22 2 3.2057 1.63359 11.2667
23 2 1.68576 1.78991 13.6069
24 2 3.4073 4.23883 11.3046
25 2 4.42275 3.17095 8.96273
26 2 1.70361 1.59325 8.81611
27 2 5.77639 2.89906 11.303
28 2 4.24358 0.174042 8.982
29 2 2.8892 3.58261 6.62791
30 2 2.77841 0.685146 6.51083
31 2 5.24898 2.15157 6.75902
32 2 5.98117 2.25829 2.13125
33 2 3.9768 0.924307 3.47252
34 2 4.00692 3.85345 3.70472
35 2 6.77369 2.73799 4.63913
ITEM: TIMESTEP
15800
ITEM: NUMBER OF ATOMS
35
ITEM: BOX BOUNDS xy xz yz pp pp pp
0.0000000000000000e+00 7.6685730000000003e+00 2.5561910000000001e+00
0.0000000000000000e+00 4.4274529999999999e+00 0.0000000000000000e+00
0.0000000000000000e+00 3.0699265000000000e+01 0.0000000000000000e+00
ITEM: ATOMS id type x y z
1 1 5.02681 2.04044 22.1945
2 1 2.38007 1.65094 22.4474
3 1 4.88749 0.303117 27.1835
4 1 3.45752 4.14494 23.2085
5 1 4.15475 4.97666 25.5721
6 1 2.85664 2.93847 25.876
7 1 3.15533 0.956966 17.5627
8 1 6.24077 2.6616 24.4475
9 1 4.32475 0.83777 24.26
10 1 5.06725 2.48559 26.3344
11 1 1.62654 1.2183 19.6861
12 1 4.00996 1.5916 19.9842
13 1 3.33871 3.66615 18.3092
14 1 3.13028 3.90581 20.665
15 1 6.02307 4.09846 21.1828
16 2 5.67997 3.16337 18.5525
17 2 4.97656 1.64338 16.4761
18 2 2.50125 0.329933 15.3128
19 2 2.74523 3.27331 16.1027
20 2 4.55961 0.130604 13.6059
21 2 4.44192 2.92662 13.547
22 2 3.37962 1.11343 11.4406
23 2 1.87779 2.00543 13.6748
24 2 3.4373 4.57601 11.38
25 2 4.55988 3.26109 9.23279
26 2 1.98161 1.65046 9.24547
27 2 6.04157 2.91132 11.2464
28 2 4.53807 0.627233 8.94565
29 2 3.08049 3.40297 7.11768
30 2 2.88608 0.510777 6.55695
31 2 5.28515 1.75626 6.03679
32 2 6.03189 1.79686 2.40231
33 2 3.67844 0.987242 3.70195
34 2 3.95252 4.11125 3.82358
35 2 1.77362 2.82142 4.52867
ITEM: TIMESTEP
15900
ITEM: NUMBER OF ATOMS
35
ITEM: BOX BOUNDS xy xz yz pp pp pp
0.0000000000000000e+00 7.6685730000000003e+00 2.5561910000000001e+00
0.0000000000000000e+00 4.4274529999999999e+00 0.0000000000000000e+00
0.0000000000000000e+00 3.0699265000000000e+01 0.0000000000000000e+00
ITEM: ATOMS id type x y z
1 1 4.56883 1.87733 22.3552
2 1 2.3219 1.83917 22.2836
3 1 4.78616 0.720007 26.5113
4 1 3.5692 4.16688 23.2682
5 1 1.9117 1.05713 25.4748
6 1 3.13101 3.31534 25.0296
7 1 2.80991 1.30911 18.1046
8 1 5.9568 3.1534 23.6806
9 1 3.92369 0.834256 24.4345
10 1 5.54233 3.06724 25.9378
11 1 1.55168 1.33914 20.3402
12 1 4.32236 1.54242 19.8347
13 1 2.94762 3.97748 18.3698
14 1 2.65194 3.57657 20.8495
15 1 5.30438 4.04933 21.3148
16 2 5.70892 2.93756 18.2781
17 2 4.96981 1.73001 16.2332
18 2 2.34465 -0.268653 16.1057
19 2 2.23828 2.78257 16.073
20 2 4.76464 0.512266 14.2176
21 2 4.47684 3.28223 13.3432
22 2 3.47784 1.33923 11.4013
23 2 1.89015 1.79526 13.7072
24 2 0.768806 -0.0765209 11.3774
25 2 4.77262 3.54459 9.05897
26 2 2.11569 1.97462 8.74948
27 2 6.32217 2.83974 11.4302
28 2 4.76904 0.627676 8.87185
29 2 3.07308 3.07201 6.85966
30 2 2.75786 0.096893 6.40709
31 2 5.19713 1.30245 5.91949
32 2 5.90097 1.66538 2.66177
33 2 3.75023 1.31849 3.71471
34 2 4.30469 4.01841 4.20833
35 2 1.8896 3.10261 4.70749
ITEM: TIMESTEP
16000
ITEM: NUMBER OF ATOMS
35
ITEM: BOX BOUNDS xy xz yz pp pp pp
0.0000000000000000e+00 7.6685730000000003e+00 2.5561910000000001e+00
0.0000000000000000e+00 4.4274529999999999e+00 0.0000000000000000e+00
0.0000000000000000e+00 3.0699265000000000e+01 0.0000000000000000e+00
ITEM: ATOMS id type x y z
1 1 4.34041 0.962886 21.905
2 1 2.46845 2.5002 23.2933
3 1 4.31729 1.46078 26.6196
4 1 3.59144 4.24532 22.7656
5 1 1.60695 0.996982 25.1689
6 1 3.14383 3.15214 25.4071
7 1 2.59549 1.82027 18.2225
8 1 5.59167 3.72378 23.4634
9 1 4.52714 1.42699 24.182
10 1 6.04457 3.71074 25.881
11 1 1.51775 1.13594 20.4252
12 1 3.78246 1.11674 19.8118
13 1 0.798257 0.113717 18.5381
14 1 2.78329 3.33201 20.4424
15 1 4.96618 3.22042 21.0085
16 2 5.75161 3.28028 18.8178
17 2 4.58447 1.14449 16.5271
18 2 4.65043 4.34503 16.2776
19 2 2.15939 2.79003 16.0065
20 2 4.39041 0.17948 13.6495
21 2 4.64201 3.31871 13.8908
22 2 3.60674 1.43529 11.2491
23 2 2.22513 1.66751 13.6784
24 2 3.481 4.31447 11.0989
25 2 4.92425 3.6171 9.13298
26 2 1.95266 2.05265 8.94582
27 2 6.03038 2.88539 11.297
28 2 4.82434 0.472328 8.68146
29 2 3.32373 2.76913 6.42159
30 2 3.01902 0.0788887 6.77971
31 2 5.62413 1.40673 6.28596
32 2 0.949091 1.39449 2.67283
33 2 3.57109 1.48435 3.73461
34 2 4.33533 3.91719 3.97848
35 2 6.79482 3.36389 4.42948
ITEM: TIMESTEP
16100
ITEM: NUMBER OF ATOMS
35
ITEM: BOX BOUNDS xy xz yz pp pp pp
0.0000000000000000e+00 7.6685730000000003e+00 2.5561910000000001e+00
0.0000000000000000e+00 4.4274529999999999e+00 0.0000000000000000e+00
0.0000000000000000e+00 3.0699265000000000e+01 0.0000000000000000e+00
ITEM: ATOMS id type x y z
1 1 3.59458 0.647188 21.7152
2 1 2.28125 2.19671 23.0207
3 1 4.44427 1.77551 26.7745
4 1 0.756106 0.123207 22.9816
5 1 2.30334 1.36894 25.3894
6 1 3.12572 3.83663 25.4788
7 1 2.55877 2.05289 18.1936
8 1 5.71817 3.816 23.9212
9 1 4.70926 1.73472 24.3953
10 1 5.89947 3.72776 26.3436
11 1 1.52231 0.85788 20.7538
12 1 4.53815 1.47477 19.526
13 1 3.25405 4.37742 18.3763
14 1 2.61163 3.21402 20.7042
15 1 5.39111 2.6111 21.8255
16 2 5.45992 3.46743 18.6228
17 2 4.32966 1.32114 16.5507
18 2 1.80579 0.0891791 16.2633
19 2 1.81855 3.17181 15.7294
20 2 7.28664 4.42913 13.5113
21 2 4.59835 2.64838 14.1082
22 2 3.58351 1.33756 11.0531
23 2 2.15305 1.47253 13.5103
24 2 3.55238 4.35712 11.4595
25 2 4.57342 3.24798 8.7667
26 2 2.24612 2.15547 8.94151
27 2 5.90225 2.79481 11.5668
28 2 4.92823 0.578701 8.82372
29 2 3.51978 2.78166 6.56446
30 2 5.90103 4.36391 6.6234
31 2 1.09988 1.5746 5.86297
32 2 5.74341 1.35716 2.44792
33 2 3.60902 1.47697 3.92129
34 2 4.24537 3.98126 4.14214
35 2 6.81757 3.42346 4.29039
ITEM: TIMESTEP
16200
ITEM: NUMBER OF ATOMS
35
ITEM: BOX BOUNDS xy xz yz pp pp pp
0.0000000000000000e+00 7.6685730000000003e+00 2.5561910000000001e+00
0.0000000000000000e+00 4.4274529999999999e+00 0.0000000000000000e+00
0.0000000000000000e+00 3.0699265000000000e+01 0.0000000000000000e+00
ITEM: ATOMS id type x y z
1 1 3.41248 0.137589 21.6469
2 1 2.31241 1.78231 22.982
3 1 4.70688 1.57837 26.8065
4 1 0.566917 0.0479923 22.8576
5 1 2.21749 2.05767 25.961
6 1 3.27439 4.38685 25.7798
7 1 2.19795 1.88181 18.1736
8 1 5.96566 4.09969 24.5282
9 1 4.30494 2.16228 24.345
10 1 6.16971 3.6485 27.0539
11 1 1.65145 0.563175 20.1725
12 1 4.34699 2.02119 19.8985
13 1 2.64222 4.4369 18.1063
14 1 2.54151 3.02733 20.6978
15 1 5.11734 2.39305 22.1738
16 2 5.44056 3.74109 18.3239
17 2 4.2686 2.0372 16.6808
18 2 1.52099 0.26725 15.8642
19 2 6.52625 3.04636 16.0117
20 2 7.39327 4.22404 13.7687
21 2 4.57582 2.57902 13.9161
22 2 3.4815 1.1645 11.2063
23 2 2.31286 0.904618 13.6467
24 2 3.65599 4.04456 11.1229
25 2 5.08513 3.54722 9.10022
26 2 2.10271 1.97044 8.73047
27 2 6.09064 2.73799 11.5218
28 2 4.9612 0.561733 8.9112
29 2 3.58941 2.90901 6.43554
30 2 6.31495 4.29649 6.59314
31 2 0.670172 1.35487 5.96575
32 2 5.62882 1.49656 2.51117
33 2 3.76169 1.51432 4.19163
34 2 4.41471 4.18635 4.03173
35 2 6.94052 3.30268 3.5999
ITEM: TIMESTEP
16300
ITEM: NUMBER OF ATOMS
35
ITEM: BOX BOUNDS xy xz yz pp pp pp
0.0000000000000000e+00 7.6685730000000003e+00 2.5561910000000001e+00
0.0000000000000000e+00 4.4274529999999999e+00 0.0000000000000000e+00
0.0000000000000000e+00 3.0699265000000000e+01 0.0000000000000000e+00
ITEM: ATOMS id type x y z
1 1 3.32525 0.0495618 22.0546
2 1 1.92257 1.84374 23.3804
3 1 4.32748 2.27761 27.0781
4 1 0.474623 -0.682208 22.8725
5 1 2.08071 2.07555 25.5481
6 1 3.95861 4.21652 25.7736
7 1 2.04806 2.24016 18.6314
8 1 6.4828 4.49409 24.7249
9 1 4.79636 2.14569 24.642
10 1 5.92316 4.43999 27.1278
11 1 1.12018 0.435496 20.6976
12 1 4.22309 1.70122 19.7514
13 1 2.66086 4.74808 18.2769
14 1 1.90976 2.80126 20.6038
15 1 4.39881 1.96237 22.1792
16 2 5.20718 4.02053 18.5039
17 2 3.72353 1.83554 16.4011
18 2 1.18714 0.443464 15.9708
19 2 6.47364 3.34827 15.9771
20 2 7.44446 3.78212 13.615
21 2 4.80207 2.53017 13.8125
22 2 3.78741 1.209 11.2263
23 2 2.58943 0.976983 13.5661
24 2 3.3214 3.91108 11.147
25 2 5.3061 3.49861 9.08341
26 2 2.54028 1.83144 8.66802
27 2 6.32845 2.36434 11.4051
28 2 5.01734 0.686578 8.75965
29 2 3.4934 3.13178 6.68383
30 2 5.92038 4.13128 6.38606
31 2 1.06153 1.59766 6.07577
32 2 5.71149 1.3275 2.31849
33 2 3.87765 1.51929 4.33041
34 2 4.48312 4.13451 3.93136
35 2 7.0835 3.42197 3.51363
ITEM: TIMESTEP
16400
ITEM: NUMBER OF ATOMS
35
ITEM: BOX BOUNDS xy xz yz pp pp pp
0.0000000000000000e+00 7.6685730000000003e+00 2.5561910000000001e+00
0.0000000000000000e+00 4.4274529999999999e+00 0.0000000000000000e+00
0.0000000000000000e+00 3.0699265000000000e+01 0.0000000000000000e+00
ITEM: ATOMS id type x y z
1 1 2.55749 -0.514395 22.33
2 1 1.57272 1.40266 23.1667
3 1 4.44578 2.80597 26.9043
4 1 3.31798 3.37558 23.6509
5 1 2.22241 2.67967 26.086
6 1 3.61031 4.8717 25.51
7 1 1.82186 2.06434 17.9477
8 1 3.58183 0.156373 24.4151
9 1 5.14271 2.55076 24.8354
10 1 3.31924 0.463042 26.5707
11 1 0.691791 0.114927 20.7404
12 1 3.32066 2.06067 20.0402
13 1 4.98074 0.405738 18.3681
14 1 1.62291 2.8773 21.409
15 1 4.58022 1.63157 22.3363
16 2 4.87126 4.03633 18.8021
17 2 3.4755 1.82464 16.0965
18 2 1.03153 0.415664 15.985
19 2 5.99465 3.53638 16.1044
20 2 2.63466 3.82383 13.4731
21 2 5.21247 2.14523 13.8417
22 2 3.76588 0.998356 11.1624
23 2 2.41534 1.02875 13.7136
24 2 3.93456 3.90883 11.0119
25 2 5.2626 3.25468 8.87122
26 2 2.63537 1.80581 8.99126
27 2 6.28177 2.15145 11.2801
28 2 5.42925 0.660203 8.20241
29 2 3.37698 3.22707 6.61914
30 2 5.9471 4.51279 6.46879
31 2 1.2992 1.7082 5.75592
32 2 5.81764 1.30809 2.50457
33 2 4.16166 1.65327 4.36839
34 2 4.61478 4.22029 3.95069
35 2 7.09056 3.11295 3.83216
ITEM: TIMESTEP
16500
ITEM: NUMBER OF ATOMS
35
ITEM: BOX BOUNDS xy xz yz pp pp pp
0.0000000000000000e+00 7.6685730000000003e+00 2.5561910000000001e+00
0.0000000000000000e+00 4.4274529999999999e+00 0.0000000000000000e+00
0.0000000000000000e+00 3.0699265000000000e+01 0.0000000000000000e+00
ITEM: ATOMS id type x y z
1 1 4.48826 3.69352 21.8399
2 1 0.81697 1.12931 23.3989
3 1 4.82559 3.34096 27.2662
4 1 2.6119 3.49969 23.9445
5 1 2.135 3.27404 26.3362
6 1 0.892567 0.768552 26.1441
7 1 1.62933 2.19929 18.2389
8 1 3.31319 0.611885 24.3446
9 1 4.74859 3.09259 24.5554
10 1 3.6021 1.14283 26.4446
11 1 0.53599 0.331401 20.3753
12 1 3.35806 1.68858 19.8676
13 1 4.50943 0.691513 18.005
14 1 1.52275 2.37596 20.9655
15 1 3.99958 1.0905 21.9471
16 2 4.57059 3.64535 18.6711
17 2 3.55138 2.12475 16.3594
18 2 0.62187 0.258731 16.1537
19 2 5.79692 3.54888 16.1884
20 2 2.68425 3.86723 13.4818
21 2 4.96108 2.40249 13.7349
22 2 4.07832 0.596097 11.29
23 2 2.71729 0.565833 13.7829
24 2 4.14741 3.63087 11.0556
25 2 5.52271 3.28058 8.49487
26 2 2.8378 2.00497 8.82601
27 2 6.54319 2.27514 11.3253
28 2 0.515837 0.488783 8.5756
29 2 3.5754 2.94374 6.29655
30 2 3.52721 0.364644 6.63107
31 2 1.01014 1.75356 6.10355
32 2 5.78074 1.33401 2.28668
33 2 4.215 1.40378 4.12592
34 2 4.82223 4.25567 3.99767
35 2 2.32669 3.46325 3.87801
ITEM: TIMESTEP
16600
ITEM: NUMBER OF ATOMS
35
ITEM: BOX BOUNDS xy xz yz pp pp pp
0.0000000000000000e+00 7.6685730000000003e+00 2.5561910000000001e+00
0.0000000000000000e+00 4.4274529999999999e+00 0.0000000000000000e+00
0.0000000000000000e+00 3.0699265000000000e+01 0.0000000000000000e+00
ITEM: ATOMS id type x y z
1 1 3.69026 3.3834 21.8064
2 1 5.58426 1.3274 23.0116
3 1 5.07708 4.07953 26.8001
4 1 6.51939 3.1004 23.7438
5 1 2.12033 3.48922 26.2135
6 1 1.05599 1.32311 26.119
7 1 1.36876 1.93842 18.5301
8 1 2.81691 1.42006 24.6679
9 1 4.38503 3.09408 24.6529
10 1 3.78667 1.87334 26.9898
11 1 0.509871 0.618099 20.2817
12 1 3.19052 1.52027 19.8887
13 1 6.69445 4.33157 18.2138
14 1 6.03565 2.8686 21.0728
15 1 2.86737 0.784428 22.3292
16 2 4.4048 3.35343 18.3426
17 2 3.07754 1.94996 16.5148
18 2 0.816347 0.730836 15.7441
19 2 5.88106 3.47997 16.0387
20 2 2.56499 3.58047 13.7164
21 2 4.97172 2.26705 13.6163
22 2 4.35883 0.606729 11.1731
23 2 2.84287 0.769728 13.8342
24 2 4.17231 3.35416 11.2682
25 2 5.73415 3.0666 8.8662
26 2 3.21878 1.94887 8.80053
27 2 1.82763 1.90103 11.558
28 2 0.732699 0.345957 9.11559
29 2 3.66596 3.48876 6.41287
30 2 3.65187 0.328684 6.32179
31 2 1.18691 1.73723 5.95634
32 2 1.33654 1.54311 2.25186
33 2 4.19495 1.71277 3.79361
34 2 4.7376 4.23472 3.9648
35 2 2.02289 3.17831 3.74148
ITEM: TIMESTEP
16700
ITEM: NUMBER OF ATOMS
35
ITEM: BOX BOUNDS xy xz yz pp pp pp
0.0000000000000000e+00 7.6685730000000003e+00 2.5561910000000001e+00
0.0000000000000000e+00 4.4274529999999999e+00 0.0000000000000000e+00
0.0000000000000000e+00 3.0699265000000000e+01 0.0000000000000000e+00
ITEM: ATOMS id type x y z
1 1 2.88974 2.6662 22.3812
2 1 4.63871 1.06025 23.2479
3 1 2.39287 -0.0618097 26.6055
4 1 6.31636 3.44296 23.6985
5 1 2.32965 4.33976 25.7197
6 1 5.54757 2.27845 25.3767
7 1 1.22205 1.57708 18.2344
8 1 2.80355 1.36237 24.6413
9 1 4.08092 3.5315 24.1786
10 1 3.66127 2.12609 27.1102
11 1 0.569668 0.928625 20.7462
12 1 3.13422 1.51199 20.1621
13 1 4.06241 -0.152761 18.1783
14 1 5.97318 3.74884 20.6683
15 1 1.98517 0.456531 22.5843
16 2 4.153 3.33079 18.3374
17 2 3.20437 1.80994 16.5239
18 2 0.622262 0.609871 15.9359
19 2 5.61931 3.48458 15.8563
20 2 2.59048 3.47286 13.9055
21 2 5.23555 1.95675 13.621
22 2 4.28969 0.364354 11.2496
23 2 2.69204 0.765518 13.8776
24 2 4.5528 3.30925 11.5172
25 2 6.10324 3.18002 9.11281
26 2 3.40888 1.53044 8.73066
27 2 1.86608 1.71719 11.3504
28 2 1.02561 0.342919 8.70822
29 2 3.75047 3.45113 6.5767
30 2 3.87338 0.390773 6.38347
31 2 1.28204 1.93199 5.78481
32 2 1.67028 1.37233 2.0493
33 2 4.42547 1.6819 3.79189
34 2 4.41442 4.4151 4.07863
35 2 7.17161 3.57603 3.91718
ITEM: TIMESTEP
16800
ITEM: NUMBER OF ATOMS
35
ITEM: BOX BOUNDS xy xz yz pp pp pp
0.0000000000000000e+00 7.6685730000000003e+00 2.5561910000000001e+00
0.0000000000000000e+00 4.4274529999999999e+00 0.0000000000000000e+00
0.0000000000000000e+00 3.0699265000000000e+01 0.0000000000000000e+00
ITEM: ATOMS id type x y z
1 1 3.13829 2.57729 21.6577
2 1 4.97549 1.5547 23.3344
3 1 4.51482 4.41373 26.4234
4 1 6.22181 3.6343 23.0235
5 1 4.22477 0.289326 26.048
6 1 5.75176 2.25553 26.0513
7 1 1.22899 2.02973 18.0349
8 1 2.44166 1.43681 24.5382
9 1 3.31598 3.9051 24.4645
10 1 2.93774 2.6103 26.5657
11 1 5.19351 1.14195 20.0193
12 1 2.87675 1.57937 19.7393
13 1 6.73629 4.69447 18.5323
14 1 5.90839 3.40175 20.7592
15 1 1.53948 0.254413 21.8586
16 2 4.15367 3.64336 18.7115
17 2 3.21269 1.82655 16.4194
18 2 0.293024 0.104421 16.5412
19 2 5.3373 3.34001 16.1829
20 2 2.81328 3.36494 13.7724
21 2 5.29019 1.72515 13.6853
22 2 4.66546 0.085345 11.3359
23 2 2.78261 0.403484 13.7679
24 2 4.41077 3.4127 11.2523
25 2 6.339 3.23147 8.5786
26 2 3.7045 1.74437 8.99158
27 2 1.78751 1.79922 11.0367
28 2 1.09233 0.336929 8.72925
29 2 3.96366 2.91513 6.4662
30 2 3.9287 0.305297 6.38051
31 2 1.32995 2.02783 6.22843
32 2 1.62492 1.39526 2.30607
33 2 4.41238 2.02789 3.69832
34 2 2.23139 0.244248 4.52402
35 2 2.09697 3.44237 3.57198
ITEM: TIMESTEP
16900
ITEM: NUMBER OF ATOMS
35
ITEM: BOX BOUNDS xy xz yz pp pp pp
0.0000000000000000e+00 7.6685730000000003e+00 2.5561910000000001e+00
0.0000000000000000e+00 4.4274529999999999e+00 0.0000000000000000e+00
0.0000000000000000e+00 3.0699265000000000e+01 0.0000000000000000e+00
ITEM: ATOMS id type x y z
1 1 3.41894 2.49801 21.8725
2 1 4.98556 2.13406 23.6635
3 1 1.1953 0.479924 26.4649
4 1 6.31945 4.24232 23.2114
5 1 3.82245 0.480031 25.8393
6 1 5.0406 2.57937 26.1052
7 1 5.66373 1.89162 18.2817
8 1 2.15935 1.70093 23.638
9 1 3.28096 3.7288 24.0824
10 1 2.70366 2.61144 26.1205
11 1 4.59687 1.26962 20.6125
12 1 2.56302 1.88062 19.8126
13 1 3.84202 -0.0163567 18.2497
14 1 6.47889 3.71408 20.669
15 1 1.79708 0.338792 21.678
16 2 3.83776 3.72598 18.9323
17 2 2.72215 1.54016 16.3608
18 2 2.96771 4.45088 16.0726
19 2 5.39114 3.29423 15.9559
20 2 2.93336 2.91936 13.8673
21 2 5.50834 1.69773 13.9307
22 2 4.46079 0.312388 11.3289
23 2 2.80678 0.0723094 13.6869
24 2 4.72043 3.33883 11.2481
25 2 6.38904 3.33448 8.82029
26 2 4.03905 1.90179 9.0601
27 2 1.82949 1.8023 11.1503
28 2 1.33861 0.242761 8.56857
29 2 3.82533 3.03796 6.33769
30 2 4.48474 0.267529 6.35377
31 2 1.33165 1.75036 6.41645
32 2 1.46607 0.818594 2.37242
33 2 4.57592 2.09734 3.71889
34 2 2.32844 0.443286 4.55288
35 2 7.28402 3.8388 3.70852
ITEM: TIMESTEP
17000
ITEM: NUMBER OF ATOMS
35
ITEM: BOX BOUNDS xy xz yz pp pp pp
0.0000000000000000e+00 7.6685730000000003e+00 2.5561910000000001e+00
0.0000000000000000e+00 4.4274529999999999e+00 0.0000000000000000e+00
0.0000000000000000e+00 3.0699265000000000e+01 0.0000000000000000e+00
ITEM: ATOMS id type x y z
1 1 2.99826 2.89314 22.068
2 1 4.71074 1.93918 23.5938
3 1 0.412864 1.02434 26.1103
4 1 6.29933 4.39751 22.7266
5 1 3.5311 0.508697 25.2042
6 1 4.56485 3.30275 26.1416
7 1 5.06053 1.7317 18.1924
8 1 2.25049 2.13599 23.8721
9 1 3.80502 4.42326 23.8453
10 1 2.05063 2.9172 26.4439
11 1 5.01551 1.66906 20.985
12 1 2.20821 1.29133 19.1587
13 1 6.16235 3.9722 18.3392
14 1 6.34655 3.44922 20.7217
15 1 1.83089 0.293737 21.309
16 2 3.59067 3.80159 18.5393
17 2 2.52766 1.58287 16.6895
18 2 0.147944 0.0342532 15.9913
19 2 5.40309 2.94772 16.1519
20 2 2.99289 2.68539 13.6732
21 2 5.63443 1.35823 13.567
22 2 4.59261 0.656043 11.391
23 2 3.08059 0.000816201 13.7506
24 2 4.49326 3.31719 11.4811
25 2 6.63721 3.35257 9.24911
26 2 4.11111 1.63902 8.59206
27 2 2.05486 1.73793 11.3518
28 2 1.72376 0.318852 8.88554
29 2 4.11936 3.10872 6.34478
30 2 4.07984 0.30332 6.48368
31 2 1.52171 2.28355 6.60838
32 2 1.66066 0.335775 2.17778
33 2 4.78425 2.31254 3.6685
34 2 2.37141 0.58337 4.59287
35 2 2.16055 3.40152 3.81214
ITEM: TIMESTEP
17100
ITEM: NUMBER OF ATOMS
35
ITEM: BOX BOUNDS xy xz yz pp pp pp
0.0000000000000000e+00 7.6685730000000003e+00 2.5561910000000001e+00
0.0000000000000000e+00 4.4274529999999999e+00 0.0000000000000000e+00
0.0000000000000000e+00 3.0699265000000000e+01 0.0000000000000000e+00
ITEM: ATOMS id type x y z
1 1 3.14383 2.87334 21.1865
2 1 5.1466 2.05317 23.5864
3 1 5.41252 1.53334 25.9619
4 1 6.24063 4.15613 22.9604
5 1 2.89013 0.69226 25.0583
6 1 3.84718 3.62916 25.9812
7 1 4.53841 1.15827 18.6705
8 1 1.95221 2.98219 24.6879
9 1 3.79301 4.39212 23.5308
10 1 1.47479 3.73023 26.6675
11 1 4.83723 1.25328 20.876
12 1 2.13692 1.69336 19.3001
13 1 5.86663 3.58543 17.6638
14 1 6.05852 3.80359 20.1572
15 1 1.75573 0.700843 21.2004
16 2 3.58713 3.62121 18.5151
17 2 2.57448 1.50936 16.4833
18 2 2.52602 4.35296 16.1198
19 2 4.88284 2.57698 15.8005
20 2 3.19025 2.90845 13.9584
21 2 5.89456 1.22378 13.683
22 2 4.55583 0.416923 11.079
23 2 5.86275 4.2649 14.0764
24 2 4.3358 3.45471 11.2849
25 2 6.99621 3.18608 9.05045
26 2 4.33659 2.04905 9.02388
27 2 2.16757 1.76645 11.4347
28 2 1.77322 0.34586 8.97765
29 2 4.0579 3.59101 6.4565
30 2 4.29379 0.630175 6.43043
31 2 1.61559 1.92179 6.82424
32 2 2.05414 -0.0790042 2.30079
33 2 4.86161 1.83298 3.67982
34 2 2.14273 0.881938 4.5994
35 2 2.23794 3.35723 3.65292
ITEM: TIMESTEP
17200
ITEM: NUMBER OF ATOMS
35
ITEM: BOX BOUNDS xy xz yz pp pp pp
0.0000000000000000e+00 7.6685730000000003e+00 2.5561910000000001e+00
0.0000000000000000e+00 4.4274529999999999e+00 0.0000000000000000e+00
0.0000000000000000e+00 3.0699265000000000e+01 0.0000000000000000e+00
ITEM: ATOMS id type x y z
1 1 3.06428 3.40934 21.4115
2 1 4.68038 2.24912 23.2219
3 1 5.15076 1.45717 25.8301
4 1 6.52096 4.12198 22.7099
5 1 3.09225 1.227 24.6846
6 1 3.99601 3.67404 25.9061
7 1 4.20188 1.25499 18.2158
8 1 6.58525 3.36701 24.815
9 1 3.58806 4.20251 23.7449
10 1 3.00231 0.387771 27.0708
11 1 4.88332 1.26822 21.0182
12 1 1.49973 1.60792 18.6643
13 1 5.88943 3.45355 17.5131
14 1 5.7956 3.41025 20.4185
15 1 2.36501 1.32731 21.7689
16 2 3.39451 3.53977 18.7537
17 2 2.17024 1.05322 16.2921
18 2 2.78482 4.03293 16.2744
19 2 4.65008 2.39572 15.9282
20 2 3.01641 2.86098 13.436
21 2 0.921756 1.19619 13.8133
22 2 4.5072 0.240651 11.4548
23 2 5.90884 4.46321 13.844
24 2 4.86593 3.36191 11.6757
25 2 7.06776 3.6707 8.79278
26 2 4.65831 2.03827 9.07898
27 2 1.8779 1.95931 11.3777
28 2 2.01083 0.519851 8.95403
29 2 4.01507 3.24059 6.48046
30 2 4.32824 0.673107 6.47141
31 2 1.59157 2.13051 6.55358
32 2 5.12114 3.92648 2.40229
33 2 4.66999 1.78084 3.8747
34 2 2.29494 0.714952 4.51646
35 2 2.39483 3.52493 3.63025
ITEM: TIMESTEP
17300
ITEM: NUMBER OF ATOMS
35
ITEM: BOX BOUNDS xy xz yz pp pp pp
0.0000000000000000e+00 7.6685730000000003e+00 2.5561910000000001e+00
0.0000000000000000e+00 4.4274529999999999e+00 0.0000000000000000e+00
0.0000000000000000e+00 3.0699265000000000e+01 0.0000000000000000e+00
ITEM: ATOMS id type x y z
1 1 4.43673 3.99 21.259
2 1 4.766 2.14413 22.845
3 1 5.14064 0.929965 25.8286
4 1 6.24731 4.15564 23.1158
5 1 2.65131 1.98096 24.2331
6 1 3.76701 3.26888 26.1801
7 1 4.2226 1.27046 18.2178
8 1 6.07607 3.50158 25.6704
9 1 0.831728 0.42586 23.7158
10 1 2.502 1.71986 26.4047
11 1 4.46797 1.51621 20.4914
12 1 1.48443 1.32057 19.0899
13 1 5.16794 3.53284 18.5843
14 1 6.37229 3.5094 20.4852
15 1 1.98618 1.86041 21.8323
16 2 2.87817 3.39551 18.7617
17 2 2.24205 0.982023 16.3592
18 2 2.07143 3.51841 16.1774
19 2 4.90399 2.18363 15.9773
20 2 2.97424 2.6714 13.5234
21 2 5.77894 1.2409 13.7909
22 2 4.85183 0.711115 11.3889
23 2 5.83649 4.38884 14.1233
24 2 4.89044 3.40103 11.5314
25 2 7.26019 3.73091 9.12925
26 2 4.69953 2.19411 9.04421
27 2 2.16438 1.90805 10.8729
28 2 2.21789 0.52805 8.65669
29 2 4.14132 3.29887 6.55596
30 2 4.21842 0.457079 6.47759
31 2 1.45502 2.25188 6.18692
32 2 5.68756 3.65622 2.10984
33 2 4.86747 2.05748 4.16966
34 2 2.32565 0.364397 4.50358
35 2 2.47324 3.28289 3.92776
ITEM: TIMESTEP
17400
ITEM: NUMBER OF ATOMS
35
ITEM: BOX BOUNDS xy xz yz pp pp pp
0.0000000000000000e+00 7.6685730000000003e+00 2.5561910000000001e+00
0.0000000000000000e+00 4.4274529999999999e+00 0.0000000000000000e+00
0.0000000000000000e+00 3.0699265000000000e+01 0.0000000000000000e+00
ITEM: ATOMS id type x y z
1 1 4.09583 4.16438 21.1479
2 1 4.73783 2.27923 23.2398
3 1 4.23848 1.53833 25.4616
4 1 3.35784 0.268797 23.6777
5 1 2.31792 2.83752 24.2794
6 1 3.63101 3.53104 25.7964
7 1 4.00276 1.01182 18.5049
8 1 6.09838 3.65193 25.9161
9 1 1.28082 0.296071 23.6486
10 1 1.86752 1.2625 25.9875
11 1 3.84933 2.1768 20.4026
12 1 1.55635 0.964279 19.3482
13 1 5.40619 3.03022 18.66
14 1 6.94751 4.55795 21.1923
15 1 2.09397 2.03083 22.0711
16 2 2.75922 3.10242 18.3942
17 2 1.84372 0.401493 16.7998
18 2 7.03031 3.72518 16.0912
19 2 4.58104 2.21499 16.1456
20 2 3.14178 2.66668 13.9281
21 2 0.680541 1.22119 13.719
22 2 4.91024 0.638233 11.2667
23 2 5.49651 4.20107 13.8098
24 2 4.89872 3.84565 11.2442
25 2 2.41274 3.49827 8.9667
26 2 5.00325 2.26 8.92329
27 2 2.65067 1.98069 11.4487
28 2 2.44971 0.7829 8.40996
29 2 3.63419 3.31301 6.48153
30 2 4.3379 0.704237 6.50574
31 2 1.54588 1.93087 6.33848
32 2 6.07084 3.65587 2.16873
33 2 5.01883 1.57538 3.87404
34 2 2.4708 0.119248 4.19334
35 2 2.62023 3.36617 4.07393
ITEM: TIMESTEP
17500
ITEM: NUMBER OF ATOMS
35
ITEM: BOX BOUNDS xy xz yz pp pp pp
0.0000000000000000e+00 7.6685730000000003e+00 2.5561910000000001e+00
0.0000000000000000e+00 4.4274529999999999e+00 0.0000000000000000e+00
0.0000000000000000e+00 3.0699265000000000e+01 0.0000000000000000e+00
ITEM: ATOMS id type x y z
1 1 4.60692 4.59305 21.6877
2 1 4.70541 2.82583 23.2977
3 1 4.54098 1.82172 25.6103
4 1 3.1531 0.635631 23.7929
5 1 2.06572 2.72647 24.0159
6 1 2.75499 4.04794 26.3838
7 1 3.89246 0.370868 18.6003
8 1 5.60184 3.60424 26.3375
9 1 0.638214 0.368596 23.8941
10 1 2.02817 1.42033 25.98
11 1 3.78646 2.23183 20.6204
12 1 1.22065 0.738977 19.5738
13 1 5.31925 2.67694 18.6312
14 1 4.74275 0.158868 21.4281
15 1 1.45573 2.42408 21.4035
16 2 2.96868 2.89658 18.2797
17 2 1.56237 0.613495 16.6346
18 2 6.73734 3.75248 15.8404
19 2 4.22757 1.89255 16.3995
20 2 3.42314 2.86673 13.9484
21 2 5.66306 1.41322 13.8293
22 2 5.10953 0.543818 11.3134
23 2 5.68884 4.2812 13.5379
24 2 4.92303 3.42952 11.0609
25 2 2.57166 3.67756 8.75639
26 2 5.40069 1.93959 8.9349
27 2 2.35309 2.39872 11.5876
28 2 2.78147 0.863586 9.32476
29 2 4.20345 3.37379 6.46501
30 2 3.91618 0.495663 6.47063
31 2 1.16089 2.12062 6.02718
32 2 6.2271 3.55911 2.07778
33 2 5.11497 1.43217 3.38777
34 2 2.69963 0.22103 4.34139
35 2 2.78418 2.91549 3.8902
ITEM: TIMESTEP
17600
ITEM: NUMBER OF ATOMS
35
ITEM: BOX BOUNDS xy xz yz pp pp pp
0.0000000000000000e+00 7.6685730000000003e+00 2.5561910000000001e+00
0.0000000000000000e+00 4.4274529999999999e+00 0.0000000000000000e+00
0.0000000000000000e+00 3.0699265000000000e+01 0.0000000000000000e+00
ITEM: ATOMS id type x y z
1 1 2.81266 0.689799 21.746
2 1 4.28998 2.45936 23.4632
3 1 4.40877 1.67859 26.0631
4 1 3.04229 0.279285 24.1681
5 1 1.61218 2.94267 23.785
6 1 2.72474 3.92541 26.2956
7 1 3.84554 0.600919 18.9877
8 1 4.98901 4.07176 26.3055
9 1 0.69619 0.658126 24.0605
10 1 1.78438 2.00215 26.3939
11 1 3.5629 2.61117 20.8589
12 1 1.6184 0.303416 18.9529
13 1 5.17064 2.53718 18.4344
14 1 7.83662 4.52814 21.455
15 1 6.07997 2.89819 20.7718
16 2 2.54716 2.90516 18.4064
17 2 1.69629 0.677056 16.3366
18 2 6.25813 3.28902 16.0929
19 2 4.12468 1.71504 16.2137
20 2 3.43372 3.18054 13.9215
21 2 5.89772 1.58158 14.0435
22 2 5.10137 0.524957 11.4772
23 2 3.32408 0.438346 13.376
24 2 4.6858 3.20169 11.2057
25 2 2.67386 3.53839 8.87493
26 2 5.6307 2.05936 8.45871
27 2 2.13518 2.09206 11.5323
28 2 3.06979 0.751433 9.38662
29 2 4.11027 3.66403 6.8304
30 2 4.02101 0.605652 6.60474
31 2 1.49867 1.85647 5.95452
32 2 6.17038 3.51211 1.96707
33 2 5.31551 1.33904 3.38306
34 2 2.5868 -0.00773317 4.02047
35 2 3.08369 2.79419 3.85116
ITEM: TIMESTEP
17700
ITEM: NUMBER OF ATOMS
35
ITEM: BOX BOUNDS xy xz yz pp pp pp
0.0000000000000000e+00 7.6685730000000003e+00 2.5561910000000001e+00
0.0000000000000000e+00 4.4274529999999999e+00 0.0000000000000000e+00
0.0000000000000000e+00 3.0699265000000000e+01 0.0000000000000000e+00
ITEM: ATOMS id type x y z
1 1 2.43802 0.0845863 21.8953
2 1 3.98792 2.94152 23.2535
3 1 3.40022 2.09211 26.0378
4 1 3.30641 0.562302 24.3449
5 1 1.68518 2.51727 23.2177
6 1 2.52162 3.97799 25.9537
7 1 4.34019 0.626678 19.6505
8 1 5.46888 4.11681 26.5172
9 1 0.484436 0.501647 23.8825
10 1 0.936105 1.80874 26.0004
11 1 3.95125 3.00235 20.6304
12 1 1.69051 0.612928 19.0956
13 1 5.06636 2.73443 18.3079
14 1 5.16026 1.54163 21.8995
15 1 6.63946 2.86626 20.7841
16 2 2.35848 2.85272 18.2843
17 2 1.25935 0.0385202 16.4646
18 2 6.41444 3.32798 16.1607
19 2 3.66911 1.60255 16.0486
20 2 3.40056 3.61521 14.0665
21 2 6.0375 2.02822 13.8398
22 2 4.90874 0.377657 11.3329
23 2 3.31669 0.521715 13.5887
24 2 4.77932 3.15986 11.364
25 2 2.9101 3.26093 9.24914
26 2 5.61082 2.11276 8.46086
27 2 2.06704 1.98218 11.4549
28 2 2.984 0.508491 8.96524
29 2 4.02278 3.79349 6.58374
30 2 4.32952 0.695185 6.28792
31 2 1.89373 2.12516 6.06038
32 2 6.21297 3.26229 2.01457
33 2 5.50185 1.08057 3.63152
34 2 5.56802 4.12181 4.32715
35 2 2.97142 2.89591 3.84702
ITEM: TIMESTEP
17800
ITEM: NUMBER OF ATOMS
35
ITEM: BOX BOUNDS xy xz yz pp pp pp
0.0000000000000000e+00 7.6685730000000003e+00 2.5561910000000001e+00
0.0000000000000000e+00 4.4274529999999999e+00 0.0000000000000000e+00
0.0000000000000000e+00 3.0699265000000000e+01 0.0000000000000000e+00
ITEM: ATOMS id type x y z
1 1 2.50019 1.00885 21.6546
2 1 4.31247 2.58923 24.0941
3 1 3.3614 1.88988 25.9642
4 1 2.84626 0.462879 24.1173
5 1 1.77352 2.93094 23.4084
6 1 7.13406 4.39783 25.9573
7 1 4.29772 0.662209 19.1305
8 1 4.29389 4.15451 26.4297
9 1 0.556038 0.225393 23.5425
10 1 6.06485 2.21383 25.4152
11 1 4.18269 3.15208 20.7585
12 1 1.87346 0.772267 19.3298
13 1 5.32407 2.68044 18.0719
14 1 4.83017 1.1182 21.6875
15 1 1.43752 2.89423 20.9852
16 2 2.67091 2.71657 18.4853
17 2 0.799714 0.442295 16.8389
18 2 6.08805 3.27127 15.9315
19 2 3.33981 1.6186 16.2128
20 2 3.38339 3.90491 13.7612
21 2 5.8335 2.11295 13.6449
22 2 4.54029 0.508112 11.1298
23 2 3.3997 0.60347 13.7192
24 2 4.9678 3.34446 11.4316
25 2 3.19668 3.28145 8.77375
26 2 5.43325 1.69154 8.97554
27 2 2.28869 1.51749 11.2424
28 2 2.82805 0.308707 8.5052
29 2 4.3808 3.7323 6.34645
30 2 4.63899 1.06947 6.4172
31 2 1.83059 2.43756 6.68544
32 2 6.03491 2.9091 2.11662
33 2 5.73491 1.07173 3.95983
34 2 5.89513 3.93036 4.4907
35 2 3.42322 2.48154 3.68885
ITEM: TIMESTEP
17900
ITEM: NUMBER OF ATOMS
35
ITEM: BOX BOUNDS xy xz yz pp pp pp
0.0000000000000000e+00 7.6685730000000003e+00 2.5561910000000001e+00
0.0000000000000000e+00 4.4274529999999999e+00 0.0000000000000000e+00
0.0000000000000000e+00 3.0699265000000000e+01 0.0000000000000000e+00
ITEM: ATOMS id type x y z
1 1 2.46433 1.23489 21.4915
2 1 4.41861 2.32608 23.3915
3 1 3.44911 2.06103 26.7585
4 1 2.9273 0.562462 23.7099
5 1 6.63018 2.69923 23.4912
6 1 4.23485 -0.000259121 25.655
7 1 3.70088 0.583844 18.315
8 1 4.24317 4.11868 25.6573
9 1 0.459468 0.358244 23.6119
10 1 5.63897 2.04237 26.1171
11 1 3.49826 3.1906 21.634
12 1 1.4075 0.60785 19.2291
13 1 5.37268 2.86425 18.9536
14 1 5.07619 0.994928 20.9656
15 1 6.1421 3.5941 20.7914
16 2 2.87507 2.72665 18.875
17 2 0.802786 0.88806 16.5172
18 2 5.7068 3.56692 15.9232
19 2 3.18457 2.06044 16.2335
20 2 3.3618 3.48359 13.6828
21 2 5.87929 1.95702 13.5346
22 2 7.33949 4.26637 11.3412
23 2 3.29576 0.992293 13.6011
24 2 4.52931 3.2814 11.1718
25 2 3.14031 3.21807 8.98083
26 2 5.65502 1.61696 9.17942
27 2 2.24519 1.84436 11.1048
28 2 3.14486 0.186379 8.61883
29 2 4.15291 3.9446 6.23621
30 2 4.55085 1.20939 6.67897
31 2 1.87383 2.48476 6.61095
32 2 5.89864 2.58097 2.13074
33 2 1.23644 0.869527 4.2128
34 2 6.47153 3.86159 4.22378
35 2 3.78869 2.16185 3.77131
ITEM: TIMESTEP
18000
ITEM: NUMBER OF ATOMS
35
ITEM: BOX BOUNDS xy xz yz pp pp pp
0.0000000000000000e+00 7.6685730000000003e+00 2.5561910000000001e+00
0.0000000000000000e+00 4.4274529999999999e+00 0.0000000000000000e+00
0.0000000000000000e+00 3.0699265000000000e+01 0.0000000000000000e+00
ITEM: ATOMS id type x y z
1 1 1.94322 1.31502 20.6792
2 1 4.20018 2.59019 23.7026
3 1 2.98322 2.4036 26.7724
4 1 2.83246 0.409829 23.159
5 1 1.98365 2.35254 24.0498
6 1 6.95211 3.86458 25.8589
7 1 3.97526 0.388115 18.1825
8 1 4.57753 4.27388 25.3768
9 1 0.239618 0.510775 23.5083
10 1 5.53712 1.61661 25.5897
11 1 3.24829 3.90151 21.2472
12 1 1.54336 0.283412 18.3706
13 1 4.92797 2.51589 17.8705
14 1 4.42983 1.75722 20.7453
15 1 6.0005 3.52178 21.4469
16 2 2.47864 3.06785 19.0877
17 2 0.712244 0.774169 16.1134
18 2 5.7006 3.92672 15.9708
19 2 3.14891 2.60484 16.3738
20 2 3.26121 3.71639 13.9398
21 2 5.92102 2.28058 13.8119
22 2 4.53932 0.118719 11.6256
23 2 3.14857 0.504315 13.7675
24 2 4.81714 2.93593 11.3715
25 2 3.14142 3.17541 8.74135
26 2 5.81429 1.69954 8.82285
27 2 2.21281 1.32869 11.3095
28 2 5.78773 4.42393 9.11971
29 2 4.31882 4.06862 6.65403
30 2 4.17548 0.983568 6.39027
31 2 1.82557 2.38715 6.36328
32 2 5.8087 2.20015 2.28557
33 2 1.91525 0.712264 3.9221
34 2 7.0065 3.94048 4.09794
35 2 4.00754 2.3381 3.9887
ITEM: TIMESTEP
18100
ITEM: NUMBER OF ATOMS
35
ITEM: BOX BOUNDS xy xz yz pp pp pp
0.0000000000000000e+00 7.6685730000000003e+00 2.5561910000000001e+00
0.0000000000000000e+00 4.4274529999999999e+00 0.0000000000000000e+00
0.0000000000000000e+00 3.0699265000000000e+01 0.0000000000000000e+00
ITEM: ATOMS id type x y z
1 1 1.4157 1.16178 20.4722
2 1 4.42936 2.7395 23.4104
3 1 3.05092 1.79162 25.8447
4 1 3.00935 0.424816 23.2314
5 1 1.74564 2.52924 23.9048
6 1 6.79739 4.26084 25.3746
7 1 3.79323 1.08088 18.4599
8 1 1.48764 -0.0747499 25.6338
9 1 0.30094 0.464465 23.4966
10 1 5.39694 2.22836 25.9289
11 1 3.277 3.49842 21.4767
12 1 1.61286 0.290618 18.3295
13 1 5.31402 2.41808 18.4214
14 1 4.01899 1.46855 20.8463
15 1 5.92014 3.33092 21.2843
16 2 2.38524 3.38954 18.9555
17 2 5.49899 0.887821 16.087
18 2 5.90957 4.02372 16.3323
19 2 2.76539 2.28472 16.5039
20 2 3.19649 3.77604 13.58
21 2 5.773 2.37748 13.9251
22 2 4.90087 -0.0711668 11.1538
23 2 3.21759 1.0682 13.8888
24 2 4.6589 2.69448 11.5533
25 2 3.08516 2.95244 8.93607
26 2 5.63816 1.44484 8.62719
27 2 2.01775 1.31747 11.5018
28 2 3.24571 0.185857 9.09204
29 2 4.53012 3.83076 6.5818
30 2 4.34266 0.795309 6.49368
31 2 1.58669 2.43864 6.17516
32 2 5.99011 2.15143 2.34225
33 2 2.19695 0.620096 3.90385
34 2 7.29353 4.07222 3.77805
35 2 4.50335 2.40213 4.50188
ITEM: TIMESTEP
18200
ITEM: NUMBER OF ATOMS
35
ITEM: BOX BOUNDS xy xz yz pp pp pp
0.0000000000000000e+00 7.6685730000000003e+00 2.5561910000000001e+00
0.0000000000000000e+00 4.4274529999999999e+00 0.0000000000000000e+00
0.0000000000000000e+00 3.0699265000000000e+01 0.0000000000000000e+00
ITEM: ATOMS id type x y z
1 1 1.58299 0.941253 20.8795
2 1 4.38072 2.64928 23.796
3 1 2.29094 2.11376 25.0063
4 1 2.97998 0.498727 23.2857
5 1 1.3012 2.92764 22.9643
6 1 3.98404 0.472211 25.4135
7 1 3.82246 1.18946 19.2393
8 1 3.89843 4.08957 25.5838
9 1 0.730096 0.390416 23.1896
10 1 5.49213 2.3955 26.0408
11 1 3.11211 2.8734 21.4558
12 1 1.62767 0.864433 18.2562
13 1 5.28256 2.76697 18.7741
14 1 4.33342 0.821398 21.4279
15 1 5.13216 3.29351 20.9468
16 2 2.54863 3.43347 19.2647
17 2 5.32521 0.910992 16.1546
18 2 5.3668 3.65307 16.2216
19 2 3.00907 2.41583 16.25
20 2 3.16543 4.08029 13.9235
21 2 5.83503 2.71672 13.7878
22 2 7.02718 4.06386 11.1284
23 2 3.42458 1.1008 13.8812
24 2 4.55494 2.75485 11.1192
25 2 3.11863 2.72644 8.75431
26 2 5.76232 1.58255 9.13645
27 2 2.12879 1.4341 11.4521
28 2 2.82687 -0.00407575 8.87965
29 2 4.12991 3.855 6.64118
30 2 4.41336 0.56583 6.70547
31 2 1.99485 2.38573 5.97962
32 2 6.08423 2.4113 2.37526
33 2 2.58782 0.737432 4.09633
34 2 2.68985 3.87519 3.70424
35 2 4.75519 2.13337 4.407
ITEM: TIMESTEP
18300
ITEM: NUMBER OF ATOMS
35
ITEM: BOX BOUNDS xy xz yz pp pp pp
0.0000000000000000e+00 7.6685730000000003e+00 2.5561910000000001e+00
0.0000000000000000e+00 4.4274529999999999e+00 0.0000000000000000e+00
0.0000000000000000e+00 3.0699265000000000e+01 0.0000000000000000e+00
ITEM: ATOMS id type x y z
1 1 1.63233 0.981887 20.8813
2 1 4.3278 2.49951 24.1407
3 1 1.9801 2.70056 25.1424
4 1 2.53664 0.617603 23.2075
5 1 6.14424 2.64025 22.8029
6 1 3.61897 0.214034 25.3989
7 1 4.24722 1.29339 19.0369
8 1 1.45816 0.275136 25.7236
9 1 0.178436 0.224024 23.7959
10 1 5.06013 2.40169 26.405
11 1 3.63165 2.79945 21.8348
12 1 1.54617 0.921519 18.3028
13 1 5.20028 3.29302 18.4157
14 1 4.68355 0.0944824 21.3482
15 1 5.53005 3.26322 20.476
16 2 2.66163 3.48642 18.8897
17 2 4.92579 0.858511 16.357
18 2 5.44806 3.82218 15.9438
19 2 2.65186 2.64548 16.542
20 2 3.55104 4.16665 13.7394
21 2 5.95443 2.72066 13.5718
22 2 6.84815 4.36191 11.3564
23 2 3.43628 1.15444 13.8342
24 2 4.23458 2.86861 11.3549
25 2 2.93813 2.74274 8.63781
26 2 5.66993 1.41918 8.97597
27 2 1.82075 1.08377 11.59
28 2 5.45878 4.22057 8.90855
29 2 4.41257 3.9335 6.28473
30 2 4.16316 0.830429 6.71955
31 2 1.81044 2.23692 6.29611
32 2 6.19 2.6611 2.36979
33 2 3.08882 0.183972 3.92285
34 2 3.09354 3.75916 3.75337
35 2 5.20376 1.97765 4.5856
ITEM: TIMESTEP
18400
ITEM: NUMBER OF ATOMS
35
ITEM: BOX BOUNDS xy xz yz pp pp pp
0.0000000000000000e+00 7.6685730000000003e+00 2.5561910000000001e+00
0.0000000000000000e+00 4.4274529999999999e+00 0.0000000000000000e+00
0.0000000000000000e+00 3.0699265000000000e+01 0.0000000000000000e+00
ITEM: ATOMS id type x y z
1 1 2.12731 0.824561 20.5608
2 1 4.35614 2.92486 24.4016
3 1 2.25562 2.40096 25.6397
4 1 2.39105 0.288645 23.1908
5 1 6.38213 2.32498 22.9675
6 1 3.39439 0.389917 25.7993
7 1 3.92126 1.26191 19.0441
8 1 0.372759 0.504121 26.2068
9 1 4.78844 0.0458772 23.7848
10 1 4.74166 2.68311 27.1021
11 1 3.66106 2.58535 21.9406
12 1 1.68926 1.09782 18.4533
13 1 5.3926 3.34466 17.8722
14 1 4.64929 0.435813 21.3981
15 1 5.7659 2.76372 20.0492
16 2 2.81513 3.53643 18.9951
17 2 4.94508 1.15469 16.5054
18 2 5.07939 4.29186 15.5122
19 2 2.41437 2.53199 16.0527
20 2 3.39454 4.16598 13.8714
21 2 6.23944 2.50625 13.5569
22 2 6.86916 4.39472 11.4686
23 2 3.71931 1.58563 13.9338
24 2 3.89496 2.57271 11.4102
25 2 2.93991 2.90912 9.16365
26 2 5.47838 1.03699 8.8447
27 2 1.57208 1.31421 11.0691
28 2 5.56826 4.24586 8.95653
29 2 4.22581 3.89124 6.36352
30 2 4.28452 0.808734 6.48947
31 2 1.91554 2.48826 6.64264
32 2 6.37484 2.39724 2.26882
33 2 3.19199 0.583332 3.8447
34 2 3.36215 3.28047 3.79717
35 2 5.62777 1.55876 4.36062
ITEM: TIMESTEP
18500
ITEM: NUMBER OF ATOMS
35
ITEM: BOX BOUNDS xy xz yz pp pp pp
0.0000000000000000e+00 7.6685730000000003e+00 2.5561910000000001e+00
0.0000000000000000e+00 4.4274529999999999e+00 0.0000000000000000e+00
0.0000000000000000e+00 3.0699265000000000e+01 0.0000000000000000e+00
ITEM: ATOMS id type x y z
1 1 2.40079 0.21806 20.8328
2 1 4.10297 2.27047 24.7175
3 1 1.5719 2.72161 25.7419
4 1 2.78648 0.132904 23.5977
5 1 6.15291 2.21903 23.4264
6 1 2.44842 0.326265 25.6099
7 1 3.97068 1.21324 18.7483
8 1 5.39075 0.574731 26.4403
9 1 5.21439 0.152476 24.1509
10 1 4.17737 2.82051 26.9612
11 1 3.2788 2.79245 21.8832
12 1 1.9491 1.41103 17.9779
13 1 5.59576 3.56446 18.0828
14 1 4.97864 0.35133 21.546
15 1 5.82336 2.52173 20.8216
16 2 3.17563 3.52819 19.1925
17 2 4.88627 1.26875 16.3159
18 2 5.00675 4.33597 15.6214
19 2 2.49655 3.01083 16.1414
20 2 3.11296 4.38355 13.5326
21 2 6.33908 2.54742 13.5919
22 2 6.36952 4.16886 11.4636
23 2 3.51838 1.72333 13.8117
24 2 4.46808 2.66051 11.5272
25 2 3.07452 2.78411 8.98222
26 2 5.18156 1.33909 8.42044
27 2 1.60662 1.37328 11.0366
28 2 5.40897 4.22422 9.02958
29 2 4.42618 3.68932 6.60278
30 2 4.00689 0.852601 6.12306
31 2 1.84348 2.47086 6.80474
32 2 1.49313 2.20083 2.00374
33 2 3.10618 0.141084 3.69068
34 2 3.55652 3.03418 3.87215
35 2 1.01761 1.72326 4.59593
ITEM: TIMESTEP
18600
ITEM: NUMBER OF ATOMS
35
ITEM: BOX BOUNDS xy xz yz pp pp pp
0.0000000000000000e+00 7.6685730000000003e+00 2.5561910000000001e+00
0.0000000000000000e+00 4.4274529999999999e+00 0.0000000000000000e+00
0.0000000000000000e+00 3.0699265000000000e+01 0.0000000000000000e+00
ITEM: ATOMS id type x y z
1 1 2.78143 0.703061 20.2496
2 1 3.57462 1.63341 24.2741
3 1 5.93405 3.3001 25.8165
4 1 5.2749 4.3463 22.6937
5 1 6.21682 2.11945 23.5394
6 1 1.96593 0.732629 26.4076
7 1 4.61641 1.32922 19.0016
8 1 4.74631 0.657017 26.5839
9 1 3.4047 3.88059 24.3023
10 1 3.1528 2.70724 26.6954
11 1 3.66876 2.45632 21.9082
12 1 1.77721 1.07452 18.0564
13 1 5.79276 3.36825 18.4676
14 1 5.07199 0.285531 21.8401
15 1 6.49763 2.50033 20.9167
16 2 3.23137 3.50337 19.2854
17 2 4.82653 1.64761 16.1681
18 2 4.96438 4.35639 15.9649
19 2 2.75518 3.36008 16.8713
20 2 1.16734 0.0462612 13.3082
21 2 5.61133 3.00545 13.897
22 2 4.38077 0.0795934 11.2175
23 2 3.22439 1.55104 13.9362
24 2 4.15193 2.55222 11.3013
25 2 2.88375 2.95458 9.30901
26 2 5.07674 1.17829 8.27807
27 2 1.6408 1.24094 11.0751
28 2 5.39303 4.33232 8.7889
29 2 4.27843 3.68556 6.31598
30 2 3.92601 0.76409 5.64185
31 2 1.95766 2.52618 6.90123
32 2 1.72548 1.82522 2.16287
33 2 6.16568 4.14463 3.28264
34 2 3.40907 3.05053 3.95968
35 2 6.04917 1.59764 4.61938
ITEM: TIMESTEP
18700
ITEM: NUMBER OF ATOMS
35
ITEM: BOX BOUNDS xy xz yz pp pp pp
0.0000000000000000e+00 7.6685730000000003e+00 2.5561910000000001e+00
0.0000000000000000e+00 4.4274529999999999e+00 0.0000000000000000e+00
0.0000000000000000e+00 3.0699265000000000e+01 0.0000000000000000e+00
ITEM: ATOMS id type x y z
1 1 3.12117 0.568088 20.4439
2 1 3.75499 0.67439 24.0283
3 1 5.14482 3.04468 25.3817
4 1 5.27988 4.09735 22.5741
5 1 1.39461 1.93363 23.7621
6 1 1.46589 0.814449 26.5702
7 1 4.82829 1.20311 18.689
8 1 3.95533 1.1269 26.2334
9 1 3.39595 4.17698 24.1243
10 1 2.46889 2.95768 26.1461
11 1 3.86354 1.94437 22.0845
12 1 2.02775 1.59567 18.8243
13 1 5.81368 3.67811 18.5561
14 1 0.310188 0.45164 21.7567
15 1 5.98784 2.51392 20.7984
16 2 3.41106 3.46728 19.7297
17 2 5.0448 1.80162 16.3975
18 2 2.53139 0.308812 16.3768
19 2 2.56611 3.12476 16.6408
20 2 0.475051 0.377535 13.9005
21 2 6.04847 3.0642 13.8643
22 2 6.87394 4.25197 11.4683
23 2 3.34088 1.62471 13.9179
24 2 4.52352 2.78907 11.4867
25 2 2.61345 3.13351 9.08143
26 2 5.22294 1.31661 8.23699
27 2 1.73411 1.30895 10.9167
28 2 5.17351 4.39355 8.61509
29 2 4.19538 3.71769 6.27339
30 2 3.80655 0.387355 5.74209
31 2 1.99384 2.44622 6.7333
32 2 1.69911 0.97838 2.0801
33 2 3.85077 0.128238 2.97018
34 2 3.43302 3.02107 3.5997
35 2 1.11784 1.44293 4.52708
ITEM: TIMESTEP
18800
ITEM: NUMBER OF ATOMS
35
ITEM: BOX BOUNDS xy xz yz pp pp pp
0.0000000000000000e+00 7.6685730000000003e+00 2.5561910000000001e+00
0.0000000000000000e+00 4.4274529999999999e+00 0.0000000000000000e+00
0.0000000000000000e+00 3.0699265000000000e+01 0.0000000000000000e+00
ITEM: ATOMS id type x y z
1 1 3.34465 0.467268 20.8802
2 1 3.67411 0.858005 24.4267
3 1 4.74993 2.77321 25.3
4 1 5.4421 3.38736 22.7615
5 1 1.54573 1.9519 24.0429
6 1 0.968486 0.768654 25.7383
7 1 4.66695 0.861069 18.8397
8 1 3.43157 1.20971 26.9466
9 1 3.37475 3.98129 23.9693
10 1 6.96471 3.44398 25.8695
11 1 3.04526 2.23986 22.039
12 1 2.23879 1.66278 18.5072
13 1 5.51103 3.39828 18.1954
14 1 0.378737 0.26102 21.9217
15 1 6.14671 2.16431 20.585
16 2 3.78717 3.51832 19.8045
17 2 5.238 1.9006 16.4317
18 2 2.58725 0.593033 16.2273
19 2 2.6554 3.33182 16.4378
20 2 0.635969 0.384774 14.3121
21 2 5.92641 3.10714 14.07
22 2 7.01229 4.30457 11.538
23 2 3.21398 1.91153 13.659
24 2 4.46539 2.8698 11.5437
25 2 2.76284 3.29367 9.0872
26 2 4.86 1.67547 8.4012
27 2 1.71156 1.19141 11.3397
28 2 5.28938 4.43498 8.7778
29 2 4.17713 3.37215 6.18983
30 2 4.31868 0.47433 5.69398
31 2 1.85977 1.9712 6.66037
32 2 1.0837 0.753247 1.85427
33 2 6.59814 4.35493 2.95782
34 2 3.78738 2.69645 3.45247
35 2 1.09894 1.84738 4.1023
ITEM: TIMESTEP
18900
ITEM: NUMBER OF ATOMS
35
ITEM: BOX BOUNDS xy xz yz pp pp pp
0.0000000000000000e+00 7.6685730000000003e+00 2.5561910000000001e+00
0.0000000000000000e+00 4.4274529999999999e+00 0.0000000000000000e+00
0.0000000000000000e+00 3.0699265000000000e+01 0.0000000000000000e+00
ITEM: ATOMS id type x y z
1 1 3.32132 0.14201 20.4772
2 1 3.60712 0.764277 24.2909
3 1 4.3721 2.86235 25.9879
4 1 5.37425 3.55658 22.5911
5 1 1.07356 1.62084 23.9906
6 1 0.758957 0.586346 26.934
7 1 5.09245 1.02906 18.7052
8 1 2.89918 1.33067 26.6747
9 1 2.89794 3.40008 24.2693
10 1 6.67349 3.50063 26.3712
11 1 2.95965 2.43893 21.9975
12 1 2.48935 1.29429 18.2824
13 1 6.19821 3.55059 18.19
14 1 5.1823 1.07236 21.7622
15 1 6.36319 2.21462 20.0822
16 2 3.66952 3.26342 19.6103
17 2 4.98078 1.91733 16.4326
18 2 2.90017 0.731206 15.9042
19 2 3.11385 3.73418 16.7971
20 2 0.784936 0.307752 13.7289
21 2 5.51244 3.26367 14.0665
22 2 4.4547 0.0011045 11.5538
23 2 3.21385 1.92597 13.7443
24 2 4.24467 2.77934 11.2
25 2 2.67688 3.41966 8.95438
26 2 5.02429 1.75219 9.00458
27 2 1.8383 1.41169 11.4877
28 2 2.77706 0.0869829 8.85704
29 2 4.5116 3.39168 5.88664
30 2 4.62784 0.275651 5.75461
31 2 1.81463 1.59599 7.03308
32 2 0.962566 0.942364 1.80121
33 2 5.85935 4.1555 2.96757
34 2 3.82085 2.58199 3.31338
35 2 1.6368 1.61709 4.23832
ITEM: TIMESTEP
19000
ITEM: NUMBER OF ATOMS
35
ITEM: BOX BOUNDS xy xz yz pp pp pp
0.0000000000000000e+00 7.6685730000000003e+00 2.5561910000000001e+00
0.0000000000000000e+00 4.4274529999999999e+00 0.0000000000000000e+00
0.0000000000000000e+00 3.0699265000000000e+01 0.0000000000000000e+00
ITEM: ATOMS id type x y z
1 1 3.13219 0.532651 20.3274
2 1 3.51294 0.545872 24.0652
3 1 4.06557 3.41967 26.1281
4 1 4.5503 4.02279 22.3615
5 1 0.870022 1.19659 24.7564
6 1 5.07667 0.696581 27.2034
7 1 5.14909 1.00667 18.9901
8 1 2.49648 1.0371 26.1785
9 1 2.52593 3.00427 24.5169
10 1 6.54729 3.0868 26.6988
11 1 2.72741 2.28564 22.5606
12 1 2.15607 1.33999 18.2889
13 1 6.35808 3.79372 18.3054
14 1 5.09126 1.17732 21.9618
15 1 1.39907 2.58664 20.688
16 2 3.84454 3.14926 19.2473
17 2 5.60829 2.09229 16.2179
18 2 3.01753 0.584158 15.8275
19 2 3.39992 3.75235 16.6683
20 2 0.23462 0.624897 13.6561
21 2 5.9453 3.21215 13.6272
22 2 6.4245 4.22336 11.265
23 2 3.16298 2.2166 13.7412
24 2 4.21764 3.05068 11.323
25 2 2.92979 3.50979 8.45092
26 2 5.43002 1.66719 9.04407
27 2 1.85522 1.65028 11.0545
28 2 2.85512 0.0633962 9.03938
29 2 4.78725 2.87923 5.91411
30 2 7.06847 4.34221 5.96468
31 2 1.91435 1.72039 7.10966
32 2 0.84075 1.36564 2.58079
33 2 5.86818 4.05 2.88687
34 2 3.34555 2.6972 3.01709
35 2 2.05331 1.0291 4.8492
ITEM: TIMESTEP
19100
ITEM: NUMBER OF ATOMS
35
ITEM: BOX BOUNDS xy xz yz pp pp pp
0.0000000000000000e+00 7.6685730000000003e+00 2.5561910000000001e+00
0.0000000000000000e+00 4.4274529999999999e+00 0.0000000000000000e+00
0.0000000000000000e+00 3.0699265000000000e+01 0.0000000000000000e+00
ITEM: ATOMS id type x y z
1 1 2.72425 0.967912 20.2936
2 1 3.03745 0.0657895 23.8813
3 1 3.73503 3.28969 26.4848
4 1 3.98352 3.73067 22.3308
5 1 5.48341 1.06885 24.3675
6 1 5.01018 1.24901 26.747
7 1 5.25363 1.00904 19.5871
8 1 2.5356 0.702799 26.574
9 1 2.02694 2.90376 24.6444
10 1 6.3596 3.00288 27.0543
11 1 2.5668 2.1877 22.4319
12 1 2.54204 1.57116 18.0972
13 1 6.26089 3.80268 18.0682
14 1 4.66606 1.16872 21.9592
15 1 6.21426 3.05752 20.8013
16 2 4.04287 3.3373 19.4038
17 2 6.11929 2.09916 15.9118
18 2 3.48397 0.515986 15.8202
19 2 3.18222 3.44639 16.2284
20 2 5.69986 0.691368 13.7332
21 2 5.58286 3.6882 13.5311
22 2 4.45513 0.265658 11.2099
23 2 3.12616 2.33319 13.8177
24 2 3.925 3.17021 11.4162
25 2 3.3345 3.61108 8.68478
26 2 4.84397 1.77838 8.86509
27 2 1.66544 1.56316 10.8214
28 2 5.94234 4.23944 8.40707
29 2 4.57019 2.2851 6.01412
30 2 7.28417 4.06813 5.875
31 2 2.04835 1.59685 7.19006
32 2 5.2295 1.49347 3.48364
33 2 6.09216 4.15721 2.9446
34 2 3.22592 2.89256 3.20844
35 2 2.39754 0.63124 4.81589
ITEM: TIMESTEP
19200
ITEM: NUMBER OF ATOMS
35
ITEM: BOX BOUNDS xy xz yz pp pp pp
0.0000000000000000e+00 7.6685730000000003e+00 2.5561910000000001e+00
0.0000000000000000e+00 4.4274529999999999e+00 0.0000000000000000e+00
0.0000000000000000e+00 3.0699265000000000e+01 0.0000000000000000e+00
ITEM: ATOMS id type x y z
1 1 2.28186 1.27626 20.4777
2 1 2.66425 -0.0935795 24.3638
3 1 3.96357 2.92782 26.335
4 1 4.11972 3.89488 22.0041
5 1 4.94886 0.723394 24.0281
6 1 5.04533 0.946378 26.2331
7 1 5.15116 1.20514 19.0313
8 1 2.4137 0.969022 26.5006
9 1 1.8004 2.661 24.836
10 1 6.20542 3.55219 27.0925
11 1 1.59691 1.8167 22.5815
12 1 2.71536 1.62947 17.8066
13 1 6.28372 3.41709 18.4954
14 1 4.42765 1.34326 21.5942
15 1 6.43498 3.62015 20.794
16 2 3.76111 3.25672 19.6722
17 2 5.86723 2.0363 15.9712
18 2 3.76996 0.533829 15.7154
19 2 3.90076 3.69329 16.2572
20 2 0.738247 0.819117 13.4954
21 2 5.67414 3.87794 13.3533
22 2 4.32409 0.517747 11.4125
23 2 2.94323 2.31745 13.6222
24 2 4.59995 3.14825 11.1154
25 2 3.37255 3.93271 9.04383
26 2 4.57952 1.60473 8.82628
27 2 2.04591 1.75096 10.5628
28 2 5.84756 3.75035 7.97785
29 2 4.52517 2.39625 6.35914
30 2 2.32189 3.67085 5.70866
31 2 1.84079 1.4201 7.51125
32 2 5.56594 1.41119 4.05264
33 2 5.60101 4.13926 2.5596
34 2 3.13755 3.17595 3.41913
35 2 2.43422 0.372093 5.14983
ITEM: TIMESTEP
19300
ITEM: NUMBER OF ATOMS
35
ITEM: BOX BOUNDS xy xz yz pp pp pp
0.0000000000000000e+00 7.6685730000000003e+00 2.5561910000000001e+00
0.0000000000000000e+00 4.4274529999999999e+00 0.0000000000000000e+00
0.0000000000000000e+00 3.0699265000000000e+01 0.0000000000000000e+00
ITEM: ATOMS id type x y z
1 1 1.52402 1.2986 20.0628
2 1 4.69023 4.37271 24.204
3 1 3.78998 2.95982 25.906
4 1 3.52138 3.63934 22.2675
5 1 4.40387 0.46654 23.4114
6 1 5.33354 0.610915 26.1731
7 1 5.1296 0.966572 17.8828
8 1 2.48997 1.46429 26.9733
9 1 1.78033 2.45981 25.005
10 1 6.25451 3.36436 27.0053
11 1 1.54576 2.09586 22.6929
12 1 2.73627 1.40592 17.935
13 1 6.10944 3.58108 18.3527
14 1 4.58126 1.78848 21.1167
15 1 6.43606 3.86784 21.1202
16 2 3.55131 3.35002 19.5198
17 2 6.27502 2.21146 15.9437
18 2 3.97088 0.552993 15.6208
19 2 3.97776 3.90306 16.6798
20 2 0.730854 0.938126 13.4359
21 2 5.73744 3.45799 13.6712
22 2 4.67108 0.184072 11.2514
23 2 3.30696 2.66294 13.5181
24 2 4.99402 3.21543 11.1407
25 2 3.25799 3.89557 9.00652
26 2 4.10339 1.58348 9.07222
27 2 2.02806 1.92319 10.6595
28 2 5.92468 3.63687 8.38389
29 2 4.32621 2.04723 6.31803
30 2 2.32599 3.57203 6.01189
31 2 1.6281 1.38474 7.33986
32 2 5.76036 1.7784 3.93925
33 2 5.4314 4.3036 2.71596
34 2 2.89945 2.92536 3.20689
35 2 2.75155 0.289556 5.07558
ITEM: TIMESTEP
19400
ITEM: NUMBER OF ATOMS
35
ITEM: BOX BOUNDS xy xz yz pp pp pp
0.0000000000000000e+00 7.6685730000000003e+00 2.5561910000000001e+00
0.0000000000000000e+00 4.4274529999999999e+00 0.0000000000000000e+00
0.0000000000000000e+00 3.0699265000000000e+01 0.0000000000000000e+00
ITEM: ATOMS id type x y z
1 1 1.85861 1.7908 20.1966
2 1 2.08506 0.0456355 24.4174
3 1 4.16642 2.64355 25.5493
4 1 3.18199 3.69543 21.8697
5 1 4.17608 1.07467 23.2985
6 1 5.21587 0.527025 25.7119
7 1 4.88708 1.40689 18.5891
8 1 2.48977 1.11158 27.1166
9 1 1.43435 2.68244 24.7835
10 1 6.11947 3.39941 26.816
11 1 1.47945 1.6827 22.2833
12 1 2.49659 1.16552 17.9704
13 1 5.95899 3.48738 18.2584
14 1 4.41701 1.5749 20.9153
15 1 5.38497 4.12113 20.641
16 2 3.37234 3.57844 19.2288
17 2 1.88936 2.50161 15.8354
18 2 4.26324 1.13945 15.7986
19 2 3.9559 3.50677 16.553
20 2 1.30594 0.737268 13.9522
21 2 5.9548 3.82594 13.7318
22 2 4.76172 0.0755245 11.5569
23 2 3.37572 2.19523 13.6301
24 2 4.51468 3.30677 11.2777
25 2 3.24573 4.20086 8.6868
26 2 3.81524 1.43054 9.02473
27 2 1.90976 1.53934 11.0244
28 2 5.83527 3.35163 8.60736
29 2 4.47192 1.88788 6.33597
30 2 2.50267 3.75418 5.99309
31 2 1.76846 1.35236 7.08249
32 2 5.29753 1.66832 3.81296
33 2 3.12811 0.121908 2.49422
34 2 2.95602 2.9004 3.58609
35 2 2.5088 0.140665 4.89257
ITEM: TIMESTEP
19500
ITEM: NUMBER OF ATOMS
35
ITEM: BOX BOUNDS xy xz yz pp pp pp
0.0000000000000000e+00 7.6685730000000003e+00 2.5561910000000001e+00
0.0000000000000000e+00 4.4274529999999999e+00 0.0000000000000000e+00
0.0000000000000000e+00 3.0699265000000000e+01 0.0000000000000000e+00
ITEM: ATOMS id type x y z
1 1 1.79341 2.11341 20.411
2 1 2.45188 0.10446 24.1708
3 1 3.73542 2.41799 25.5769
4 1 2.73048 3.60535 21.9475
5 1 4.16205 1.65133 23.312
6 1 5.11541 0.110439 25.3881
7 1 4.57892 1.8751 18.5446
8 1 1.77323 1.03452 26.012
9 1 6.84058 3.2176 23.8148
10 1 5.9549 3.32936 26.6599
11 1 1.29449 1.22149 22.5342
12 1 2.25175 1.4985 18.1974
13 1 6.09565 3.62538 18.3016
14 1 4.27442 1.33324 20.9747
15 1 5.4011 3.70885 20.8625
16 2 3.33619 3.98192 18.8788
17 2 1.88392 2.66025 16.1136
18 2 4.62831 0.980053 16.3703
19 2 4.60563 3.96662 16.3633
20 2 1.02971 0.400879 14.1803
21 2 6.31588 3.57276 13.9004
22 2 4.19998 0.152862 11.2631
23 2 3.66341 2.10414 13.4373
24 2 4.55586 3.06141 11.2313
25 2 3.32401 4.16851 8.82024
26 2 3.33367 1.36931 9.25004
27 2 1.81636 1.65925 11.4196
28 2 5.88364 2.89038 8.89262
29 2 4.76776 2.40853 6.5363
30 2 7.02821 4.08257 6.08638
31 2 2.25377 1.32345 6.72499
32 2 5.45656 1.33624 3.66612
33 2 3.35557 0.316646 2.3056
34 2 2.79296 2.8901 3.62032
35 2 4.9764 4.16285 4.64478
ITEM: TIMESTEP
19600
ITEM: NUMBER OF ATOMS
35
ITEM: BOX BOUNDS xy xz yz pp pp pp
0.0000000000000000e+00 7.6685730000000003e+00 2.5561910000000001e+00
0.0000000000000000e+00 4.4274529999999999e+00 0.0000000000000000e+00
0.0000000000000000e+00 3.0699265000000000e+01 0.0000000000000000e+00
ITEM: ATOMS id type x y z
1 1 1.4838 1.60397 20.5077
2 1 4.98388 4.06852 23.9419
3 1 3.41755 2.69024 25.5868
4 1 2.86382 3.32231 21.1437
5 1 4.15057 2.08311 23.279
6 1 4.62435 0.693705 24.9232
7 1 5.01169 2.31487 18.6885
8 1 1.77507 1.35213 25.9248
9 1 1.96763 2.42106 23.8306
10 1 5.71206 3.51576 26.0657
11 1 0.871888 0.871496 22.6246
12 1 2.41938 2.04149 18.4295
13 1 6.11293 4.32149 19.1699
14 1 4.14562 1.18755 21.0952
15 1 5.27071 3.79318 21.5146
16 2 3.27836 4.32415 18.9442
17 2 2.46819 2.53971 16.1725
18 2 4.76469 0.91041 16.5534
19 2 4.79448 3.98229 16.2683
20 2 0.854758 0.263271 13.6824
21 2 6.04224 3.29595 13.8559
22 2 4.6111 0.0778474 11.2832
23 2 3.80084 1.90912 13.9685
24 2 4.24904 3.3287 11.1701
25 2 3.36672 4.38929 8.7694
26 2 3.24847 1.27691 8.93343
27 2 1.52494 1.78456 11.7564
28 2 6.03007 2.47873 9.11574
29 2 4.7472 2.73919 6.64381
30 2 7.27522 4.42061 6.49026
31 2 1.96826 1.23092 6.35069
32 2 5.49401 1.36133 3.70331
33 2 3.45322 0.26139 2.20257
34 2 2.68946 2.65576 3.61199
35 2 4.92807 3.90515 4.22275
ITEM: TIMESTEP
19700
ITEM: NUMBER OF ATOMS
35
ITEM: BOX BOUNDS xy xz yz pp pp pp
0.0000000000000000e+00 7.6685730000000003e+00 2.5561910000000001e+00
0.0000000000000000e+00 4.4274529999999999e+00 0.0000000000000000e+00
0.0000000000000000e+00 3.0699265000000000e+01 0.0000000000000000e+00
ITEM: ATOMS id type x y z
1 1 1.29704 1.23093 21.1012
2 1 5.23896 4.7206 23.9765
3 1 3.38718 3.29288 25.6934
4 1 2.68869 3.3989 20.8202
5 1 3.79226 2.40755 23.3279
6 1 4.49187 1.01301 24.9856
7 1 5.30031 2.36869 18.3198
8 1 1.78244 1.08607 26.2139
9 1 1.1922 2.44103 23.6482
10 1 5.99328 3.34277 26.1491
11 1 0.373381 -0.059299 23.0287
12 1 2.43324 2.26721 18.4638
13 1 3.48251 0.0830553 19.1467
14 1 3.96468 1.53927 20.9839
15 1 5.42558 3.5829 21.6174
16 2 3.48803 4.47245 18.6768
17 2 2.40355 2.57831 16.1252
18 2 5.06753 0.909747 16.3577
19 2 4.99707 4.12044 16.4378
20 2 0.949976 -0.0599434 14.1125
21 2 5.92786 3.19738 14.0079
22 2 4.13309 0.536807 11.3459
23 2 3.57859 1.33233 13.8633
24 2 4.39061 3.29762 11.3229
25 2 3.43685 4.19613 8.95162
26 2 3.44782 0.967698 8.67311
27 2 2.09023 1.87224 11.3933
28 2 6.0259 2.83376 9.06633
29 2 4.40176 2.85113 6.79231
30 2 7.23733 4.2269 6.21091
31 2 1.90429 1.73635 6.14975
32 2 5.07822 1.10242 3.74466
33 2 3.61438 0.162704 1.97498
34 2 2.64622 2.53037 3.82782
35 2 5.26562 3.9677 4.4008
ITEM: TIMESTEP
19800
ITEM: NUMBER OF ATOMS
35
ITEM: BOX BOUNDS xy xz yz pp pp pp
0.0000000000000000e+00 7.6685730000000003e+00 2.5561910000000001e+00
0.0000000000000000e+00 4.4274529999999999e+00 0.0000000000000000e+00
0.0000000000000000e+00 3.0699265000000000e+01 0.0000000000000000e+00
ITEM: ATOMS id type x y z
1 1 1.3881 1.36285 21.3966
2 1 1.80605 0.192596 23.6578
3 1 3.34732 3.63559 25.4947
4 1 2.53558 3.5756 20.9416
5 1 3.26207 2.38766 23.1538
6 1 5.19139 1.05587 26.6345
7 1 4.86815 2.37883 18.8916
8 1 2.52258 1.13473 26.0677
9 1 5.92141 2.53129 23.5673
10 1 5.9825 3.54509 25.6417
11 1 4.32293 0.153735 23.8041
12 1 2.53971 2.02352 18.881
13 1 6.49955 4.25903 18.6321
14 1 4.18615 1.52604 20.9694
15 1 5.28069 3.67323 21.0944
16 2 1.23764 0.280314 18.6117
17 2 2.29146 2.48689 16.3122
18 2 4.91909 1.18313 16.1348
19 2 5.27458 4.17518 16.4534
20 2 3.58063 4.22906 13.8063
21 2 6.03102 2.36893 13.7767
22 2 4.78702 0.452506 11.2496
23 2 3.28119 1.27289 13.6421
24 2 4.79565 3.46156 11.6509
25 2 3.44234 4.14721 9.22655
26 2 3.39371 1.19393 8.64916
27 2 1.85491 2.14061 11.2714
28 2 6.02483 2.63109 8.82513
29 2 4.37265 2.89893 6.55209
30 2 4.57028 0.147792 6.39066
31 2 1.70522 1.40384 6.48421
32 2 5.24337 1.20975 3.89874
33 2 6.06581 4.22026 2.09618
34 2 2.66534 2.53052 3.62226
35 2 5.04483 4.14525 4.30657
ITEM: TIMESTEP
19900
ITEM: NUMBER OF ATOMS
35
ITEM: BOX BOUNDS xy xz yz pp pp pp
0.0000000000000000e+00 7.6685730000000003e+00 2.5561910000000001e+00
0.0000000000000000e+00 4.4274529999999999e+00 0.0000000000000000e+00
0.0000000000000000e+00 3.0699265000000000e+01 0.0000000000000000e+00
ITEM: ATOMS id type x y z
1 1 1.41733 1.76067 20.9184
2 1 1.61263 0.250302 23.1259
3 1 3.37358 3.89514 25.6088
4 1 2.83762 4.07455 21.3191
5 1 2.41755 2.58264 23.359
6 1 5.97688 1.13836 27.2676
7 1 5.41555 2.36178 18.3939
8 1 2.54912 1.65669 25.4211
9 1 5.14079 2.44506 23.3203
10 1 5.76959 2.89782 25.8421
11 1 3.98184 0.499386 23.8021
12 1 2.98237 2.44261 19.4136
13 1 6.22411 4.93893 18.6169
14 1 3.80195 1.14107 21.1938
15 1 5.20507 3.45148 20.8531
16 2 1.36113 0.120458 18.6803
17 2 2.57957 2.53875 16.7478
18 2 4.92752 1.40019 16.2055
19 2 4.9398 4.04646 15.7956
20 2 3.16847 3.6199 13.9088
21 2 5.92634 2.37428 13.7388
22 2 4.98867 0.533696 11.4838
23 2 3.50863 0.990875 13.6713
24 2 4.99345 3.80433 11.301
25 2 3.66721 4.04381 8.76692
26 2 3.39017 1.30778 9.15082
27 2 2.43084 2.04327 11.2399
28 2 5.81173 2.48082 8.77906
29 2 4.19155 2.86409 6.47219
30 2 4.32998 -0.108115 6.77018
31 2 1.90056 1.351 6.50909
32 2 5.28128 1.62033 3.62979
33 2 6.09433 3.84598 2.30685
34 2 2.7702 2.63667 3.65513
35 2 4.65315 4.32731 4.27866
ITEM: TIMESTEP
20000
ITEM: NUMBER OF ATOMS
35
ITEM: BOX BOUNDS xy xz yz pp pp pp
0.0000000000000000e+00 7.6685730000000003e+00 2.5561910000000001e+00
0.0000000000000000e+00 4.4274529999999999e+00 0.0000000000000000e+00
0.0000000000000000e+00 3.0699265000000000e+01 0.0000000000000000e+00
ITEM: ATOMS id type x y z
1 1 1.18483 1.23945 20.8572
2 1 1.32667 0.468128 23.139
3 1 3.16511 4.26243 25.162
4 1 2.17191 3.87894 21.2
5 1 2.1876 2.69887 23.2481
6 1 1.40686 1.19824 27.34
7 1 5.71665 2.9585 18.5343
8 1 2.86133 1.34907 25.4592
9 1 4.56385 2.79383 23.3629
10 1 5.17813 2.79933 25.4128
11 1 3.96221 0.51274 23.8984
12 1 2.98551 2.30481 19.4045
13 1 4.11981 0.530634 18.3524
14 1 3.68289 1.50886 21.657
15 1 5.05085 3.74795 20.8144
16 2 1.5256 0.429584 18.3481
17 2 2.55867 2.73021 16.7971
18 2 5.10731 1.00615 15.9738
19 2 4.91074 4.34223 15.9912
20 2 3.07899 3.3717 14.225
21 2 5.73218 2.17718 13.7334
22 2 5.11925 0.751075 11.422
23 2 3.45567 0.640155 13.7754
24 2 5.05664 3.53578 11.0973
25 2 3.48695 4.16678 8.64133
26 2 3.69091 0.908615 8.98486
27 2 2.77008 2.47689 11.6962
28 2 6.13617 2.46137 8.97319
29 2 4.42761 2.36458 6.34305
30 2 6.63839 4.14607 6.40821
31 2 1.71421 1.55628 6.5414
32 2 4.95322 1.42213 3.72003
33 2 5.99478 3.877 2.24084
34 2 2.61179 2.89268 3.99239
35 2 2.46277 0.184116 4.40201
