
     Program PWSCF v.7.5 starts on  4Dec2025 at 10: 9:13 

     This program is part of the open-source Quantum ESPRESSO suite
     for quantum simulation of materials; please cite
         "P. Giannozzi et al., J. Phys.:Condens. Matter 21 395502 (2009);
         "P. Giannozzi et al., J. Phys.:Condens. Matter 29 465901 (2017);
         "P. Giannozzi et al., J. Chem. Phys. 152 154105 (2020);
          URL http://www.quantum-espresso.org", 
     in publications or presentations arising from this work. More details at
     http://www.quantum-espresso.org/quote

     Parallel version (MPI & OpenMP), running on      16 processor cores
     Number of MPI processes:                 4
     Threads/MPI process:                     4

     MPI processes distributed on     1 nodes
     419001 MiB available memory on the printing compute node when the environment starts

     Reading input from qe/gap5/cu_ta_gap5.in
Warning: card &CELL ignored
Warning: card &FCP ignored
Warning: card &RISM ignored

     Current dimensions of program PWSCF are:
     Max number of different atomic species (ntypx) = 10
     Max number of k-points (npk) =  40000
     Max angular momentum in pseudopotentials (lmaxx) =  4
     file Cu.paw.z_11.ld1.psl.v1.0.0-low.upf: wavefunction(s)  4S 3D renormalized
     Message from routine setup:
     using ibrav=0 with symmetry is DISCOURAGED, use correct ibrav instead

     R & G space division:  proc/nbgrp/npool/nimage =       4
     Subspace diagonalization in iterative solution of the eigenvalue problem:
     a serial algorithm will be used


     Parallelization info
     --------------------
     sticks:   dense  smooth     PW     G-vecs:    dense   smooth      PW
     Min         480     289     73                50268    23379    2917
     Max         481     290     74                50277    23392    2922
     Sum        1921    1159    295               201085    93547   11683

     Using Slab Decomposition



     bravais-lattice index     =            0
     lattice parameter (alat)  =       9.6610  a.u.
     unit-cell volume          =    2291.2110 (a.u.)^3
     number of atoms/cell      =            7
     number of atomic types    =            2
     number of electrons       =        83.00
     number of Kohn-Sham states=           50
     kinetic-energy cutoff     =      45.0000  Ry
     charge density cutoff     =     300.0000  Ry
     scf convergence threshold =      1.0E-04
     mixing beta               =       0.3000
     number of iterations used =            8  plain     mixing
     Exchange-correlation= SLA  PW   PBX  PBC
                           (   1   4   3   4   0   0   0)

     celldm(1)=   9.661002  celldm(2)=   0.000000  celldm(3)=   0.000000
     celldm(4)=   0.000000  celldm(5)=   0.000000  celldm(6)=   0.000000

     crystal axes: (cart. coord. in units of alat)
               a(1) = (   1.000000   0.000000   0.000000 )  
               a(2) = (   0.500000   0.866025   0.000000 )  
               a(3) = (   0.000000   0.000000   2.934053 )  

     reciprocal axes: (cart. coord. in units 2 pi/alat)
               b(1) = (  1.000000 -0.577350  0.000000 )  
               b(2) = (  0.000000  1.154701  0.000000 )  
               b(3) = (  0.000000  0.000000  0.340825 )  


     PseudoPot. # 1 for Ta read from file:
     /apps/QE/pseudo/efficiency/Ta_pbe_v1.uspp.F.UPF
     MD5 check sum: f8bbe9446314a3b8ea5d9f3e3836c939
     Pseudo is Ultrasoft + core correction, Zval = 13.0
     Generated by new atomic code, or converted to UPF format
     Using radial grid of  921 points,  7 beta functions with: 
                l(1) =   0
                l(2) =   0
                l(3) =   1
                l(4) =   1
                l(5) =   2
                l(6) =   2
                l(7) =   3
     Q(r) pseudized with  6 coefficients,  rinner =    1.300   1.300   1.300
                                                       1.300   1.300   1.300
                                                       1.300

     PseudoPot. # 2 for Cu read from file:
     /apps/QE/pseudo/efficiency/Cu.paw.z_11.ld1.psl.v1.0.0-low.upf
     MD5 check sum: 619f40885d92a09a85a8b37550532d0c
     Pseudo is Projector augmented-wave + core cor, Zval = 11.0
     Generated using &quot;atomic&quot; code by A. Dal Corso  v.6.3MaX
     Shape of augmentation charge: PSQ
     Using radial grid of 1199 points,  6 beta functions with: 
                l(1) =   0
                l(2) =   0
                l(3) =   1
                l(4) =   1
                l(5) =   2
                l(6) =   2
     Q(r) pseudized with 0 coefficients 


     atomic species   valence    mass     pseudopotential
     Ta               13.00   180.94788     Ta( 1.00)
     Cu               11.00    63.54600     Cu( 1.00)

     12 Sym. Ops. (no inversion) found ( 6 have fractional translation)



   Cartesian axes

     site n.     atom                  positions (alat units)
         1        Ta     tau(   1) = (   0.0000000   0.0000000   2.0258938  )
         2        Ta     tau(   2) = (   0.5000000   0.2886751   2.0258938  )
         3        Ta     tau(   3) = (   1.0000000   0.5773503   2.0258938  )
         4        Cu     tau(   4) = (   0.7500000   0.1443376   1.0478761  )
         5        Cu     tau(   5) = (   0.2500000   0.1443376   1.0478761  )
         6        Cu     tau(   6) = (   1.0000000   0.5773503   1.0478761  )
         7        Cu     tau(   7) = (   0.5000000   0.5773503   1.0478761  )

     number of k points=     1  Methfessel-Paxton smearing, width (Ry)=  0.0200
                       cart. coord. in units 2pi/alat
        k(    1) = (   0.0000000   0.0000000   0.0000000), wk =   2.0000000

     Dense  grid:   201085 G-vectors     FFT dimensions: (  54,  54, 160)

     Smooth grid:    93547 G-vectors     FFT dimensions: (  45,  45, 125)

     Estimated max dynamical RAM per process >     317.27 MB

     Estimated total dynamical RAM >       1.24 GB

     Check: negative core charge=   -0.000002

     Initial potential from superposition of free atoms

     starting charge      82.9958, renormalised to      83.0000

     negative rho (up, down):  2.889E-01 0.000E+00
     Starting wfcs are   75 randomized atomic wfcs
     Checking if some PAW data can be deallocated... 

     total cpu time spent up to now is        3.6 secs

     per-process dynamical memory:    83.1 Mb

     Self-consistent Calculation

     iteration #  1     ecut=    45.00 Ry     beta= 0.30
     Davidson diagonalization with overlap
     ethr =  1.00E-02,  avg # of iterations =  2.0

     negative rho (up, down):  2.941E-01 0.000E+00

     total cpu time spent up to now is        7.6 secs

     total energy              =   -1274.99596191 Ry
     estimated scf accuracy    <       3.01669239 Ry

     iteration #  2     ecut=    45.00 Ry     beta= 0.30
     Davidson diagonalization with overlap
     ethr =  3.63E-03,  avg # of iterations = 11.0

     negative rho (up, down):  2.941E-01 0.000E+00

     total cpu time spent up to now is       12.5 secs

     total energy              =   -1273.37353631 Ry
     estimated scf accuracy    <     129.72641231 Ry

     iteration #  3     ecut=    45.00 Ry     beta= 0.30
     Davidson diagonalization with overlap
     ethr =  3.63E-03,  avg # of iterations =  6.0

     negative rho (up, down):  2.953E-01 0.000E+00

     total cpu time spent up to now is       16.8 secs

     total energy              =   -1276.06216694 Ry
     estimated scf accuracy    <       0.61402709 Ry

     iteration #  4     ecut=    45.00 Ry     beta= 0.30
     Davidson diagonalization with overlap
     ethr =  7.40E-04,  avg # of iterations = 10.0

     negative rho (up, down):  2.965E-01 0.000E+00

     total cpu time spent up to now is       21.7 secs

     total energy              =   -1276.23062012 Ry
     estimated scf accuracy    <       1.22415966 Ry

     iteration #  5     ecut=    45.00 Ry     beta= 0.30
     Davidson diagonalization with overlap
     ethr =  7.40E-04,  avg # of iterations =  2.0

     negative rho (up, down):  2.970E-01 0.000E+00

     total cpu time spent up to now is       26.6 secs

     total energy              =   -1276.24014266 Ry
     estimated scf accuracy    <       0.71564519 Ry

     iteration #  6     ecut=    45.00 Ry     beta= 0.30
     Davidson diagonalization with overlap
     ethr =  7.40E-04,  avg # of iterations =  1.0

     negative rho (up, down):  2.986E-01 0.000E+00

     total cpu time spent up to now is       30.9 secs

     total energy              =   -1276.21165857 Ry
     estimated scf accuracy    <       0.66632174 Ry

     iteration #  7     ecut=    45.00 Ry     beta= 0.30
     Davidson diagonalization with overlap
     ethr =  7.40E-04,  avg # of iterations =  1.0

     negative rho (up, down):  3.039E-01 0.000E+00

     total cpu time spent up to now is       34.5 secs

     total energy              =   -1276.12286824 Ry
     estimated scf accuracy    <       0.54234564 Ry

     iteration #  8     ecut=    45.00 Ry     beta= 0.30
     Davidson diagonalization with overlap
     ethr =  6.53E-04,  avg # of iterations =  1.0

     negative rho (up, down):  3.032E-01 0.000E+00

     total cpu time spent up to now is       37.9 secs

     total energy              =   -1276.09917664 Ry
     estimated scf accuracy    <      25.09858201 Ry

     iteration #  9     ecut=    45.00 Ry     beta= 0.30
     Davidson diagonalization with overlap
     ethr =  6.53E-04,  avg # of iterations =  1.0

     negative rho (up, down):  3.044E-01 0.000E+00

     total cpu time spent up to now is       41.0 secs

     total energy              =   -1276.19317924 Ry
     estimated scf accuracy    <       0.09889476 Ry

     iteration # 10     ecut=    45.00 Ry     beta= 0.30
     Davidson diagonalization with overlap
     ethr =  1.19E-04,  avg # of iterations =  2.0

     negative rho (up, down):  3.050E-01 0.000E+00

     total cpu time spent up to now is       44.4 secs

     total energy              =   -1276.17957332 Ry
     estimated scf accuracy    <       0.71921855 Ry

     iteration # 11     ecut=    45.00 Ry     beta= 0.30
     Davidson diagonalization with overlap
     ethr =  1.19E-04,  avg # of iterations =  1.0

     negative rho (up, down):  3.049E-01 0.000E+00

     total cpu time spent up to now is       48.4 secs

     total energy              =   -1276.18794107 Ry
     estimated scf accuracy    <       0.33676031 Ry

     iteration # 12     ecut=    45.00 Ry     beta= 0.30
     Davidson diagonalization with overlap
     ethr =  1.19E-04,  avg # of iterations =  1.0

     negative rho (up, down):  3.057E-01 0.000E+00

     total cpu time spent up to now is       52.3 secs

     total energy              =   -1276.19118733 Ry
     estimated scf accuracy    <       0.03393428 Ry

     iteration # 13     ecut=    45.00 Ry     beta= 0.30
     Davidson diagonalization with overlap
     ethr =  4.09E-05,  avg # of iterations =  9.0

     negative rho (up, down):  3.061E-01 0.000E+00

     total cpu time spent up to now is       56.8 secs

     total energy              =   -1276.19229558 Ry
     estimated scf accuracy    <       0.06766933 Ry

     iteration # 14     ecut=    45.00 Ry     beta= 0.30
     Davidson diagonalization with overlap
     ethr =  4.09E-05,  avg # of iterations =  1.0

     negative rho (up, down):  3.063E-01 0.000E+00

     total cpu time spent up to now is       60.3 secs

     total energy              =   -1276.19171080 Ry
     estimated scf accuracy    <       0.04202071 Ry

     iteration # 15     ecut=    45.00 Ry     beta= 0.30
     Davidson diagonalization with overlap
     ethr =  4.09E-05,  avg # of iterations =  1.0

     negative rho (up, down):  3.064E-01 0.000E+00

     total cpu time spent up to now is       64.7 secs

     total energy              =   -1276.19217233 Ry
     estimated scf accuracy    <       0.00823950 Ry

     iteration # 16     ecut=    45.00 Ry     beta= 0.30
     Davidson diagonalization with overlap
     ethr =  9.93E-06,  avg # of iterations =  8.0

     negative rho (up, down):  3.064E-01 0.000E+00

     total cpu time spent up to now is       68.6 secs

     End of self-consistent calculation

          k = 0.0000 0.0000 0.0000 ( 11683 PWs)   bands (ev):

   -66.1450 -66.0744 -66.0686 -32.9683 -32.8382 -32.8347 -32.6006 -32.6006
   -32.5950 -32.5950 -32.0117 -32.0117  -5.6574  -3.9475  -3.1087  -3.1081
    -3.1081  -1.8778  -1.8768  -1.8768  -1.6335  -1.6335  -1.3214  -0.6992
    -0.6992  -0.6989  -0.6544  -0.6542  -0.6542  -0.4656  -0.4656  -0.2792
    -0.2790  -0.2790   0.7906   1.4771   1.5390   1.5391   1.5430   1.5430
     1.7046   1.7048   1.7121   1.7122   1.8476   1.8682   1.8682   2.5599
     2.8190   3.4511

     the Fermi energy is     1.6884 ev

!    total energy              =   -1276.19226452 Ry
     estimated scf accuracy    <       0.00004580 Ry
     smearing contrib. (-TS)   =      -0.03069055 Ry
     internal energy E=F+TS    =   -1276.16157397 Ry

     The total energy is F=E-TS. E is the sum of the following terms:
     one-electron contribution =   -1399.86357815 Ry
     hartree contribution      =     743.04106889 Ry
     xc contribution           =    -304.41392247 Ry
     ewald contribution        =      44.25846272 Ry
     one-center paw contrib.   =    -359.18360496 Ry

     convergence has been achieved in  16 iterations

     Writing all to output data dir ./tmp/CuTa_gap5.save/ :
     XML data file, charge density, pseudopotentials, collected wavefunctions

     init_run     :      2.92s CPU      3.23s WALL (       1 calls)
     electrons    :     57.89s CPU     64.99s WALL (       1 calls)

     Called by init_run:
     wfcinit      :      0.53s CPU      0.57s WALL (       1 calls)
     potinit      :      1.10s CPU      1.17s WALL (       1 calls)
     hinit0       :      0.64s CPU      0.72s WALL (       1 calls)

     Called by electrons:
     c_bands      :     22.19s CPU     24.73s WALL (      16 calls)
     sum_band     :     13.35s CPU     15.64s WALL (      16 calls)
     v_of_rho     :      1.88s CPU      1.78s WALL (      17 calls)
     newd         :      8.85s CPU     10.50s WALL (      17 calls)
     PAW_pot      :     12.15s CPU     12.81s WALL (      17 calls)
     mix_rho      :      0.51s CPU      0.55s WALL (      16 calls)

     Called by c_bands:
     init_us_2    :      0.13s CPU      0.13s WALL (      33 calls)
     cegterg      :     21.82s CPU     24.34s WALL (      16 calls)

     Called by *egterg:
     cdiaghg      :      0.62s CPU      0.75s WALL (      74 calls)
     h_psi        :     19.52s CPU     21.41s WALL (      75 calls)
     s_psi        :      0.20s CPU      0.18s WALL (      75 calls)
     g_psi        :      0.02s CPU      0.02s WALL (      58 calls)

     Called by h_psi:
     h_psi:calbec :      0.65s CPU      0.68s WALL (      75 calls)
     vloc_psi     :     18.53s CPU     20.28s WALL (      75 calls)
                                        0.00s GPU  (      75 calls)
     add_vuspsi   :      0.25s CPU      0.27s WALL (      75 calls)

     General routines
     calbec       :      0.91s CPU      0.97s WALL (      91 calls)
     fft          :      2.18s CPU      2.75s WALL (     219 calls)
     ffts         :      0.34s CPU      0.38s WALL (      33 calls)
     fftw         :     21.92s CPU     24.13s WALL (    4468 calls)
     interpolate  :      0.40s CPU      0.54s WALL (      17 calls)

     Parallel routines

     PWSCF        :   1m 1.23s CPU   1m 8.70s WALL


   This run was terminated on:  10:10:22   4Dec2025            

=------------------------------------------------------------------------------=
   JOB DONE.
=------------------------------------------------------------------------------=
