
     Program PWSCF v.7.5 starts on  4Dec2025 at 10:33:51 

     This program is part of the open-source Quantum ESPRESSO suite
     for quantum simulation of materials; please cite
         "P. Giannozzi et al., J. Phys.:Condens. Matter 21 395502 (2009);
         "P. Giannozzi et al., J. Phys.:Condens. Matter 29 465901 (2017);
         "P. Giannozzi et al., J. Chem. Phys. 152 154105 (2020);
          URL http://www.quantum-espresso.org", 
     in publications or presentations arising from this work. More details at
     http://www.quantum-espresso.org/quote

     Parallel version (MPI & OpenMP), running on      16 processor cores
     Number of MPI processes:                 4
     Threads/MPI process:                     4

     MPI processes distributed on     1 nodes
     418401 MiB available memory on the printing compute node when the environment starts

     Reading input from qe/gap10/cu_ta_gap10.in
Warning: card &CELL ignored
Warning: card &FCP ignored
Warning: card &RISM ignored

     Current dimensions of program PWSCF are:
     Max number of different atomic species (ntypx) = 10
     Max number of k-points (npk) =  40000
     Max angular momentum in pseudopotentials (lmaxx) =  4
     file Cu.paw.z_11.ld1.psl.v1.0.0-low.upf: wavefunction(s)  4S 3D renormalized
     Message from routine setup:
     using ibrav=0 with symmetry is DISCOURAGED, use correct ibrav instead

     R & G space division:  proc/nbgrp/npool/nimage =       4
     Subspace diagonalization in iterative solution of the eigenvalue problem:
     a serial algorithm will be used


     Parallelization info
     --------------------
     sticks:   dense  smooth     PW     G-vecs:    dense   smooth      PW
     Min         480     289     73                67038    31201    3897
     Max         481     290     74                67053    31218    3902
     Sum        1921    1159    295               268181   124847   15603

     Using Slab Decomposition



     bravais-lattice index     =            0
     lattice parameter (alat)  =       9.6610  a.u.
     unit-cell volume          =    3054.9480 (a.u.)^3
     number of atoms/cell      =            7
     number of atomic types    =            2
     number of electrons       =        83.00
     number of Kohn-Sham states=           50
     kinetic-energy cutoff     =      45.0000  Ry
     charge density cutoff     =     300.0000  Ry
     scf convergence threshold =      1.0E-04
     mixing beta               =       0.3000
     number of iterations used =            8  plain     mixing
     Exchange-correlation= SLA  PW   PBX  PBC
                           (   1   4   3   4   0   0   0)

     celldm(1)=   9.661002  celldm(2)=   0.000000  celldm(3)=   0.000000
     celldm(4)=   0.000000  celldm(5)=   0.000000  celldm(6)=   0.000000

     crystal axes: (cart. coord. in units of alat)
               a(1) = (   1.000000   0.000000   0.000000 )  
               a(2) = (   0.500000   0.866025   0.000000 )  
               a(3) = (   0.000000   0.000000   3.912071 )  

     reciprocal axes: (cart. coord. in units 2 pi/alat)
               b(1) = (  1.000000 -0.577350  0.000000 )  
               b(2) = (  0.000000  1.154701  0.000000 )  
               b(3) = (  0.000000  0.000000  0.255619 )  


     PseudoPot. # 1 for Ta read from file:
     /apps/QE/pseudo/efficiency/Ta_pbe_v1.uspp.F.UPF
     MD5 check sum: f8bbe9446314a3b8ea5d9f3e3836c939
     Pseudo is Ultrasoft + core correction, Zval = 13.0
     Generated by new atomic code, or converted to UPF format
     Using radial grid of  921 points,  7 beta functions with: 
                l(1) =   0
                l(2) =   0
                l(3) =   1
                l(4) =   1
                l(5) =   2
                l(6) =   2
                l(7) =   3
     Q(r) pseudized with  6 coefficients,  rinner =    1.300   1.300   1.300
                                                       1.300   1.300   1.300
                                                       1.300

     PseudoPot. # 2 for Cu read from file:
     /apps/QE/pseudo/efficiency/Cu.paw.z_11.ld1.psl.v1.0.0-low.upf
     MD5 check sum: 619f40885d92a09a85a8b37550532d0c
     Pseudo is Projector augmented-wave + core cor, Zval = 11.0
     Generated using &quot;atomic&quot; code by A. Dal Corso  v.6.3MaX
     Shape of augmentation charge: PSQ
     Using radial grid of 1199 points,  6 beta functions with: 
                l(1) =   0
                l(2) =   0
                l(3) =   1
                l(4) =   1
                l(5) =   2
                l(6) =   2
     Q(r) pseudized with 0 coefficients 


     atomic species   valence    mass     pseudopotential
     Ta               13.00   180.94788     Ta( 1.00)
     Cu               11.00    63.54600     Cu( 1.00)

     12 Sym. Ops. (no inversion) found ( 6 have fractional translation)



   Cartesian axes

     site n.     atom                  positions (alat units)
         1        Ta     tau(   1) = (   0.0000000   0.0000000   3.0737699  )
         2        Ta     tau(   2) = (   0.5000000   0.2886751   3.0737699  )
         3        Ta     tau(   3) = (   1.0000000   0.5773503   3.0737699  )
         4        Cu     tau(   4) = (   0.7500000   0.1443376   1.1177345  )
         5        Cu     tau(   5) = (   0.2500000   0.1443376   1.1177345  )
         6        Cu     tau(   6) = (   1.0000000   0.5773503   1.1177345  )
         7        Cu     tau(   7) = (   0.5000000   0.5773503   1.1177345  )

     number of k points=     1  Methfessel-Paxton smearing, width (Ry)=  0.0200
                       cart. coord. in units 2pi/alat
        k(    1) = (   0.0000000   0.0000000   0.0000000), wk =   2.0000000

     Dense  grid:   268181 G-vectors     FFT dimensions: (  54,  54, 216)

     Smooth grid:   124847 G-vectors     FFT dimensions: (  45,  45, 162)

     Estimated max dynamical RAM per process >     421.55 MB

     Estimated total dynamical RAM >       1.65 GB

     Check: negative core charge=   -0.000002

     Initial potential from superposition of free atoms

     starting charge      82.9958, renormalised to      83.0000

     negative rho (up, down):  2.878E-01 0.000E+00
     Starting wfcs are   75 randomized atomic wfcs
     Checking if some PAW data can be deallocated... 

     total cpu time spent up to now is        9.9 secs

     per-process dynamical memory:    95.9 Mb

     Self-consistent Calculation

     iteration #  1     ecut=    45.00 Ry     beta= 0.30
     Davidson diagonalization with overlap
     ethr =  1.00E-02,  avg # of iterations =  2.0

     negative rho (up, down):  2.927E-01 0.000E+00

     total cpu time spent up to now is       21.6 secs

     total energy              =   -1273.80965305 Ry
     estimated scf accuracy    <       5.32536056 Ry

     iteration #  2     ecut=    45.00 Ry     beta= 0.30
     Davidson diagonalization with overlap
     ethr =  6.42E-03,  avg # of iterations = 11.0

     negative rho (up, down):  2.927E-01 0.000E+00

     total cpu time spent up to now is       41.6 secs

     total energy              =   -1272.56702489 Ry
     estimated scf accuracy    <     279.40863715 Ry

     iteration #  3     ecut=    45.00 Ry     beta= 0.30
     Davidson diagonalization with overlap
     ethr =  6.42E-03,  avg # of iterations = 17.0

     negative rho (up, down):  2.936E-01 0.000E+00

     total cpu time spent up to now is       60.5 secs

     total energy              =   -1275.31345468 Ry
     estimated scf accuracy    <      33.12994541 Ry

     iteration #  4     ecut=    45.00 Ry     beta= 0.30
     Davidson diagonalization with overlap
     ethr =  6.42E-03,  avg # of iterations =  1.0

     negative rho (up, down):  2.945E-01 0.000E+00

     total cpu time spent up to now is       72.5 secs

     total energy              =   -1275.60214879 Ry
     estimated scf accuracy    <       1.61631967 Ry

     iteration #  5     ecut=    45.00 Ry     beta= 0.30
     Davidson diagonalization with overlap
     ethr =  1.95E-03,  avg # of iterations =  2.0

     negative rho (up, down):  2.931E-01 0.000E+00

     total cpu time spent up to now is       84.7 secs

     total energy              =   -1275.85933676 Ry
     estimated scf accuracy    <       9.23581251 Ry

     iteration #  6     ecut=    45.00 Ry     beta= 0.30
     Davidson diagonalization with overlap
     ethr =  1.95E-03,  avg # of iterations =  2.0

     negative rho (up, down):  3.069E-01 0.000E+00

     total cpu time spent up to now is       98.6 secs

     total energy              =   -1273.69743790 Ry
     estimated scf accuracy    <      11.19040516 Ry

     iteration #  7     ecut=    45.00 Ry     beta= 0.30
     Davidson diagonalization with overlap
     ethr =  1.95E-03,  avg # of iterations = 14.0
     Minimization algorithm failed to find Fermi energy: reverting to bisection
     Possible cause: smearing is larger than the electronic band-gap.

     negative rho (up, down):  3.048E-01 0.000E+00

     total cpu time spent up to now is      128.3 secs

     total energy              =   -1281.62517618 Ry
     estimated scf accuracy    <     732.64382539 Ry

     iteration #  8     ecut=    45.00 Ry     beta= 0.30
     Davidson diagonalization with overlap
     ethr =  1.95E-03,  avg # of iterations =  1.0

     negative rho (up, down):  3.051E-01 0.000E+00

     total cpu time spent up to now is      142.6 secs

     total energy              =   -1281.92023813 Ry
     estimated scf accuracy    <     496.04431463 Ry

     iteration #  9     ecut=    45.00 Ry     beta= 0.30
     Davidson diagonalization with overlap
     ethr =  1.95E-03,  avg # of iterations =  1.0

     negative rho (up, down):  3.051E-01 0.000E+00

     total cpu time spent up to now is      156.3 secs

     total energy              =   -1281.89994727 Ry
     estimated scf accuracy    <     495.61577633 Ry

     iteration # 10     ecut=    45.00 Ry     beta= 0.30
     Davidson diagonalization with overlap
     ethr =  1.95E-03,  avg # of iterations =  1.0

     negative rho (up, down):  3.061E-01 0.000E+00

     total cpu time spent up to now is      170.6 secs

     total energy              =   -1282.12032408 Ry
     estimated scf accuracy    <     495.45487879 Ry

     iteration # 11     ecut=    45.00 Ry     beta= 0.30
     Davidson diagonalization with overlap
     ethr =  1.95E-03,  avg # of iterations =  1.0

     negative rho (up, down):  3.090E-01 0.000E+00

     total cpu time spent up to now is      185.0 secs

     total energy              =   -1279.97524682 Ry
     estimated scf accuracy    <     495.86297370 Ry

     iteration # 12     ecut=    45.00 Ry     beta= 0.30
     Davidson diagonalization with overlap
     ethr =  1.95E-03,  avg # of iterations =  1.0

     negative rho (up, down):  3.157E-01 0.000E+00

     total cpu time spent up to now is      199.0 secs

     total energy              =   -1272.90943561 Ry
     estimated scf accuracy    <     409.44728503 Ry

     iteration # 13     ecut=    45.00 Ry     beta= 0.30
     Davidson diagonalization with overlap
     ethr =  1.95E-03,  avg # of iterations =  2.0

     negative rho (up, down):  3.108E-01 0.000E+00

     total cpu time spent up to now is      213.1 secs

     total energy              =   -1276.26584425 Ry
     estimated scf accuracy    <      47.64263846 Ry

     iteration # 14     ecut=    45.00 Ry     beta= 0.30
     Davidson diagonalization with overlap
     ethr =  1.95E-03,  avg # of iterations =  1.0

     negative rho (up, down):  3.246E-01 0.000E+00

     total cpu time spent up to now is      230.3 secs

     total energy              =   -1274.06123896 Ry
     estimated scf accuracy    <      47.84249007 Ry

     iteration # 15     ecut=    45.00 Ry     beta= 0.30
     Davidson diagonalization with overlap
     ethr =  1.95E-03,  avg # of iterations = 13.0

     negative rho (up, down):  3.247E-01 0.000E+00

     total cpu time spent up to now is      258.8 secs

     total energy              =   -1278.04668650 Ry
     estimated scf accuracy    <      20.53372792 Ry

     iteration # 16     ecut=    45.00 Ry     beta= 0.30
     Davidson diagonalization with overlap
     ethr =  1.95E-03,  avg # of iterations =  1.0

     negative rho (up, down):  2.987E-01 0.000E+00

     total cpu time spent up to now is      276.6 secs

     total energy              =   -1273.51642167 Ry
     estimated scf accuracy    <      80.01861788 Ry

     iteration # 17     ecut=    45.00 Ry     beta= 0.30
     Davidson diagonalization with overlap
     ethr =  1.95E-03,  avg # of iterations =  2.0

     negative rho (up, down):  2.978E-01 0.000E+00

     total cpu time spent up to now is      298.4 secs

     total energy              =   -1276.31340684 Ry
     estimated scf accuracy    <      22.88796783 Ry

     iteration # 18     ecut=    45.00 Ry     beta= 0.30
     Davidson diagonalization with overlap
     ethr =  1.95E-03,  avg # of iterations =  1.0

     negative rho (up, down):  2.991E-01 0.000E+00

     total cpu time spent up to now is      321.2 secs

     total energy              =   -1276.12331128 Ry
     estimated scf accuracy    <       4.20081834 Ry

     iteration # 19     ecut=    45.00 Ry     beta= 0.30
     Davidson diagonalization with overlap
     ethr =  1.95E-03,  avg # of iterations =  1.0

     negative rho (up, down):  2.989E-01 0.000E+00

     total cpu time spent up to now is      343.4 secs

     total energy              =   -1276.19392247 Ry
     estimated scf accuracy    <       0.18303980 Ry

     iteration # 20     ecut=    45.00 Ry     beta= 0.30
     Davidson diagonalization with overlap
     ethr =  2.21E-04,  avg # of iterations =  1.0

     negative rho (up, down):  2.993E-01 0.000E+00

     total cpu time spent up to now is      365.8 secs

     total energy              =   -1276.20513038 Ry
     estimated scf accuracy    <       3.02625525 Ry

     iteration # 21     ecut=    45.00 Ry     beta= 0.30
     Davidson diagonalization with overlap
     ethr =  2.21E-04,  avg # of iterations =  1.0

     negative rho (up, down):  2.991E-01 0.000E+00

     total cpu time spent up to now is      388.1 secs

     total energy              =   -1276.21036926 Ry
     estimated scf accuracy    <       1.40254132 Ry

     iteration # 22     ecut=    45.00 Ry     beta= 0.30
     Davidson diagonalization with overlap
     ethr =  2.21E-04,  avg # of iterations =  9.0

     negative rho (up, down):  3.018E-01 0.000E+00

     total cpu time spent up to now is      415.1 secs

     total energy              =   -1276.16422181 Ry
     estimated scf accuracy    <       2.51693531 Ry

     iteration # 23     ecut=    45.00 Ry     beta= 0.30
     Davidson diagonalization with overlap
     ethr =  2.21E-04,  avg # of iterations =  1.0

     negative rho (up, down):  3.000E-01 0.000E+00

     total cpu time spent up to now is      437.4 secs

     total energy              =   -1276.19737629 Ry
     estimated scf accuracy    <       0.23124505 Ry

     iteration # 24     ecut=    45.00 Ry     beta= 0.30
     Davidson diagonalization with overlap
     ethr =  2.21E-04,  avg # of iterations =  3.0

     negative rho (up, down):  3.008E-01 0.000E+00

     total cpu time spent up to now is      463.5 secs

     total energy              =   -1276.23483098 Ry
     estimated scf accuracy    <       0.97889844 Ry

     iteration # 25     ecut=    45.00 Ry     beta= 0.30
     Davidson diagonalization with overlap
     ethr =  2.21E-04,  avg # of iterations =  1.0

     negative rho (up, down):  2.999E-01 0.000E+00

     total cpu time spent up to now is      486.0 secs

     total energy              =   -1276.24182953 Ry
     estimated scf accuracy    <       3.45371198 Ry

     iteration # 26     ecut=    45.00 Ry     beta= 0.30
     Davidson diagonalization with overlap
     ethr =  2.21E-04,  avg # of iterations =  2.0

     negative rho (up, down):  2.986E-01 0.000E+00

     total cpu time spent up to now is      509.4 secs

     total energy              =   -1276.21470203 Ry
     estimated scf accuracy    <       0.93032740 Ry

     iteration # 27     ecut=    45.00 Ry     beta= 0.30
     Davidson diagonalization with overlap
     ethr =  2.21E-04,  avg # of iterations = 18.0

     negative rho (up, down):  2.982E-01 0.000E+00

     total cpu time spent up to now is      542.0 secs

     total energy              =   -1276.15839599 Ry
     estimated scf accuracy    <       4.43793259 Ry

     iteration # 28     ecut=    45.00 Ry     beta= 0.30
     Davidson diagonalization with overlap
     ethr =  2.21E-04,  avg # of iterations =  2.0

     negative rho (up, down):  2.985E-01 0.000E+00

     total cpu time spent up to now is      565.6 secs

     total energy              =   -1276.16854611 Ry
     estimated scf accuracy    <       0.88613320 Ry

     iteration # 29     ecut=    45.00 Ry     beta= 0.30
     Davidson diagonalization with overlap
     ethr =  2.21E-04,  avg # of iterations =  1.0

     negative rho (up, down):  3.029E-01 0.000E+00

     total cpu time spent up to now is      587.4 secs

     total energy              =   -1276.19305721 Ry
     estimated scf accuracy    <       0.26027553 Ry

     iteration # 30     ecut=    45.00 Ry     beta= 0.30
     Davidson diagonalization with overlap
     ethr =  2.21E-04,  avg # of iterations =  2.0

     negative rho (up, down):  2.998E-01 0.000E+00

     total cpu time spent up to now is      610.4 secs

     total energy              =   -1276.09922222 Ry
     estimated scf accuracy    <       1.03261477 Ry

     iteration # 31     ecut=    45.00 Ry     beta= 0.30
     Davidson diagonalization with overlap
     ethr =  2.21E-04,  avg # of iterations =  2.0

     negative rho (up, down):  3.000E-01 0.000E+00

     total cpu time spent up to now is      634.0 secs

     total energy              =   -1275.95959242 Ry
     estimated scf accuracy    <      14.04618083 Ry

     iteration # 32     ecut=    45.00 Ry     beta= 0.30
     Davidson diagonalization with overlap
     ethr =  2.21E-04,  avg # of iterations =  2.0

     negative rho (up, down):  3.009E-01 0.000E+00

     total cpu time spent up to now is      657.2 secs

     total energy              =   -1276.13908116 Ry
     estimated scf accuracy    <       2.57406927 Ry

     iteration # 33     ecut=    45.00 Ry     beta= 0.30
     Davidson diagonalization with overlap
     ethr =  2.21E-04,  avg # of iterations =  1.0

     negative rho (up, down):  3.019E-01 0.000E+00

     total cpu time spent up to now is      679.1 secs

     total energy              =   -1276.15144214 Ry
     estimated scf accuracy    <       0.11244806 Ry

     iteration # 34     ecut=    45.00 Ry     beta= 0.30
     Davidson diagonalization with overlap
     ethr =  1.35E-04,  avg # of iterations =  1.0

     negative rho (up, down):  3.025E-01 0.000E+00

     total cpu time spent up to now is      701.1 secs

     total energy              =   -1276.14116251 Ry
     estimated scf accuracy    <       0.54726696 Ry

     iteration # 35     ecut=    45.00 Ry     beta= 0.30
     Davidson diagonalization with overlap
     ethr =  1.35E-04,  avg # of iterations =  2.0

     negative rho (up, down):  3.025E-01 0.000E+00

     total cpu time spent up to now is      723.9 secs

     total energy              =   -1276.14998082 Ry
     estimated scf accuracy    <       0.90970284 Ry

     iteration # 36     ecut=    45.00 Ry     beta= 0.30
     Davidson diagonalization with overlap
     ethr =  1.35E-04,  avg # of iterations =  1.0

     negative rho (up, down):  3.027E-01 0.000E+00

     total cpu time spent up to now is      745.9 secs

     total energy              =   -1276.14647682 Ry
     estimated scf accuracy    <       0.61711287 Ry

     iteration # 37     ecut=    45.00 Ry     beta= 0.30
     Davidson diagonalization with overlap
     ethr =  1.35E-04,  avg # of iterations =  1.0

     negative rho (up, down):  3.028E-01 0.000E+00

     total cpu time spent up to now is      767.4 secs

     total energy              =   -1276.14866393 Ry
     estimated scf accuracy    <       0.00029994 Ry

     iteration # 38     ecut=    45.00 Ry     beta= 0.30
     Davidson diagonalization with overlap
     ethr =  3.61E-07,  avg # of iterations =  5.0

     negative rho (up, down):  3.029E-01 0.000E+00

     total cpu time spent up to now is      794.3 secs

     total energy              =   -1276.14868674 Ry
     estimated scf accuracy    <       0.00881190 Ry

     iteration # 39     ecut=    45.00 Ry     beta= 0.30
     Davidson diagonalization with overlap
     ethr =  3.61E-07,  avg # of iterations =  2.0

     negative rho (up, down):  3.029E-01 0.000E+00

     total cpu time spent up to now is      817.9 secs

     total energy              =   -1276.14874677 Ry
     estimated scf accuracy    <       0.00018986 Ry

     iteration # 40     ecut=    45.00 Ry     beta= 0.30
     Davidson diagonalization with overlap
     ethr =  2.29E-07,  avg # of iterations =  1.0

     negative rho (up, down):  3.030E-01 0.000E+00

     total cpu time spent up to now is      840.2 secs

     total energy              =   -1276.14874534 Ry
     estimated scf accuracy    <       0.00366263 Ry

     iteration # 41     ecut=    45.00 Ry     beta= 0.30
     Davidson diagonalization with overlap
     ethr =  2.29E-07,  avg # of iterations =  1.0

     negative rho (up, down):  3.030E-01 0.000E+00

     total cpu time spent up to now is      862.2 secs

     total energy              =   -1276.14873981 Ry
     estimated scf accuracy    <       0.00150100 Ry

     iteration # 42     ecut=    45.00 Ry     beta= 0.30
     Davidson diagonalization with overlap
     ethr =  2.29E-07,  avg # of iterations =  1.0

     negative rho (up, down):  3.030E-01 0.000E+00

     total cpu time spent up to now is      884.1 secs

     total energy              =   -1276.14874300 Ry
     estimated scf accuracy    <       0.00011570 Ry

     iteration # 43     ecut=    45.00 Ry     beta= 0.30
     Davidson diagonalization with overlap
     ethr =  1.39E-07,  avg # of iterations =  1.0

     negative rho (up, down):  3.030E-01 0.000E+00

     total cpu time spent up to now is      905.7 secs

     End of self-consistent calculation

          k = 0.0000 0.0000 0.0000 ( 15603 PWs)   bands (ev):

   -67.5190 -67.4454 -67.4449 -34.3465 -34.2123 -34.2118 -34.0044 -34.0044
   -34.0041 -34.0041 -33.4134 -33.4134  -7.1802  -5.5286  -4.6520  -4.6515
    -4.6515  -3.3793  -3.3786  -3.3786  -3.1776  -3.1776  -2.7768  -2.2026
    -2.2020  -2.2020  -2.1392  -2.1392  -2.1381  -1.9684  -1.9684  -1.8218
    -1.8209  -1.8209  -0.5736   0.0021   0.0136   0.0136   0.0136   0.0136
     0.1449   0.1449   0.1453   0.1453   0.3323   0.3326   0.3326   0.3819
     1.3392   1.3392

     the Fermi energy is     0.1468 ev

!    total energy              =   -1276.14874323 Ry
     estimated scf accuracy    <       0.00000066 Ry
     smearing contrib. (-TS)   =      -0.03300570 Ry
     internal energy E=F+TS    =   -1276.11573753 Ry

     The total energy is F=E-TS. E is the sum of the following terms:
     one-electron contribution =   -1396.77725657 Ry
     hartree contribution      =     737.02199794 Ry
     xc contribution           =    -304.50254291 Ry
     ewald contribution        =      47.31874395 Ry
     one-center paw contrib.   =    -359.17667995 Ry

     convergence has been achieved in  43 iterations

     Writing all to output data dir ./tmp/CuTa_gap10.save/ :
     XML data file, charge density, pseudopotentials, collected wavefunctions

     init_run     :      4.81s CPU      9.48s WALL (       1 calls)
     electrons    :    234.93s CPU    895.91s WALL (       1 calls)

     Called by init_run:
     wfcinit      :      1.92s CPU      4.40s WALL (       1 calls)
     potinit      :      1.40s CPU      2.69s WALL (       1 calls)
     hinit0       :      0.73s CPU      1.20s WALL (       1 calls)

     Called by electrons:
     c_bands      :    105.44s CPU    462.10s WALL (      43 calls)
     sum_band     :     54.36s CPU    182.34s WALL (      43 calls)
     v_of_rho     :      9.28s CPU     38.94s WALL (      44 calls)
     newd         :     30.02s CPU     82.25s WALL (      44 calls)
     PAW_pot      :     29.83s CPU    105.30s WALL (      44 calls)
     mix_rho      :      4.61s CPU     16.87s WALL (      43 calls)

     Called by c_bands:
     init_us_2    :      0.42s CPU      0.96s WALL (      87 calls)
     cegterg      :    104.08s CPU    458.95s WALL (      43 calls)

     Called by *egterg:
     cdiaghg      :      1.81s CPU      5.27s WALL (     180 calls)
     h_psi        :     91.32s CPU    402.77s WALL (     181 calls)
     s_psi        :      0.79s CPU      2.86s WALL (     181 calls)
     g_psi        :      0.10s CPU      0.39s WALL (     137 calls)

     Called by h_psi:
     h_psi:calbec :      4.90s CPU     22.18s WALL (     181 calls)
     vloc_psi     :     85.40s CPU    376.50s WALL (     181 calls)
                                        0.00s GPU  (     181 calls)
     add_vuspsi   :      0.69s CPU      2.14s WALL (     181 calls)

     General routines
     calbec       :      6.28s CPU     29.00s WALL (     224 calls)
     fft          :      8.02s CPU     36.87s WALL (     570 calls)
     ffts         :      1.01s CPU      4.80s WALL (      87 calls)
     fftw         :    101.66s CPU    452.94s WALL (   12004 calls)
     interpolate  :      1.99s CPU      6.59s WALL (      44 calls)

     Parallel routines

     PWSCF        :   4m 0.33s CPU  15m 6.64s WALL


   This run was terminated on:  10:48:57   4Dec2025            

=------------------------------------------------------------------------------=
   JOB DONE.
=------------------------------------------------------------------------------=
