
     Program PWSCF v.7.5 starts on  4Dec2025 at 10: 5:35 

     This program is part of the open-source Quantum ESPRESSO suite
     for quantum simulation of materials; please cite
         "P. Giannozzi et al., J. Phys.:Condens. Matter 21 395502 (2009);
         "P. Giannozzi et al., J. Phys.:Condens. Matter 29 465901 (2017);
         "P. Giannozzi et al., J. Chem. Phys. 152 154105 (2020);
          URL http://www.quantum-espresso.org", 
     in publications or presentations arising from this work. More details at
     http://www.quantum-espresso.org/quote

     Parallel version (MPI & OpenMP), running on      16 processor cores
     Number of MPI processes:                 4
     Threads/MPI process:                     4

     MPI processes distributed on     1 nodes
     419304 MiB available memory on the printing compute node when the environment starts

     Reading input from qe/gap1/cu_ta_gap1.in
Warning: card &CELL ignored
Warning: card &FCP ignored
Warning: card &RISM ignored

     Current dimensions of program PWSCF are:
     Max number of different atomic species (ntypx) = 10
     Max number of k-points (npk) =  40000
     Max angular momentum in pseudopotentials (lmaxx) =  4
     file Cu.paw.z_11.ld1.psl.v1.0.0-low.upf: wavefunction(s)  4S 3D renormalized
     Message from routine setup:
     using ibrav=0 with symmetry is DISCOURAGED, use correct ibrav instead

     R & G space division:  proc/nbgrp/npool/nimage =       4
     Subspace diagonalization in iterative solution of the eigenvalue problem:
     a serial algorithm will be used


     Parallelization info
     --------------------
     sticks:   dense  smooth     PW     G-vecs:    dense   smooth      PW
     Min         480     289     73                36844    17133    2147
     Max         481     290     74                36853    17142    2150
     Sum        1921    1159    295               147391    68555    8595

     Using Slab Decomposition



     bravais-lattice index     =            0
     lattice parameter (alat)  =       9.6610  a.u.
     unit-cell volume          =    1680.2214 (a.u.)^3
     number of atoms/cell      =            7
     number of atomic types    =            2
     number of electrons       =        83.00
     number of Kohn-Sham states=           50
     kinetic-energy cutoff     =      45.0000  Ry
     charge density cutoff     =     300.0000  Ry
     scf convergence threshold =      1.0E-04
     mixing beta               =       0.3000
     number of iterations used =            8  plain     mixing
     Exchange-correlation= SLA  PW   PBX  PBC
                           (   1   4   3   4   0   0   0)

     celldm(1)=   9.661002  celldm(2)=   0.000000  celldm(3)=   0.000000
     celldm(4)=   0.000000  celldm(5)=   0.000000  celldm(6)=   0.000000

     crystal axes: (cart. coord. in units of alat)
               a(1) = (   1.000000   0.000000   0.000000 )  
               a(2) = (   0.500000   0.866025   0.000000 )  
               a(3) = (   0.000000   0.000000   2.151639 )  

     reciprocal axes: (cart. coord. in units 2 pi/alat)
               b(1) = (  1.000000 -0.577350  0.000000 )  
               b(2) = (  0.000000  1.154701  0.000000 )  
               b(3) = (  0.000000  0.000000  0.464762 )  


     PseudoPot. # 1 for Ta read from file:
     /apps/QE/pseudo/efficiency/Ta_pbe_v1.uspp.F.UPF
     MD5 check sum: f8bbe9446314a3b8ea5d9f3e3836c939
     Pseudo is Ultrasoft + core correction, Zval = 13.0
     Generated by new atomic code, or converted to UPF format
     Using radial grid of  921 points,  7 beta functions with: 
                l(1) =   0
                l(2) =   0
                l(3) =   1
                l(4) =   1
                l(5) =   2
                l(6) =   2
                l(7) =   3
     Q(r) pseudized with  6 coefficients,  rinner =    1.300   1.300   1.300
                                                       1.300   1.300   1.300
                                                       1.300

     PseudoPot. # 2 for Cu read from file:
     /apps/QE/pseudo/efficiency/Cu.paw.z_11.ld1.psl.v1.0.0-low.upf
     MD5 check sum: 619f40885d92a09a85a8b37550532d0c
     Pseudo is Projector augmented-wave + core cor, Zval = 11.0
     Generated using &quot;atomic&quot; code by A. Dal Corso  v.6.3MaX
     Shape of augmentation charge: PSQ
     Using radial grid of 1199 points,  6 beta functions with: 
                l(1) =   0
                l(2) =   0
                l(3) =   1
                l(4) =   1
                l(5) =   2
                l(6) =   2
     Q(r) pseudized with 0 coefficients 


     atomic species   valence    mass     pseudopotential
     Ta               13.00   180.94788     Ta( 1.00)
     Cu               11.00    63.54600     Cu( 1.00)

     12 Sym. Ops. (no inversion) found ( 6 have fractional translation)



   Cartesian axes

     site n.     atom                  positions (alat units)
         1        Ta     tau(   1) = (   0.0000000   0.0000000   1.1875929  )
         2        Ta     tau(   2) = (   0.5000000   0.2886751   1.1875929  )
         3        Ta     tau(   3) = (   1.0000000   0.5773503   1.1875929  )
         4        Cu     tau(   4) = (   0.7500000   0.1443376   0.9919894  )
         5        Cu     tau(   5) = (   0.2500000   0.1443376   0.9919894  )
         6        Cu     tau(   6) = (   1.0000000   0.5773503   0.9919894  )
         7        Cu     tau(   7) = (   0.5000000   0.5773503   0.9919894  )

     number of k points=     1  Methfessel-Paxton smearing, width (Ry)=  0.0200
                       cart. coord. in units 2pi/alat
        k(    1) = (   0.0000000   0.0000000   0.0000000), wk =   2.0000000

     Dense  grid:   147391 G-vectors     FFT dimensions: (  54,  54, 120)

     Smooth grid:    68555 G-vectors     FFT dimensions: (  45,  45,  90)

     Estimated max dynamical RAM per process >     234.09 MB

     Estimated total dynamical RAM >     936.37 MB

     Check: negative core charge=   -0.000002

     Initial potential from superposition of free atoms

     starting charge      82.9958, renormalised to      83.0000

     negative rho (up, down):  2.681E-01 0.000E+00
     Starting wfcs are   75 randomized atomic wfcs
     Checking if some PAW data can be deallocated... 

     total cpu time spent up to now is        3.5 secs

     per-process dynamical memory:    72.6 Mb

     Self-consistent Calculation

     iteration #  1     ecut=    45.00 Ry     beta= 0.30
     Davidson diagonalization with overlap
     ethr =  1.00E-02,  avg # of iterations =  4.0
     Minimization algorithm failed to find Fermi energy: reverting to bisection
     Possible cause: smearing is larger than the electronic band-gap.

     negative rho (up, down):  2.718E-01 0.000E+00

     total cpu time spent up to now is        7.2 secs

     total energy              =   -1261.66717246 Ry
     estimated scf accuracy    <       2.32196015 Ry

     iteration #  2     ecut=    45.00 Ry     beta= 0.30
     Davidson diagonalization with overlap
     ethr =  2.80E-03,  avg # of iterations =  2.0
     Minimization algorithm failed to find Fermi energy: reverting to bisection
     Possible cause: smearing is larger than the electronic band-gap.

     negative rho (up, down):  2.733E-01 0.000E+00

     total cpu time spent up to now is       11.0 secs

     total energy              =   -1261.88929624 Ry
     estimated scf accuracy    <       0.76874897 Ry

     iteration #  3     ecut=    45.00 Ry     beta= 0.30
     Davidson diagonalization with overlap
     ethr =  9.26E-04,  avg # of iterations =  2.0

     negative rho (up, down):  2.749E-01 0.000E+00

     total cpu time spent up to now is       14.4 secs

     total energy              =   -1261.97642227 Ry
     estimated scf accuracy    <       0.22783770 Ry

     iteration #  4     ecut=    45.00 Ry     beta= 0.30
     Davidson diagonalization with overlap
     ethr =  2.75E-04,  avg # of iterations =  2.0

     negative rho (up, down):  2.771E-01 0.000E+00

     total cpu time spent up to now is       18.1 secs

     total energy              =   -1261.97607275 Ry
     estimated scf accuracy    <       0.04841694 Ry

     iteration #  5     ecut=    45.00 Ry     beta= 0.30
     Davidson diagonalization with overlap
     ethr =  5.83E-05,  avg # of iterations =  2.0

     negative rho (up, down):  2.777E-01 0.000E+00

     total cpu time spent up to now is       22.3 secs

     total energy              =   -1261.97932687 Ry
     estimated scf accuracy    <       0.01196299 Ry

     iteration #  6     ecut=    45.00 Ry     beta= 0.30
     Davidson diagonalization with overlap
     ethr =  1.44E-05,  avg # of iterations =  5.0

     negative rho (up, down):  2.779E-01 0.000E+00

     total cpu time spent up to now is       27.9 secs

     total energy              =   -1261.98069815 Ry
     estimated scf accuracy    <       0.00620309 Ry

     iteration #  7     ecut=    45.00 Ry     beta= 0.30
     Davidson diagonalization with overlap
     ethr =  7.47E-06,  avg # of iterations =  2.0

     negative rho (up, down):  2.783E-01 0.000E+00

     total cpu time spent up to now is       31.8 secs

     total energy              =   -1261.98115895 Ry
     estimated scf accuracy    <       0.00072412 Ry

     iteration #  8     ecut=    45.00 Ry     beta= 0.30
     Davidson diagonalization with overlap
     ethr =  8.72E-07,  avg # of iterations =  5.0

     negative rho (up, down):  2.784E-01 0.000E+00

     total cpu time spent up to now is       35.6 secs

     total energy              =   -1261.98109827 Ry
     estimated scf accuracy    <       0.00062997 Ry

     iteration #  9     ecut=    45.00 Ry     beta= 0.30
     Davidson diagonalization with overlap
     ethr =  7.59E-07,  avg # of iterations =  2.0

     negative rho (up, down):  2.784E-01 0.000E+00

     total cpu time spent up to now is       39.1 secs

     total energy              =   -1261.98121426 Ry
     estimated scf accuracy    <       0.00014045 Ry

     iteration # 10     ecut=    45.00 Ry     beta= 0.30
     Davidson diagonalization with overlap
     ethr =  1.69E-07,  avg # of iterations =  2.0

     negative rho (up, down):  2.785E-01 0.000E+00

     total cpu time spent up to now is       43.3 secs

     End of self-consistent calculation

          k = 0.0000 0.0000 0.0000 (  8595 PWs)   bands (ev):

   -64.9700 -63.8783 -63.8022 -36.7771 -36.7771 -31.3722 -31.3722 -31.0139
   -31.0139 -30.9506 -30.5913 -30.3015 -13.0767 -13.0767 -12.9845 -11.8167
   -11.8167  -5.1671  -5.1671  -4.7695  -4.1008  -4.1008  -3.7777  -3.4125
    -3.3316  -3.3316  -2.7212  -2.7212  -2.3528  -2.2323  -2.0906  -2.0906
    -1.8048   0.2209   0.2209   0.7496   2.4238   2.4238   4.0898   4.2058
     4.2058   4.6727   4.8640   4.8640   5.2948   5.2948   5.9411   7.4619
     7.4619   8.1428

     the Fermi energy is     4.6494 ev

!    total energy              =   -1261.98120684 Ry
     estimated scf accuracy    <       0.00002115 Ry
     smearing contrib. (-TS)   =       0.00039845 Ry
     internal energy E=F+TS    =   -1261.98160528 Ry

     The total energy is F=E-TS. E is the sum of the following terms:
     one-electron contribution =   -2460.60019898 Ry
     hartree contribution      =    1273.73216846 Ry
     xc contribution           =    -311.23430215 Ry
     ewald contribution        =     596.37877956 Ry
     one-center paw contrib.   =    -360.25805216 Ry

     convergence has been achieved in  10 iterations

     Writing all to output data dir ./tmp/CuTa_gap1.save/ :
     XML data file, charge density, pseudopotentials, collected wavefunctions

     init_run     :      2.80s CPU      3.18s WALL (       1 calls)
     electrons    :     32.61s CPU     39.81s WALL (       1 calls)

     Called by init_run:
     wfcinit      :      0.47s CPU      0.48s WALL (       1 calls)
     potinit      :      1.20s CPU      1.31s WALL (       1 calls)
     hinit0       :      0.62s CPU      0.75s WALL (       1 calls)

     Called by electrons:
     c_bands      :     12.94s CPU     16.83s WALL (      10 calls)
     sum_band     :      7.08s CPU      8.89s WALL (      10 calls)
     v_of_rho     :      0.99s CPU      1.11s WALL (      11 calls)
     newd         :      4.59s CPU      5.51s WALL (      11 calls)
     PAW_pot      :      7.83s CPU      8.31s WALL (      11 calls)
     mix_rho      :      0.20s CPU      0.23s WALL (      10 calls)

     Called by c_bands:
     init_us_2    :      0.07s CPU      0.09s WALL (      21 calls)
     cegterg      :     12.77s CPU     16.64s WALL (      10 calls)

     Called by *egterg:
     cdiaghg      :      0.31s CPU      0.45s WALL (      38 calls)
     h_psi        :     11.68s CPU     14.83s WALL (      39 calls)
     s_psi        :      0.09s CPU      0.08s WALL (      39 calls)
     g_psi        :      0.01s CPU      0.01s WALL (      28 calls)

     Called by h_psi:
     h_psi:calbec :      0.30s CPU      0.38s WALL (      39 calls)
     vloc_psi     :     11.22s CPU     14.18s WALL (      39 calls)
                                        0.00s GPU  (      39 calls)
     add_vuspsi   :      0.12s CPU      0.19s WALL (      39 calls)

     General routines
     calbec       :      0.47s CPU      0.58s WALL (      49 calls)
     fft          :      1.49s CPU      1.95s WALL (     141 calls)
     ffts         :      0.38s CPU      0.49s WALL (      21 calls)
     fftw         :     13.33s CPU     16.83s WALL (    2940 calls)
     interpolate  :      0.48s CPU      0.61s WALL (      11 calls)

     Parallel routines

     PWSCF        :     35.79s CPU     43.43s WALL


   This run was terminated on:  10: 6:18   4Dec2025            

=------------------------------------------------------------------------------=
   JOB DONE.
=------------------------------------------------------------------------------=
