LAMMPS (29 Aug 2024)
  using 4 OpenMP thread(s) per MPI task
# LAMMPS input generated from LammpsInputFile with pymatgen v2025.10.7

units metal
atom_style atomic
boundary p p p
read_data interface_gap10.data
Reading data file ...
  triclinic box = (0 0 0) to (5.112382 4.427453 37.699265) with tilt (2.556191 0 0)
WARNING: Triclinic box skew is large. LAMMPS will run inefficiently. (src/domain.cpp:221)
  1 by 1 by 1 MPI processor grid
  reading atoms ...
  35 atoms
  read_data CPU = 0.001 seconds
pair_style eam/alloy
pair_coeff * * ../../CuTa.eam.alloy Cu Ta
Reading eam/alloy potential file ../../CuTa.eam.alloy with DATE: 2015-12-09
neighbor 2.0 bin
neigh_modify delay 0 every 1 check yes
thermo 200
timestep 0.001
velocity all create 2000.0 12345 mom yes rot no dist gaussian
fix 1 all nvt temp 2000.0 2000.0 0.1
dump 1 all custom 100 traj.lammpstrj id type x y z
dump_modify 1 sort id
run 20000

CITE-CITE-CITE-CITE-CITE-CITE-CITE-CITE-CITE-CITE-CITE-CITE-CITE

Your simulation uses code contributions which should be cited:

- Type Label Framework: https://doi.org/10.1021/acs.jpcb.3c08419

@Article{Gissinger24,
 author = {Jacob R. Gissinger, Ilia Nikiforov, Yaser Afshar, Brendon Waters, Moon-ki Choi, Daniel S. Karls, Alexander Stukowski, Wonpil Im, Hendrik Heinz, Axel Kohlmeyer, and Ellad B. Tadmor},
 title = {Type Label Framework for Bonded Force Fields in LAMMPS},
 journal = {J. Phys. Chem. B},
 year =    2024,
 volume =  128,
 number =  13,
 pages =   {3282–-3297}
}

CITE-CITE-CITE-CITE-CITE-CITE-CITE-CITE-CITE-CITE-CITE-CITE-CITE

Neighbor list info ...
  update: every = 1 steps, delay = 0 steps, check = yes
  max neighbors/atom: 2000, page size: 100000
  master list distance cutoff = 8.3953371
  ghost atom cutoff = 8.3953371
  binsize = 4.1976686, bins = 2 2 9
  1 neighbor lists, perpetual/occasional/extra = 1 0 0
  (1) pair eam/alloy, perpetual
      attributes: half, newton on
      pair build: half/bin/atomonly/newton/tri
      stencil: half/bin/3d/tri
      bin: standard
Per MPI rank memory allocation (min/avg/max) = 5.989 | 5.989 | 5.989 Mbytes
   Step          Temp          E_pair         E_mol          TotEng         Press     
         0   2000          -158.21922      0             -149.42953      363152.52    
       200   2663.3402     -179.00616      0             -167.30119      97646.372    
       400   1901.742      -185.461        0             -177.10314     -9374.5045    
       600   1886.5899     -185.89291      0             -177.60164     -16394.317    
       800   2229.3222     -187.04101      0             -177.24348      32521.664    
      1000   1565.7576     -188.36934      0             -181.48808      38728.525    
      1200   2182.813      -188.32988      0             -178.73676      23235.822    
      1400   1977.9081     -190.64301      0             -181.95041     -9377.2238    
      1600   2454.5768     -190.19685      0             -179.40936     -11225.507    
      1800   1908.4682     -188.21555      0             -179.82813     -46005.685    
      2000   1906.6991     -189.25085      0             -180.8712      -20754.305    
      2200   1663.9748     -191.40847      0             -184.09556      15209.882    
      2400   2505.4053     -190.93237      0             -179.92151     -23607.145    
      2600   1679.3601     -188.52616      0             -181.14563     -13606.183    
      2800   2126.0221     -187.25873      0             -177.91519     -11772.554    
      3000   1745.1386     -187.56644      0             -179.89682     -13660.579    
      3200   1930.2383     -190.68         0             -182.19691     -5880.3769    
      3400   2220.9096     -188.81079      0             -179.05024     -1243.9782    
      3600   2050.7424     -191.55004      0             -182.53735     -34414.745    
      3800   1438.9247     -189.01188      0             -182.68803     -32136.812    
      4000   2583.1728     -191.68519      0             -180.33255     -10229.245    
      4200   1987.927      -191.97356      0             -183.23693     -15452.089    
      4400   1898.8912     -190.36122      0             -182.01589     -1413.2884    
      4600   1717.4232     -189.54497      0             -181.99716     -15126.215    
      4800   1966.6976     -188.57302      0             -179.92969      36277.016    
      5000   1600.3675     -190.84537      0             -183.812       -34374.925    
      5200   1878.7856     -189.89117      0             -181.6342      -16937.008    
      5400   1954.7175     -188.71469      0             -180.12401     -44540.418    
      5600   2332.9778     -189.71617      0             -179.4631      -10470.501    
      5800   1896.7068     -190.70411      0             -182.36837     -22726.457    
      6000   2276.5583     -190.22274      0             -180.21762     -52866.656    
      6200   1936.5356     -188.90225      0             -180.39147     -54097.867    
      6400   2049.9906     -191.17811      0             -182.16872     -3005.1136    
      6600   1920.1975     -192.14107      0             -183.7021      -8336.7444    
      6800   2145.5156     -191.66665      0             -182.23744      4680.5766    
      7000   1697.6758     -189.24758      0             -181.78656     -9348.2336    
      7200   2433.3701     -190.36959      0             -179.67531     -31294.446    
      7400   1754.5936     -189.62058      0             -181.90941     -9361.0632    
      7600   2557.6316     -191.7966       0             -180.55621     -11886.676    
      7800   1676.0829     -190.85169      0             -183.48556      2145.3165    
      8000   2221.1616     -193.34052      0             -183.57886     -20540.657    
      8200   2393.8451     -190.61531      0             -180.09473      4654.0439    
      8400   2058.8199     -191.85451      0             -182.80631     -19397.313    
      8600   1921.0557     -190.23814      0             -181.7954      -3330.6967    
      8800   2473.2601     -188.37854      0             -177.50894     -1816.4217    
      9000   2025.9466     -191.78662      0             -182.8829      -33696.16     
      9200   2201.2137     -195.14958      0             -185.47559     -17790.461    
      9400   2011.0749     -197.94217      0             -189.10381      16730.21     
      9600   2234.7344     -198.68953      0             -188.86821      33048.858    
      9800   2160.5999     -197.41691      0             -187.92141      9099.5978    
     10000   2345.0331     -195.12081      0             -184.81475     -34023.196    
     10200   1371.6684     -193.38066      0             -187.35239     -60776.045    
     10400   2221.3143     -193.26655      0             -183.50422     -9244.8689    
     10600   2026.8796     -195.47659      0             -186.56877      17762.533    
     10800   2306.8123     -197.67074      0             -187.53265      16838.011    
     11000   2029.9372     -196.34624      0             -187.42498      2254.2243    
     11200   1753.6857     -194.03641      0             -186.32924     -14323.646    
     11400   2471.3483     -194.25329      0             -183.3921      -38527.075    
     11600   2077.697      -195.34623      0             -186.21508     -9907.5906    
     11800   2051.7963     -194.87549      0             -185.85816      2355.5985    
     12000   2134.9016     -192.37564      0             -182.99308      34852.506    
     12200   1551.0875     -195.21818      0             -188.40139      8854.8801    
     12400   2197.1528     -196.02474      0             -186.36859     -12630.503    
     12600   2347.6935     -194.49091      0             -184.17316     -25208.234    
     12800   1739.5763     -194.57446      0             -186.92929     -8287.2146    
     13000   2013.5933     -196.11164      0             -187.26221      3932.9093    
     13200   2299.1942     -194.51238      0             -184.40778      24018.5      
     13400   1953.0493     -196.20818      0             -187.62483      8620.0983    
     13600   2027.8352     -194.5619       0             -185.64988     -4330.6101    
     13800   2559.3783     -194.00656      0             -182.75849     -25256.625    
     14000   1906.1924     -194.86183      0             -186.48441     -39824.382    
     14200   2836.5789     -196.84961      0             -184.38329     -5412.803     
     14400   2078.7195     -196.48289      0             -187.34724      10403.439    
     14600   1850.936      -196.84618      0             -188.7116       15991.029    
     14800   2484.517      -195.13272      0             -184.21366     -17755.929    
     15000   1635.0676     -196.22152      0             -189.03565     -31219.158    
     15200   2406.4531     -196.71658      0             -186.14059     -37680.256    
     15400   2369.0686     -196.69974      0             -186.28805     -5823.9192    
     15600   1892.4776     -198.52832      0             -190.21117     -628.91344    
     15800   2031.641      -196.63613      0             -187.70738      1681.1341    
     16000   1868.1655     -195.96105      0             -187.75076     -32160.932    
     16200   2184.5055     -193.94863      0             -184.34807     -20403.5      
     16400   2061.9395     -193.55642      0             -184.49452     -15170.445    
     16600   1826.4154     -196.68942      0             -188.66261      4177.2344    
     16800   2058.0515     -196.09652      0             -187.0517       7389.7904    
     17000   2470.2706     -197.27463      0             -186.41817      8459.348     
     17200   2060.012      -195.57007      0             -186.51664     -12588.548    
     17400   2447.2692     -195.73959      0             -184.98423     -36189.483    
     17600   1974.0053     -194.60727      0             -185.93182     -48291.573    
     17800   2070.7465     -193.15137      0             -184.05076     -32821.686    
     18000   1874.633      -194.47715      0             -186.23842     -15258.267    
     18200   1621.7181     -195.91229      0             -188.78509     -6758.6544    
     18400   1998.3417     -194.3785       0             -185.5961       6946.1534    
     18600   1609.3138     -194.14653      0             -187.07384     -11273.053    
     18800   2316.991      -193.91362      0             -183.73081     -2527.7595    
     19000   1896.351      -195.31192      0             -186.97776     -43675.246    
     19200   2321.6231     -195.81155      0             -185.60837     -26738.915    
     19400   2402.3264     -192.58417      0             -182.02632     -12613.339    
     19600   1857.394      -194.94074      0             -186.77778      11414.214    
     19800   1884.928      -196.06209      0             -187.77812     -14735.05     
     20000   1996.1094     -193.7363       0             -184.96371     -18799.306    
Loop time of 7.59462 on 4 procs for 20000 steps with 35 atoms

Performance: 227.530 ns/day, 0.105 hours/ns, 2633.445 timesteps/s, 92.171 katom-step/s
32.9% CPU use with 1 MPI tasks x 4 OpenMP threads

MPI task timing breakdown:
Section |  min time  |  avg time  |  max time  |%varavg| %total
---------------------------------------------------------------
Pair    | 5.086      | 5.086      | 5.086      |   0.0 | 66.97
Neigh   | 0.048266   | 0.048266   | 0.048266   |   0.0 |  0.64
Comm    | 0.39278    | 0.39278    | 0.39278    |   0.0 |  5.17
Output  | 0.065752   | 0.065752   | 0.065752   |   0.0 |  0.87
Modify  | 0.060961   | 0.060961   | 0.060961   |   0.0 |  0.80
Other   |            | 1.941      |            |       | 25.56

Nlocal:             35 ave          35 max          35 min
Histogram: 1 0 0 0 0 0 0 0 0 0
Nghost:           1323 ave        1323 max        1323 min
Histogram: 1 0 0 0 0 0 0 0 0 0
Neighs:           2268 ave        2268 max        2268 min
Histogram: 1 0 0 0 0 0 0 0 0 0

Total # of neighbors = 2268
Ave neighs/atom = 64.8
Neighbor list builds = 203
Dangerous builds = 0
Total wall time: 0:00:07
