ITEM: TIMESTEP
0
ITEM: NUMBER OF ATOMS
35
ITEM: BOX BOUNDS xy xz yz pp pp pp
0.0000000000000000e+00 7.6685730000000003e+00 2.5561910000000001e+00
0.0000000000000000e+00 4.4274529999999999e+00 0.0000000000000000e+00
0.0000000000000000e+00 3.7699264999999997e+01 0.0000000000000000e+00
ITEM: ATOMS id type x y z
1 1 2.55619 1.47582 34.2962
2 1 5.11238 2.95164 34.2962
3 1 0 0 34.2962
4 1 5.11238 1.47582 31.9585
5 1 2.55619 2.95164 31.9585
6 1 2.55619 0 31.9585
7 1 2.55619 1.47582 29.6209
8 1 5.11238 2.95164 29.6209
9 1 0 0 29.6209
10 1 5.11238 1.47582 27.2832
11 1 2.55619 2.95164 27.2832
12 1 2.55619 0 27.2832
13 1 2.55619 1.47582 24.9455
14 1 5.11238 2.95164 24.9455
15 1 0 0 24.9455
16 2 1.2781 2.21373 14.9455
17 2 0 0 14.9455
18 2 3.83429 2.21373 14.9455
19 2 2.55619 0 14.9455
20 2 3.83429 3.68954 12.8583
21 2 2.55619 1.47582 12.8583
22 2 6.39048 3.68954 12.8583
23 2 5.11238 1.47582 12.8583
24 2 5.11238 2.95164 10.7712
25 2 3.83429 0.737909 10.7712
26 2 2.55619 2.95164 10.7712
27 2 1.2781 0.737909 10.7712
28 2 1.2781 2.21373 8.6841
29 2 0 0 8.6841
30 2 3.83429 2.21373 8.6841
31 2 2.55619 0 8.6841
32 2 3.83429 3.68954 6.59698
33 2 2.55619 1.47582 6.59698
34 2 6.39048 3.68954 6.59698
35 2 5.11238 1.47582 6.59698
ITEM: TIMESTEP
100
ITEM: NUMBER OF ATOMS
35
ITEM: BOX BOUNDS xy xz yz pp pp pp
0.0000000000000000e+00 7.6685730000000003e+00 2.5561910000000001e+00
0.0000000000000000e+00 4.4274529999999999e+00 0.0000000000000000e+00
0.0000000000000000e+00 3.7699264999999997e+01 0.0000000000000000e+00
ITEM: ATOMS id type x y z
1 1 2.9913 1.6711 33.6506
2 1 5.07226 3.15385 33.8403
3 1 5.11068 0.0217079 33.7159
4 1 4.95324 1.52393 31.9045
5 1 2.3709 2.89136 31.7192
6 1 4.5084 4.3827 31.8592
7 1 2.47572 1.56666 29.6905
8 1 5.11326 3.1302 29.9135
9 1 7.44492 4.27286 30.0884
10 1 5.46549 1.3726 28.3817
11 1 3.40773 2.37734 27.3868
12 1 4.71698 4.37589 27.3284
13 1 2.6581 1.39623 25.4077
14 1 4.68132 2.96836 25.6065
15 1 5.05016 0.797644 25.2167
16 2 1.26922 2.08255 15.5701
17 2 7.54343 4.33504 15.7372
18 2 3.85517 2.09684 16.0786
19 2 5.0669 4.36727 16.2102
20 2 3.64858 3.76576 13.3455
21 2 2.41957 1.5783 13.2272
22 2 6.17996 3.71001 13.1782
23 2 4.90879 1.52423 13.2085
24 2 5.21117 2.8829 10.7929
25 2 3.89716 0.647858 10.7165
26 2 2.64765 2.93264 10.7127
27 2 1.40403 0.700625 10.774
28 2 1.27801 2.19215 8.33126
29 2 5.1452 0.0162772 8.27286
30 2 3.88961 2.21411 8.08862
31 2 5.13749 4.42871 8.18711
32 2 4.01484 3.78141 5.3546
33 2 2.69707 1.5757 5.54014
34 2 6.51728 3.67246 5.85189
35 2 5.22169 1.50341 5.75543
ITEM: TIMESTEP
200
ITEM: NUMBER OF ATOMS
35
ITEM: BOX BOUNDS xy xz yz pp pp pp
0.0000000000000000e+00 7.6685730000000003e+00 2.5561910000000001e+00
0.0000000000000000e+00 4.4274529999999999e+00 0.0000000000000000e+00
0.0000000000000000e+00 3.7699264999999997e+01 0.0000000000000000e+00
ITEM: ATOMS id type x y z
1 1 3.24407 1.13886 33.3833
2 1 5.37938 3.10426 33.4863
3 1 2.70985 4.22772 33.4017
4 1 4.44152 1.91232 31.5684
5 1 1.7819 2.91697 31.9064
6 1 1.52317 0.193023 31.7416
7 1 2.82611 1.48363 29.9368
8 1 4.8897 3.25274 29.9286
9 1 7.17441 4.18602 29.8154
10 1 5.72545 1.85356 27.9296
11 1 3.32666 2.33747 27.8284
12 1 2.592 -0.0621943 27.7617
13 1 2.33139 1.54338 25.772
14 1 4.75128 3.50237 25.7832
15 1 5.33141 0.23946 26.4931
16 2 6.17746 2.13525 16.1553
17 2 2.49255 4.3064 16.4971
18 2 3.65153 2.02288 17.1749
19 2 5.05836 4.27796 17.4647
20 2 3.65941 3.63189 14.3424
21 2 2.29107 1.50959 13.9359
22 2 6.17632 3.80592 13.5376
23 2 4.81889 1.64361 13.5159
24 2 5.30419 2.89323 10.8412
25 2 3.97839 0.664091 10.4562
26 2 2.61937 2.85348 10.5857
27 2 1.39672 0.617695 10.9867
28 2 1.28803 2.20904 8.03405
29 2 2.6533 4.46795 7.92769
30 2 3.92894 2.20898 7.13894
31 2 2.53693 0.0300352 7.25346
32 2 3.98134 3.69524 3.94855
33 2 2.79041 1.46507 4.3774
34 2 6.67277 3.8051 5.32068
35 2 5.47809 1.64031 5.07887
ITEM: TIMESTEP
300
ITEM: NUMBER OF ATOMS
35
ITEM: BOX BOUNDS xy xz yz pp pp pp
0.0000000000000000e+00 7.6685730000000003e+00 2.5561910000000001e+00
0.0000000000000000e+00 4.4274529999999999e+00 0.0000000000000000e+00
0.0000000000000000e+00 3.7699264999999997e+01 0.0000000000000000e+00
ITEM: ATOMS id type x y z
1 1 2.51289 1.08526 33.4692
2 1 5.06065 3.01917 33.4621
3 1 2.86757 4.12528 33.73
4 1 4.59576 1.41993 31.6341
5 1 1.5483 2.9825 31.5248
6 1 1.32659 0.165703 31.584
7 1 2.51884 1.42864 29.8791
8 1 4.90862 3.29239 29.7819
9 1 7.58429 4.41006 29.4072
10 1 6.12175 2.23284 28.1223
11 1 3.76369 2.55477 28.0223
12 1 5.46788 4.9362 27.9971
13 1 2.05729 1.73049 26.0849
14 1 4.91434 2.94677 25.8421
15 1 -0.00872044 0.181751 26.9325
16 2 5.94976 2.33297 16.3975
17 2 7.24878 4.46712 16.943
18 2 3.39602 2.14424 17.765
19 2 4.79004 4.18151 18.2635
20 2 3.9264 3.70575 15.1622
21 2 2.44707 1.54324 14.4406
22 2 6.30901 3.62769 13.1432
23 2 4.84279 1.46981 13.2988
24 2 5.31739 2.82282 10.8825
25 2 3.78111 0.638917 9.74111
26 2 2.74698 2.83494 10.7911
27 2 1.39328 0.641191 11.8111
28 2 1.30835 2.24699 8.48439
29 2 0.104679 0.0348876 7.83192
30 2 3.58395 2.32197 6.33826
31 2 2.39241 0.118186 6.39601
32 2 4.21973 3.71426 3.21657
33 2 3.03044 1.41637 3.49414
34 2 7.17262 3.59576 5.07947
35 2 5.63107 1.50821 4.83411
ITEM: TIMESTEP
400
ITEM: NUMBER OF ATOMS
35
ITEM: BOX BOUNDS xy xz yz pp pp pp
0.0000000000000000e+00 7.6685730000000003e+00 2.5561910000000001e+00
0.0000000000000000e+00 4.4274529999999999e+00 0.0000000000000000e+00
0.0000000000000000e+00 3.7699264999999997e+01 0.0000000000000000e+00
ITEM: ATOMS id type x y z
1 1 2.1029 1.5692 33.2815
2 1 4.91032 2.67765 33.3538
3 1 2.4011 4.21271 33.8369
4 1 4.26165 1.20767 31.6801
5 1 6.81651 3.27919 31.8284
6 1 1.29868 -0.248412 31.7444
7 1 2.37885 1.62051 30.3588
8 1 5.2246 3.18485 30.0074
9 1 5.1544 0.385704 29.1838
10 1 6.49666 2.37426 28.2859
11 1 3.45667 2.60617 28.2889
12 1 2.65932 -0.0460685 27.6502
13 1 2.43181 1.88794 25.9726
14 1 5.25407 2.77634 25.949
15 1 5.32343 0.367641 26.6263
16 2 5.78678 2.15631 16.4869
17 2 4.2088 0.205955 16.8895
18 2 2.79525 2.37597 18.0103
19 2 4.50554 4.39385 18.5241
20 2 3.96246 3.83364 15.5289
21 2 2.68053 1.56497 15.1861
22 2 6.68116 3.49556 13.3625
23 2 4.53561 1.85609 13.3133
24 2 5.1463 2.5174 10.6292
25 2 3.32399 0.749381 9.46042
26 2 2.7133 3.13618 11.0755
27 2 2.00699 0.376951 12.4472
28 2 6.35421 2.23137 8.22287
29 2 0.228968 -0.0952913 7.34681
30 2 3.9608 2.00058 6.41809
31 2 2.51629 -0.0691824 5.76301
32 2 4.51042 3.60501 3.2607
33 2 3.4038 1.31898 3.09484
34 2 7.10011 3.70686 4.4571
35 2 5.79036 1.50907 4.63516
ITEM: TIMESTEP
500
ITEM: NUMBER OF ATOMS
35
ITEM: BOX BOUNDS xy xz yz pp pp pp
0.0000000000000000e+00 7.6685730000000003e+00 2.5561910000000001e+00
0.0000000000000000e+00 4.4274529999999999e+00 0.0000000000000000e+00
0.0000000000000000e+00 3.7699264999999997e+01 0.0000000000000000e+00
ITEM: ATOMS id type x y z
1 1 2.29621 1.48004 33.1246
2 1 4.82332 2.75632 33.7033
3 1 4.66313 0.339742 33.9226
4 1 4.40059 1.40912 31.5286
5 1 6.47959 3.33662 31.9153
6 1 3.81394 4.05762 31.8436
7 1 2.05616 1.32821 30.0384
8 1 5.20294 3.30941 29.8967
9 1 4.90591 0.305148 29.4148
10 1 6.22086 2.05661 27.7683
11 1 3.67152 2.40574 28.4575
12 1 2.74632 0.27316 27.9366
13 1 3.29643 2.08428 26.3113
14 1 5.26541 2.91059 25.7577
15 1 0.172086 -0.0256282 26.9256
16 2 5.24483 2.13033 16.6194
17 2 3.90978 -0.128044 16.9592
18 2 2.50616 2.64671 18.3325
19 2 1.7138 0.111609 18.1874
20 2 3.72459 4.15695 15.6487
21 2 2.80617 1.62438 15.4258
22 2 6.95912 3.57065 14.1615
23 2 4.7139 1.98264 13.2564
24 2 5.42513 1.81763 10.4923
25 2 2.78756 0.712269 9.00229
26 2 2.42263 3.75125 10.7914
27 2 2.37126 0.476795 12.6585
28 2 6.23122 2.25818 7.54412
29 2 2.90642 4.14005 7.54461
30 2 3.86144 1.90456 6.38315
31 2 5.23624 4.20733 5.99725
32 2 4.83008 3.56645 3.21356
33 2 3.5466 1.28307 3.0186
34 2 2.45655 3.51238 4.08223
35 2 6.05697 1.51166 4.61923
ITEM: TIMESTEP
600
ITEM: NUMBER OF ATOMS
35
ITEM: BOX BOUNDS xy xz yz pp pp pp
0.0000000000000000e+00 7.6685730000000003e+00 2.5561910000000001e+00
0.0000000000000000e+00 4.4274529999999999e+00 0.0000000000000000e+00
0.0000000000000000e+00 3.7699264999999997e+01 0.0000000000000000e+00
ITEM: ATOMS id type x y z
1 1 2.46357 1.17442 32.8025
2 1 4.73026 3.2093 33.8764
3 1 4.86397 0.794245 33.3415
4 1 4.24333 1.77627 31.1692
5 1 6.30826 3.08938 32.1402
6 1 3.5628 4.00665 31.7714
7 1 1.84953 1.39976 30.5275
8 1 5.39181 3.4691 30.0412
9 1 7.57439 4.37241 29.7666
10 1 6.12113 1.98514 27.9222
11 1 3.61744 2.44078 28.7601
12 1 5.15882 4.42365 27.8319
13 1 3.24856 1.65287 26.1318
14 1 5.86563 3.60733 25.8043
15 1 2.52957 4.07666 27.1462
16 2 4.96591 2.13952 16.7321
17 2 6.57811 4.08676 17.1439
18 2 2.66088 2.30177 18.8059
19 2 1.32444 0.190616 18.2326
20 2 3.74338 4.30321 15.2644
21 2 2.86911 1.94228 15.1017
22 2 6.50061 3.93858 13.7963
23 2 5.03393 1.90345 13.2462
24 2 5.51245 1.97757 10.2536
25 2 2.68201 0.584552 9.22004
26 2 2.29219 3.51721 10.7747
27 2 2.31693 0.832772 11.9966
28 2 6.08865 2.29081 7.60134
29 2 3.02314 3.94948 8.05645
30 2 3.60258 1.98785 5.84792
31 2 5.30631 3.99072 5.82229
32 2 5.36906 3.29485 3.08322
33 2 3.7528 1.36886 3.26392
34 2 2.47974 3.69262 4.55272
35 2 1.1061 1.31158 4.97075
ITEM: TIMESTEP
700
ITEM: NUMBER OF ATOMS
35
ITEM: BOX BOUNDS xy xz yz pp pp pp
0.0000000000000000e+00 7.6685730000000003e+00 2.5561910000000001e+00
0.0000000000000000e+00 4.4274529999999999e+00 0.0000000000000000e+00
0.0000000000000000e+00 3.7699264999999997e+01 0.0000000000000000e+00
ITEM: ATOMS id type x y z
1 1 2.84419 1.11126 32.9432
2 1 4.03202 3.56522 33.9667
3 1 5.39169 1.28083 33.2908
4 1 4.2541 1.27366 31.1336
5 1 6.23622 3.2569 32.4017
6 1 3.35491 3.5585 31.6738
7 1 1.65994 1.88392 30.1835
8 1 5.45108 3.70155 30.3193
9 1 2.71229 4.31154 29.4165
10 1 5.83681 2.43473 27.8997
11 1 3.66154 1.8119 28.9101
12 1 2.197 -0.0281968 27.9243
13 1 3.38084 1.66958 26.508
14 1 6.02861 3.44839 25.9929
15 1 2.64459 3.96219 27.0228
16 2 5.01064 2.13112 16.6011
17 2 6.52884 4.23624 16.9296
18 2 3.2098 1.80569 18.4915
19 2 1.16148 0.143751 18.0943
20 2 1.19566 -0.0129581 14.5874
21 2 2.49072 2.05356 14.9483
22 2 6.22314 4.1702 13.7199
23 2 5.13085 1.91145 12.8556
24 2 4.54748 2.4966 10.2258
25 2 3.28513 0.575846 9.06205
26 2 2.66899 3.57575 11.1351
27 2 2.19955 0.880911 11.6925
28 2 6.022 1.92055 8.04045
29 2 2.97632 3.73553 8.0916
30 2 3.88277 1.68926 6.56679
31 2 5.16408 3.87702 6.10558
32 2 5.62646 3.06705 3.05963
33 2 3.43277 1.4905 3.49754
34 2 2.66976 3.77285 4.64514
35 2 1.28702 1.58948 5.22243
ITEM: TIMESTEP
800
ITEM: NUMBER OF ATOMS
35
ITEM: BOX BOUNDS xy xz yz pp pp pp
0.0000000000000000e+00 7.6685730000000003e+00 2.5561910000000001e+00
0.0000000000000000e+00 4.4274529999999999e+00 0.0000000000000000e+00
0.0000000000000000e+00 3.7699264999999997e+01 0.0000000000000000e+00
ITEM: ATOMS id type x y z
1 1 2.78526 1.44713 33.0367
2 1 3.37309 3.46129 33.9728
3 1 5.60489 1.28904 33.4128
4 1 4.72942 0.924449 31.202
5 1 6.20119 3.72457 33.0197
6 1 3.41566 3.1378 31.5239
7 1 1.64894 1.857 30.7088
8 1 5.21494 4.20628 30.2718
9 1 2.54658 3.9159 29.0237
10 1 6.21248 2.27968 28.1593
11 1 3.99491 1.85051 28.9861
12 1 2.32252 0.384068 27.9183
13 1 3.8119 1.59516 26.6088
14 1 4.94986 3.24107 25.6769
15 1 2.69284 4.12679 26.6407
16 2 5.05079 2.06869 15.528
17 2 6.34388 4.10464 16.2919
18 2 3.47164 1.82602 17.8866
19 2 1.26206 0.134652 17.4639
20 2 3.62104 4.23202 14.2705
21 2 2.4456 2.00158 15.2687
22 2 6.19732 4.35952 13.9709
23 2 4.77149 2.30543 12.7686
24 2 4.46224 2.68666 10.12
25 2 3.32724 0.0413583 9.19139
26 2 7.11725 4.25751 11.6531
27 2 2.25155 0.779223 11.665
28 2 1.3172 1.73038 8.71824
29 2 3.02548 3.53178 7.89398
30 2 4.11252 1.46312 6.67323
31 2 5.18163 3.84134 6.44511
32 2 5.60156 2.90081 3.44097
33 2 3.19472 1.21567 3.81597
34 2 3.24786 4.01801 4.58263
35 2 1.33026 1.9696 5.7213
ITEM: TIMESTEP
900
ITEM: NUMBER OF ATOMS
35
ITEM: BOX BOUNDS xy xz yz pp pp pp
0.0000000000000000e+00 7.6685730000000003e+00 2.5561910000000001e+00
0.0000000000000000e+00 4.4274529999999999e+00 0.0000000000000000e+00
0.0000000000000000e+00 3.7699264999999997e+01 0.0000000000000000e+00
ITEM: ATOMS id type x y z
1 1 2.57682 1.34354 32.8946
2 1 3.57606 3.54854 33.7732
3 1 4.95499 1.53645 33.4953
4 1 4.7221 0.581405 31.4245
5 1 6.22065 3.47475 32.9597
6 1 3.95087 3.2583 31.6314
7 1 1.37808 2.1612 30.9407
8 1 5.53125 4.07343 30.0791
9 1 2.68291 4.14897 29.0836
10 1 6.23566 2.26897 27.5872
11 1 4.0491 2.07957 29.3741
12 1 4.68398 4.34033 28.1271
13 1 3.74632 1.62245 26.8281
14 1 5.03835 3.71775 25.9094
15 1 2.56041 3.88035 26.5399
16 2 4.90612 2.01235 15.2341
17 2 6.2883 3.74556 17.0708
18 2 3.74643 2.23556 17.5893
19 2 1.18803 0.221366 16.6001
20 2 3.48631 4.27541 14.1511
21 2 2.33965 1.98972 15.2408
22 2 3.55924 -0.0163684 13.6793
23 2 4.54624 2.51086 12.4195
24 2 3.88711 2.51661 10.0202
25 2 6.16162 4.38829 9.16007
26 2 7.44111 3.91575 11.3063
27 2 1.67327 1.43963 11.7546
28 2 1.40132 1.42614 9.19239
29 2 2.96192 3.66644 7.77146
30 2 4.5825 1.556 6.44593
31 2 5.21307 4.04685 6.77509
32 2 5.53171 2.51985 4.00799
33 2 3.31173 0.839755 4.07821
34 2 3.12311 4.15013 4.51085
35 2 2.03835 1.96919 6.19148
ITEM: TIMESTEP
1000
ITEM: NUMBER OF ATOMS
35
ITEM: BOX BOUNDS xy xz yz pp pp pp
0.0000000000000000e+00 7.6685730000000003e+00 2.5561910000000001e+00
0.0000000000000000e+00 4.4274529999999999e+00 0.0000000000000000e+00
0.0000000000000000e+00 3.7699264999999997e+01 0.0000000000000000e+00
ITEM: ATOMS id type x y z
1 1 2.20104 1.12599 32.5715
2 1 3.5606 4.0905 33.9588
3 1 4.46712 1.50154 33.8555
4 1 5.19566 0.513901 31.6669
5 1 6.20952 3.35517 32.9415
6 1 4.09911 2.79072 31.6267
7 1 1.64629 1.99314 30.1061
8 1 5.36743 4.48206 30.3969
9 1 2.48654 4.17694 29.1505
10 1 5.95787 2.07268 27.6587
11 1 3.97215 2.11993 29.3299
12 1 4.78292 4.22605 27.9796
13 1 3.66778 1.76017 27.195
14 1 5.55401 3.93117 25.7823
15 1 2.60499 4.04349 26.8547
16 2 4.86678 2.38764 15.1818
17 2 6.24527 3.45396 17.416
18 2 3.83972 2.06775 17.7625
19 2 1.23406 0.489063 16.7903
20 2 3.33893 4.37852 13.7078
21 2 2.25322 2.33863 14.7789
22 2 3.29207 -0.123451 13.6557
23 2 4.34341 2.33309 12.0958
24 2 3.86159 2.33222 9.30914
25 2 5.77799 4.27092 9.26533
26 2 7.38847 4.20649 11.2097
27 2 1.91909 1.57314 12.2897
28 2 1.09052 1.64495 9.27637
29 2 3.17014 3.91322 7.8741
30 2 4.91925 1.33996 6.71777
31 2 5.57892 3.94004 6.42446
32 2 5.56929 2.23695 4.24971
33 2 3.05783 0.725722 3.99833
34 2 3.18535 3.83198 4.72856
35 2 2.50245 2.01654 6.31782
ITEM: TIMESTEP
1100
ITEM: NUMBER OF ATOMS
35
ITEM: BOX BOUNDS xy xz yz pp pp pp
0.0000000000000000e+00 7.6685730000000003e+00 2.5561910000000001e+00
0.0000000000000000e+00 4.4274529999999999e+00 0.0000000000000000e+00
0.0000000000000000e+00 3.7699264999999997e+01 0.0000000000000000e+00
ITEM: ATOMS id type x y z
1 1 2.13323 1.23489 32.4649
2 1 3.2977 4.047 33.7274
3 1 4.10591 1.59729 34.0711
4 1 5.18166 0.256547 31.5533
5 1 6.11397 3.33278 32.8863
6 1 4.00822 2.70128 31.7808
7 1 1.57766 2.06986 30.0274
8 1 2.87839 -0.346969 30.7699
9 1 2.64583 4.48092 29.2792
10 1 6.14154 2.00299 27.2161
11 1 4.04153 2.1312 29.5801
12 1 5.14521 4.4862 28.4297
13 1 3.18098 1.76402 26.7324
14 1 5.63178 3.85531 26.1895
15 1 2.99227 4.29715 26.8138
16 2 4.64708 2.30227 15.3362
17 2 6.46336 3.38659 17.2182
18 2 3.60601 1.72607 17.6187
19 2 1.31402 0.381052 16.872
20 2 3.15451 4.83273 13.7843
21 2 2.22989 2.18548 15.1059
22 2 5.73425 4.37132 14.0709
23 2 5.01963 2.81791 12.0075
24 2 3.95776 1.64611 9.5155
25 2 4.92633 3.96753 9.45204
26 2 7.43837 4.38027 10.9926
27 2 2.28803 1.83857 11.8777
28 2 1.31257 2.04391 9.56809
29 2 3.10512 4.1566 7.92656
30 2 4.76117 1.64665 6.53083
31 2 5.89696 3.78798 6.11753
32 2 5.61266 2.02272 3.85898
33 2 3.01305 0.808433 3.71348
34 2 3.35914 3.74993 4.66224
35 2 2.20016 1.67839 6.66365
ITEM: TIMESTEP
1200
ITEM: NUMBER OF ATOMS
35
ITEM: BOX BOUNDS xy xz yz pp pp pp
0.0000000000000000e+00 7.6685730000000003e+00 2.5561910000000001e+00
0.0000000000000000e+00 4.4274529999999999e+00 0.0000000000000000e+00
0.0000000000000000e+00 3.7699264999999997e+01 0.0000000000000000e+00
ITEM: ATOMS id type x y z
1 1 1.92793 1.21019 32.8942
2 1 3.13864 3.79332 33.8553
3 1 4.17339 1.35218 33.7282
4 1 5.06221 0.577988 31.5209
5 1 5.68322 3.45558 33.4505
6 1 3.71876 2.63166 31.6477
7 1 1.63075 1.82708 30.5229
8 1 5.50491 3.96116 30.7543
9 1 0.204562 -0.0174953 28.9343
10 1 6.08853 1.96655 27.8468
11 1 4.11983 2.51803 28.9463
12 1 2.81192 0.397943 28.4724
13 1 4.0675 1.75449 26.7123
14 1 5.36832 4.13272 26.2842
15 1 2.86259 4.09328 26.4482
16 2 4.63277 2.14657 15.4897
17 2 6.43019 3.53446 17.251
18 2 3.35555 1.52194 17.7315
19 2 1.16765 -0.0821634 16.7313
20 2 0.594557 0.419106 13.5801
21 2 2.13359 2.37746 14.805
22 2 5.91072 4.53473 14.8295
23 2 5.55254 3.45871 12.2195
24 2 3.96247 1.18257 9.12176
25 2 4.435 4.08846 9.56715
26 2 7.95488 4.15181 11.3611
27 2 3.15988 1.6017 12.3761
28 2 1.49777 2.41845 9.19981
29 2 2.51611 3.84789 7.68054
30 2 4.26962 2.31256 6.34573
31 2 6.01535 3.9422 5.79712
32 2 5.83201 1.99376 3.51579
33 2 3.31129 0.971632 3.72093
34 2 3.20237 3.67507 4.57929
35 2 1.60455 1.14586 6.81538
ITEM: TIMESTEP
1300
ITEM: NUMBER OF ATOMS
35
ITEM: BOX BOUNDS xy xz yz pp pp pp
0.0000000000000000e+00 7.6685730000000003e+00 2.5561910000000001e+00
0.0000000000000000e+00 4.4274529999999999e+00 0.0000000000000000e+00
0.0000000000000000e+00 3.7699264999999997e+01 0.0000000000000000e+00
ITEM: ATOMS id type x y z
1 1 1.73896 1.38146 33.0935
2 1 2.81497 3.26936 33.7094
3 1 4.39544 1.22059 33.5879
4 1 5.03066 0.562336 31.5074
5 1 5.41446 3.48131 33.2367
6 1 3.44522 2.6171 31.5241
7 1 1.51114 1.67381 30.3122
8 1 5.49138 4.09134 31.0622
9 1 5.0651 0.107465 29.2878
10 1 1.89841 2.65831 28.0221
11 1 4.29958 2.63198 29.0546
12 1 2.70216 0.47792 28.5279
13 1 4.57933 1.87085 26.7125
14 1 5.14359 4.06016 26.3287
15 1 2.68313 3.71456 26.5258
16 2 4.87329 2.33345 15.3801
17 2 5.99675 2.89981 17.8336
18 2 3.26805 1.79344 17.8476
19 2 0.786968 0.20735 16.712
20 2 0.990406 0.260671 13.8881
21 2 2.25391 2.57274 14.3613
22 2 3.22784 0.213881 15.5437
23 2 5.79053 2.97706 12.3646
24 2 4.00375 1.37897 9.0873
25 2 4.58776 3.9434 9.0062
26 2 2.78438 4.1779 11.0515
27 2 3.81506 1.59816 12.2759
28 2 1.32699 2.12165 10.0181
29 2 2.09571 3.67033 7.74199
30 2 4.08165 2.12908 6.5563
31 2 6.04407 3.91347 5.57098
32 2 5.99882 2.2339 3.79057
33 2 3.40216 1.24487 3.5315
34 2 3.20848 3.96395 3.88657
35 2 1.38623 1.1237 6.1037
ITEM: TIMESTEP
1400
ITEM: NUMBER OF ATOMS
35
ITEM: BOX BOUNDS xy xz yz pp pp pp
0.0000000000000000e+00 7.6685730000000003e+00 2.5561910000000001e+00
0.0000000000000000e+00 4.4274529999999999e+00 0.0000000000000000e+00
0.0000000000000000e+00 3.7699264999999997e+01 0.0000000000000000e+00
ITEM: ATOMS id type x y z
1 1 1.78324 1.15422 32.8436
2 1 2.80374 3.55437 33.6027
3 1 3.87085 1.32828 34.0021
4 1 4.87825 0.122203 31.5599
5 1 5.37093 3.32423 33.1534
6 1 3.7138 2.3976 31.5911
7 1 1.49538 2.31646 30.6636
8 1 5.27195 4.21494 30.8685
9 1 0.247777 0.0403407 28.7799
10 1 6.44143 2.62962 28.0288
11 1 4.14577 2.49496 29.3467
12 1 2.74627 0.400936 28.6557
13 1 4.6078 1.51878 27.111
14 1 3.04124 0.0744023 26.3373
15 1 3.1054 3.96608 26.3722
16 2 4.94808 2.42255 15.147
17 2 5.64747 2.81439 18.0897
18 2 3.24419 1.93188 17.65
19 2 0.534701 0.209171 17.1036
20 2 1.32834 0.168883 13.4095
21 2 2.38381 2.65923 14.969
22 2 3.31011 0.260017 15.5631
23 2 5.92544 3.13925 12.7032
24 2 4.052 1.60551 9.42086
25 2 4.46375 4.28852 8.26614
26 2 3.04661 3.89453 10.929
27 2 3.39847 1.35515 12.2156
28 2 1.51922 1.70574 10.4638
29 2 1.87971 3.02744 8.2838
30 2 3.90706 2.25892 6.28476
31 2 6.25512 4.05186 5.62806
32 2 5.83783 2.53919 3.3632
33 2 3.40864 1.25807 3.36567
34 2 3.53933 4.06006 3.52869
35 2 1.33982 1.05601 6.01846
ITEM: TIMESTEP
1500
ITEM: NUMBER OF ATOMS
35
ITEM: BOX BOUNDS xy xz yz pp pp pp
0.0000000000000000e+00 7.6685730000000003e+00 2.5561910000000001e+00
0.0000000000000000e+00 4.4274529999999999e+00 0.0000000000000000e+00
0.0000000000000000e+00 3.7699264999999997e+01 0.0000000000000000e+00
ITEM: ATOMS id type x y z
1 1 1.55889 1.12153 33.1217
2 1 2.8691 3.84014 33.6653
3 1 3.95072 1.23103 34.0344
4 1 4.91643 0.127422 31.2395
5 1 5.68816 3.28534 33.3233
6 1 3.753 1.98616 31.7562
7 1 1.12899 2.32483 30.5387
8 1 4.75239 4.49362 30.8571
9 1 0.30475 0.216671 28.9735
10 1 6.55611 2.68862 28.0111
11 1 4.24187 2.29512 29.4445
12 1 2.71615 0.530768 28.4819
13 1 4.44599 1.89653 26.9062
14 1 3.20665 -0.285856 26.1222
15 1 3.30506 3.9275 26.8519
16 2 4.95895 1.87506 15.1514
17 2 5.77025 3.49072 17.6895
18 2 2.88645 1.66717 17.9399
19 2 0.922737 0.209265 17.1589
20 2 0.694187 0.25555 13.4911
21 2 2.45667 2.77498 15.5712
22 2 3.05248 0.227071 15.2393
23 2 6.08366 3.14185 12.815
24 2 4.47104 1.55501 9.17912
25 2 4.14123 4.64559 8.1067
26 2 3.43511 3.31466 10.8906
27 2 3.7242 1.4491 12.7483
28 2 1.32932 1.50047 10.9033
29 2 1.8824 2.77212 8.15205
30 2 3.85086 2.81134 5.99225
31 2 6.56673 3.79582 5.61613
32 2 5.90769 2.74657 3.10928
33 2 3.39121 1.12528 3.61191
34 2 3.58162 4.10411 3.47982
35 2 0.90841 1.19479 5.41275
ITEM: TIMESTEP
1600
ITEM: NUMBER OF ATOMS
35
ITEM: BOX BOUNDS xy xz yz pp pp pp
0.0000000000000000e+00 7.6685730000000003e+00 2.5561910000000001e+00
0.0000000000000000e+00 4.4274529999999999e+00 0.0000000000000000e+00
0.0000000000000000e+00 3.7699264999999997e+01 0.0000000000000000e+00
ITEM: ATOMS id type x y z
1 1 1.48791 1.54307 33.0877
2 1 2.9748 3.20012 33.8811
3 1 4.41489 1.27106 33.7858
4 1 7.30436 4.44943 31.7907
5 1 5.20604 3.72079 32.9537
6 1 3.53765 2.27906 31.4274
7 1 6.3531 2.06403 30.8238
8 1 4.96395 4.35743 30.7172
9 1 5.17333 0.528547 29.4139
10 1 1.70884 2.54657 28.3442
11 1 3.75236 2.89073 28.9778
12 1 2.78614 0.321534 28.4296
13 1 4.3973 1.77894 27.0032
14 1 5.9328 3.52325 26.3983
15 1 3.48939 4.20902 26.7251
16 2 4.80582 1.96706 15.7643
17 2 6.01464 3.49734 17.4823
18 2 3.41258 1.78687 18.3206
19 2 0.80604 0.305963 17.4341
20 2 0.711755 -0.205336 13.4051
21 2 2.46546 2.81341 15.5387
22 2 2.58081 0.132459 15.1731
23 2 6.06618 3.20772 12.9426
24 2 4.302 1.15817 8.29937
25 2 1.7071 -0.184931 8.13894
26 2 3.75334 3.04849 10.4797
27 2 3.65366 1.81695 13.0428
28 2 1.45149 1.25128 10.9891
29 2 1.54302 3.08381 8.19296
30 2 3.93303 2.88112 5.92899
31 2 6.38206 4.32669 5.81006
32 2 6.09638 2.74031 2.96784
33 2 3.40809 1.3709 3.8094
34 2 3.31912 3.83016 3.03658
35 2 1.09424 1.34823 5.3504
ITEM: TIMESTEP
1700
ITEM: NUMBER OF ATOMS
35
ITEM: BOX BOUNDS xy xz yz pp pp pp
0.0000000000000000e+00 7.6685730000000003e+00 2.5561910000000001e+00
0.0000000000000000e+00 4.4274529999999999e+00 0.0000000000000000e+00
0.0000000000000000e+00 3.7699264999999997e+01 0.0000000000000000e+00
ITEM: ATOMS id type x y z
1 1 1.96647 1.73331 33.1318
2 1 2.85884 3.5466 34.3703
3 1 3.98174 1.29418 33.7311
4 1 2.74532 4.01764 31.7225
5 1 4.92998 3.62027 33.0988
6 1 3.71834 2.03081 31.2264
7 1 6.42916 2.53795 30.8502
8 1 2.4948 0.240484 30.7783
9 1 4.75112 0.609668 29.4025
10 1 6.11433 2.2198 28.5483
11 1 3.64681 3.21789 28.9999
12 1 2.70902 0.380753 28.2008
13 1 4.26686 1.59677 26.9395
14 1 6.52076 3.12665 26.4412
15 1 3.63241 4.25947 26.8276
16 2 4.92881 1.69939 15.707
17 2 6.22668 3.45667 18.2728
18 2 3.94945 2.06814 18.1216
19 2 1.14193 0.233118 18.2269
20 2 0.607939 0.376229 12.7768
21 2 2.01767 3.06386 15.489
22 2 2.62026 0.175448 15.6243
23 2 5.6457 3.09369 12.6044
24 2 4.11903 1.43403 7.99464
25 2 4.16406 4.36511 8.11663
26 2 4.03343 2.48418 10.3131
27 2 3.3255 1.49402 13.0842
28 2 1.67382 1.17998 10.5862
29 2 6.48785 2.34819 8.50305
30 2 3.73925 2.99575 5.64196
31 2 3.98326 -0.0261385 5.61863
32 2 5.74804 2.73155 3.27056
33 2 3.35776 1.26832 3.11029
34 2 3.31887 4.36377 3.07501
35 2 1.58633 1.30949 5.791
ITEM: TIMESTEP
1800
ITEM: NUMBER OF ATOMS
35
ITEM: BOX BOUNDS xy xz yz pp pp pp
0.0000000000000000e+00 7.6685730000000003e+00 2.5561910000000001e+00
0.0000000000000000e+00 4.4274529999999999e+00 0.0000000000000000e+00
0.0000000000000000e+00 3.7699264999999997e+01 0.0000000000000000e+00
ITEM: ATOMS id type x y z
1 1 1.54627 1.6984 33.0521
2 1 3.01231 3.81064 34.3465
3 1 3.95602 1.30336 33.7784
4 1 2.9344 4.37819 32.0246
5 1 5.33326 3.61453 33.278
6 1 4.32647 1.96615 31.5008
7 1 6.396 2.84369 30.8772
8 1 2.1598 0.275083 30.5201
9 1 4.63262 0.322406 29.5798
10 1 5.81664 2.26577 28.732
11 1 3.28221 2.3818 29.1622
12 1 2.60341 0.325247 28.1382
13 1 4.30893 1.94864 26.6619
14 1 6.743 2.94198 26.6075
15 1 1.00496 0.0971222 26.4968
16 2 5.22797 1.58751 15.3386
17 2 6.56334 3.47295 18.5462
18 2 3.89534 1.89137 17.787
19 2 1.45113 0.723472 18.4163
20 2 0.427052 0.251578 12.9273
21 2 2.42725 3.37493 15.4369
22 2 4.63107 4.325 16.0284
23 2 5.44531 3.28125 12.7897
24 2 3.89923 1.26054 7.93737
25 2 3.89825 3.96518 7.84593
26 2 4.33834 2.13587 10.7021
27 2 2.79126 1.47441 13.2851
28 2 1.94853 0.747987 10.3955
29 2 6.71109 3.16382 8.07237
30 2 3.86469 2.63756 5.29298
31 2 6.70518 4.36013 5.38985
32 2 5.63606 2.80385 3.57651
33 2 3.20016 1.25137 2.70323
34 2 0.787612 0.261664 3.42447
35 2 1.43688 1.51273 5.86102
ITEM: TIMESTEP
1900
ITEM: NUMBER OF ATOMS
35
ITEM: BOX BOUNDS xy xz yz pp pp pp
0.0000000000000000e+00 7.6685730000000003e+00 2.5561910000000001e+00
0.0000000000000000e+00 4.4274529999999999e+00 0.0000000000000000e+00
0.0000000000000000e+00 3.7699264999999997e+01 0.0000000000000000e+00
ITEM: ATOMS id type x y z
1 1 1.53492 1.66264 33.2461
2 1 3.30605 3.77672 34.3557
3 1 4.35772 1.44831 33.7626
4 1 2.83397 4.4448 32.2759
5 1 5.53244 3.96335 32.8493
6 1 3.92924 2.28389 31.378
7 1 6.32907 2.45147 31.0448
8 1 2.16578 0.343248 30.4413
9 1 4.93102 -0.0409469 29.3008
10 1 5.60423 2.11496 28.9196
11 1 3.02788 2.30438 29.0586
12 1 2.96088 -0.0369744 27.9699
13 1 3.92709 2.37112 26.9934
14 1 6.77736 2.75554 26.9445
15 1 0.697148 0.485576 26.6643
16 2 4.95634 1.7332 15.1695
17 2 6.75145 3.59336 18.017
18 2 3.91744 1.87511 17.4867
19 2 1.28374 0.881385 18.1641
20 2 0.267063 -0.179732 12.8173
21 2 2.48064 3.21111 15.7933
22 2 5.36072 4.44991 16.0847
23 2 5.43094 3.39354 13.3359
24 2 3.86877 1.50533 8.09224
25 2 4.16415 4.1136 7.66665
26 2 4.4568 2.0942 10.6104
27 2 2.65808 1.72596 13.5119
28 2 2.08604 0.31526 10.3038
29 2 6.32606 2.69721 8.28444
30 2 3.75192 2.81161 5.40531
31 2 6.31327 4.29575 5.62576
32 2 6.11884 3.04715 2.92422
33 2 3.13216 1.54298 3.11741
34 2 0.752772 -0.101435 3.45565
35 2 1.25824 1.42324 5.73293
ITEM: TIMESTEP
2000
ITEM: NUMBER OF ATOMS
35
ITEM: BOX BOUNDS xy xz yz pp pp pp
0.0000000000000000e+00 7.6685730000000003e+00 2.5561910000000001e+00
0.0000000000000000e+00 4.4274529999999999e+00 0.0000000000000000e+00
0.0000000000000000e+00 3.7699264999999997e+01 0.0000000000000000e+00
ITEM: ATOMS id type x y z
1 1 2.32038 2.14593 33.7394
2 1 3.51157 4.05773 33.9842
3 1 4.57792 1.60785 33.718
4 1 0.172985 0.159767 31.5195
5 1 5.33917 4.20716 32.8773
6 1 3.53747 2.06632 31.6818
7 1 6.37246 2.20028 31.3017
8 1 2.47208 -0.350423 30.2734
9 1 7.28528 4.07734 29.4255
10 1 5.37306 2.4289 28.9734
11 1 2.96048 1.89992 29.2815
12 1 2.48908 0.238012 27.6381
13 1 4.3187 2.73324 26.7497
14 1 1.8181 2.62167 26.995
15 1 0.113792 0.38768 27.49
16 2 5.25417 1.11035 15.1843
17 2 6.47988 3.72514 18.1935
18 2 4.16316 2.39 18.0972
19 2 1.24388 0.681253 17.5973
20 2 2.86312 4.63315 12.4506
21 2 2.9249 3.04661 15.4271
22 2 2.54164 0.403843 15.444
23 2 5.26206 3.28043 13.3171
24 2 3.77054 1.40011 8.07477
25 2 3.87594 4.20291 7.98595
26 2 4.44787 2.02911 10.8745
27 2 2.70387 1.62102 13.0245
28 2 2.37948 0.251253 10.5643
29 2 6.44728 2.33493 8.80105
30 2 3.58263 2.98875 5.70774
31 2 6.07427 4.13349 5.61093
32 2 6.02718 3.15152 2.93948
33 2 3.47514 1.4347 3.61821
34 2 3.4649 4.55469 3.09563
35 2 0.958822 1.42908 5.43529
ITEM: TIMESTEP
2100
ITEM: NUMBER OF ATOMS
35
ITEM: BOX BOUNDS xy xz yz pp pp pp
0.0000000000000000e+00 7.6685730000000003e+00 2.5561910000000001e+00
0.0000000000000000e+00 4.4274529999999999e+00 0.0000000000000000e+00
0.0000000000000000e+00 3.7699264999999997e+01 0.0000000000000000e+00
ITEM: ATOMS id type x y z
1 1 2.13067 2.15766 33.8195
2 1 3.69047 4.19682 34.0022
3 1 4.84533 2.26272 33.736
4 1 0.0801656 -0.188393 31.6351
5 1 5.85726 4.36352 32.965
6 1 3.90201 2.11138 31.5442
7 1 6.34829 2.27103 31.5239
8 1 1.90527 -0.000188945 30.5606
9 1 6.84896 3.99813 29.518
10 1 5.44472 1.87302 29.1031
11 1 3.08157 1.72157 29.2824
12 1 2.70391 0.128158 27.5349
13 1 4.09082 2.63026 26.7616
14 1 1.65637 2.66195 27.1407
15 1 -0.0494809 0.432062 26.9214
16 2 5.19621 1.37683 15.2336
17 2 6.44862 4.01335 17.7374
18 2 3.94439 2.60162 18.0847
19 2 1.4243 0.892316 17.6119
20 2 2.75351 4.5313 12.6027
21 2 2.82142 2.76746 15.2913
22 2 2.89987 -0.172641 15.2263
23 2 5.41843 2.88844 12.9867
24 2 3.83099 0.979031 8.00111
25 2 3.62771 3.96036 8.4214
26 2 4.52928 2.25187 10.449
27 2 2.63341 1.92264 12.7078
28 2 2.59422 0.25665 10.6185
29 2 6.55746 3.00509 8.9813
30 2 3.10867 2.8502 5.75254
31 2 6.03278 4.32041 5.80284
32 2 5.8583 2.95783 3.60416
33 2 3.72054 1.46694 3.41328
34 2 3.70699 4.64732 3.04876
35 2 0.87795 1.23674 5.72764
ITEM: TIMESTEP
2200
ITEM: NUMBER OF ATOMS
35
ITEM: BOX BOUNDS xy xz yz pp pp pp
0.0000000000000000e+00 7.6685730000000003e+00 2.5561910000000001e+00
0.0000000000000000e+00 4.4274529999999999e+00 0.0000000000000000e+00
0.0000000000000000e+00 3.7699264999999997e+01 0.0000000000000000e+00
ITEM: ATOMS id type x y z
1 1 2.37568 2.5252 33.5738
2 1 3.26791 4.71994 34.1321
3 1 4.94158 2.15876 33.6827
4 1 2.73637 4.35353 31.8546
5 1 3.19995 0.0708779 33.1357
6 1 3.79521 2.01905 31.3342
7 1 6.35019 2.10141 31.5463
8 1 2.31791 -0.167243 30.3609
9 1 6.89522 4.05836 29.1148
10 1 5.57673 1.4362 29.2968
11 1 3.07624 2.26462 29.3135
12 1 4.98683 4.64612 27.7136
13 1 3.89268 2.3048 27.1797
14 1 1.27532 2.37086 27.2011
15 1 5.40538 0.307089 26.9631
16 2 5.2483 1.42587 15.3556
17 2 6.74104 4.24622 17.3688
18 2 3.9294 2.50042 17.4916
19 2 1.55841 1.27228 17.5536
20 2 2.73683 4.45179 12.8862
21 2 2.68647 2.87782 15.3382
22 2 5.18408 4.09545 14.9921
23 2 5.24031 3.03394 12.4685
24 2 3.75791 1.27358 7.95266
25 2 4.00421 4.41339 8.29024
26 2 4.58961 1.92741 10.384
27 2 2.83499 1.46977 13.1154
28 2 2.43072 0.62242 10.6643
29 2 6.69878 2.66522 8.58684
30 2 3.23936 2.76905 5.73481
31 2 5.50637 4.21756 6.00614
32 2 6.20342 2.72522 3.72722
33 2 3.49576 1.47524 3.29199
34 2 1.13468 -0.0566225 3.68261
35 2 0.803659 1.30475 6.28782
ITEM: TIMESTEP
2300
ITEM: NUMBER OF ATOMS
35
ITEM: BOX BOUNDS xy xz yz pp pp pp
0.0000000000000000e+00 7.6685730000000003e+00 2.5561910000000001e+00
0.0000000000000000e+00 4.4274529999999999e+00 0.0000000000000000e+00
0.0000000000000000e+00 3.7699264999999997e+01 0.0000000000000000e+00
ITEM: ATOMS id type x y z
1 1 2.17504 2.61734 33.6357
2 1 3.56657 4.91474 34.0547
3 1 4.77624 2.63535 33.8155
4 1 2.79447 4.27193 31.5181
5 1 2.916 0.214638 32.8945
6 1 3.91023 1.75407 31.5595
7 1 6.59868 2.37607 31.4343
8 1 2.31749 -0.596274 30.6218
9 1 6.88498 4.07935 29.4909
10 1 5.7615 1.77139 29.268
11 1 3.34685 2.15444 29.3254
12 1 4.65735 4.71712 28.0501
13 1 3.9272 2.03371 27.0419
14 1 1.10641 2.46905 27.0474
15 1 5.23835 -0.116413 27.0129
16 2 5.20555 1.42178 14.9792
17 2 6.74878 4.23619 17.4579
18 2 4.54646 2.84937 17.4307
19 2 1.70021 1.30153 17.5341
20 2 2.74716 4.40054 12.556
21 2 2.2884 3.05836 15.0559
22 2 4.71983 4.14977 15.3558
23 2 5.52242 2.97367 12.8414
24 2 3.96565 1.42963 8.14282
25 2 3.99417 4.05259 8.44018
26 2 4.7449 1.5725 10.3264
27 2 3.20155 1.47012 13.0061
28 2 1.93504 0.830891 10.8676
29 2 6.70178 2.95984 8.38905
30 2 2.97471 2.57114 5.84682
31 2 5.7247 4.14237 5.87959
32 2 6.22951 2.66354 3.55694
33 2 3.6508 1.12385 3.6588
34 2 0.982422 -0.0841278 3.94361
35 2 0.480926 1.54266 5.78049
ITEM: TIMESTEP
2400
ITEM: NUMBER OF ATOMS
35
ITEM: BOX BOUNDS xy xz yz pp pp pp
0.0000000000000000e+00 7.6685730000000003e+00 2.5561910000000001e+00
0.0000000000000000e+00 4.4274529999999999e+00 0.0000000000000000e+00
0.0000000000000000e+00 3.7699264999999997e+01 0.0000000000000000e+00
ITEM: ATOMS id type x y z
1 1 2.16748 2.94326 33.8677
2 1 0.675459 0.792963 34.1259
3 1 4.33916 2.68438 34.2345
4 1 2.83239 4.04879 31.7729
5 1 3.22344 0.112442 32.8104
6 1 4.25137 2.04731 31.6652
7 1 1.66072 1.82854 31.5888
8 1 4.97094 4.4602 30.5238
9 1 7.21482 4.31756 29.3987
10 1 5.80267 2.00161 29.2057
11 1 2.97637 2.16511 29.162
12 1 5.0898 3.99174 28.1059
13 1 3.31305 1.72708 26.7443
14 1 6.21724 2.34484 26.9287
15 1 2.5482 4.40949 27.0741
16 2 4.5658 1.38433 15.2464
17 2 4.77723 0.0413777 17.5659
18 2 4.5924 2.74775 17.8929
19 2 2.04388 1.50354 17.568
20 2 3.0778 3.93557 11.9844
21 2 1.90813 3.06077 15.2923
22 2 2.03302 0.108402 15.1466
23 2 5.85503 2.90761 12.7847
24 2 3.92475 1.14242 7.94235
25 2 3.86245 4.17149 8.3596
26 2 4.64683 1.88425 10.8367
27 2 3.21765 1.61625 13.0858
28 2 2.4492 0.777648 10.4587
29 2 6.31579 2.98602 8.8192
30 2 2.66491 2.65376 6.07762
31 2 5.64948 4.22219 5.98536
32 2 6.08431 2.79469 3.07313
33 2 3.73686 1.0833 3.53158
34 2 3.80993 3.98007 3.39319
35 2 5.45419 1.18416 5.85124
ITEM: TIMESTEP
2500
ITEM: NUMBER OF ATOMS
35
ITEM: BOX BOUNDS xy xz yz pp pp pp
0.0000000000000000e+00 7.6685730000000003e+00 2.5561910000000001e+00
0.0000000000000000e+00 4.4274529999999999e+00 0.0000000000000000e+00
0.0000000000000000e+00 3.7699264999999997e+01 0.0000000000000000e+00
ITEM: ATOMS id type x y z
1 1 1.76179 3.04099 34.2854
2 1 0.754497 0.745193 34.0548
3 1 4.30423 3.03828 33.9755
4 1 2.9232 3.94266 31.6368
5 1 3.07368 0.401063 32.9086
6 1 4.44712 1.96052 31.7963
7 1 1.65871 1.81418 32.0705
8 1 4.99716 4.32556 30.4507
9 1 7.25305 4.45243 29.2871
10 1 5.79811 2.3585 29.6201
11 1 3.28973 2.12943 29.098
12 1 4.74579 4.19272 27.7758
13 1 3.54175 1.51719 26.7644
14 1 6.02772 1.97718 26.7445
15 1 2.56869 4.13051 27.1772
16 2 4.22771 1.55673 15.8776
17 2 5.25627 0.0930527 17.9419
18 2 4.77521 3.04 17.8501
19 2 2.3485 1.5882 17.7397
20 2 3.13638 4.21174 11.538
21 2 1.88879 2.99155 15.4693
22 2 1.23713 -0.0566684 14.7575
23 2 6.14752 2.8904 12.9187
24 2 3.73959 1.44531 8.05606
25 2 3.38203 4.40435 8.4055
26 2 4.71566 2.23642 10.6027
27 2 3.28233 1.19043 13.0704
28 2 2.86751 0.57692 10.4745
29 2 6.73042 2.58813 8.96186
30 2 2.63765 2.84535 5.92559
31 2 4.95858 3.7145 5.78426
32 2 6.43947 2.46002 3.16943
33 2 3.63598 1.26117 3.32704
34 2 3.77902 3.90279 3.20272
35 2 5.53232 1.19215 5.66925
ITEM: TIMESTEP
2600
ITEM: NUMBER OF ATOMS
35
ITEM: BOX BOUNDS xy xz yz pp pp pp
0.0000000000000000e+00 7.6685730000000003e+00 2.5561910000000001e+00
0.0000000000000000e+00 4.4274529999999999e+00 0.0000000000000000e+00
0.0000000000000000e+00 3.7699264999999997e+01 0.0000000000000000e+00
ITEM: ATOMS id type x y z
1 1 6.97017 3.03423 34.4074
2 1 0.634157 1.09726 33.8763
3 1 4.12032 2.68061 33.5446
4 1 2.83063 4.13283 31.858
5 1 3.11364 0.255409 33.1575
6 1 4.18433 1.96128 31.1372
7 1 1.52985 2.21599 31.7973
8 1 4.78126 4.50718 30.5794
9 1 4.76086 0.256262 29.4677
10 1 6.18222 2.23319 29.5685
11 1 3.47404 2.55101 29.1598
12 1 4.95692 4.21378 28.2393
13 1 3.7402 1.57479 27.0662
14 1 6.09007 1.56069 27.502
15 1 2.19927 3.47073 26.7082
16 2 4.19303 1.55436 15.8487
17 2 0.0582226 -0.0359963 18.027
18 2 5.46389 3.60968 17.7785
19 2 2.28582 1.60383 17.8925
20 2 2.89582 4.31131 11.5565
21 2 1.16339 2.94144 15.6045
22 2 3.64134 4.24796 14.582
23 2 6.11357 2.46733 13.0555
24 2 3.99827 1.36113 7.5511
25 2 3.75206 4.56722 8.67421
26 2 4.68715 2.37758 10.3412
27 2 3.79648 1.27477 13.2447
28 2 2.99955 0.328144 10.5949
29 2 1.40594 2.84567 8.52772
30 2 2.42204 2.65303 5.75102
31 2 5.12167 4.06223 5.67456
32 2 6.4206 2.45384 3.38588
33 2 3.75885 0.830967 3.66817
34 2 3.67955 4.18518 3.28533
35 2 5.23911 0.868931 5.54935
ITEM: TIMESTEP
2700
ITEM: NUMBER OF ATOMS
35
ITEM: BOX BOUNDS xy xz yz pp pp pp
0.0000000000000000e+00 7.6685730000000003e+00 2.5561910000000001e+00
0.0000000000000000e+00 4.4274529999999999e+00 0.0000000000000000e+00
0.0000000000000000e+00 3.7699264999999997e+01 0.0000000000000000e+00
ITEM: ATOMS id type x y z
1 1 1.84227 3.40778 34.2844
2 1 0.60702 0.612845 34.2726
3 1 4.20894 2.84956 33.413
4 1 2.65503 4.30976 31.6657
5 1 2.95386 0.455691 33.0944
6 1 3.95411 1.9547 31.0122
7 1 1.18451 2.35159 32.3088
8 1 2.568 0.0701782 30.5929
9 1 4.72316 0.70247 29.2088
10 1 6.29291 2.42729 29.9117
11 1 3.37829 2.84609 29.0708
12 1 5.24341 3.72614 28.1132
13 1 3.65516 1.45647 26.959
14 1 1.15428 0.90241 27.4304
15 1 2.22891 3.3951 27.1662
16 2 3.71969 1.31208 16.1661
17 2 0.371987 0.343308 17.4539
18 2 4.91268 3.265 18.1254
19 2 2.26374 2.18944 17.8801
20 2 3.09311 3.71724 11.7817
21 2 6.49199 2.92869 15.1563
22 2 4.06128 4.25894 14.7709
23 2 6.16951 2.29912 12.4318
24 2 3.93 1.4507 8.15741
25 2 1.4147 0.0760148 8.30587
26 2 4.8733 2.24684 10.2457
27 2 3.57923 1.38129 13.4704
28 2 2.75758 0.627267 10.8571
29 2 6.36034 3.23908 8.00855
30 2 2.77929 2.46002 5.92635
31 2 5.27316 4.03341 6.02628
32 2 6.14264 2.61836 3.38824
33 2 3.48256 0.931299 3.39951
34 2 3.7127 3.80205 3.28297
35 2 5.42362 0.848237 5.60598
ITEM: TIMESTEP
2800
ITEM: NUMBER OF ATOMS
35
ITEM: BOX BOUNDS xy xz yz pp pp pp
0.0000000000000000e+00 7.6685730000000003e+00 2.5561910000000001e+00
0.0000000000000000e+00 4.4274529999999999e+00 0.0000000000000000e+00
0.0000000000000000e+00 3.7699264999999997e+01 0.0000000000000000e+00
ITEM: ATOMS id type x y z
1 1 6.27935 3.22288 34.6599
2 1 0.844122 0.867184 34.0152
3 1 4.06195 3.02178 33.9877
4 1 2.50512 4.42675 31.7288
5 1 3.08712 0.804444 33.1123
6 1 3.97301 2.3731 31.564
7 1 6.36057 2.19842 32.3069
8 1 4.89624 4.27088 30.2142
9 1 4.36583 0.64584 29.2405
10 1 1.22056 1.95698 29.9692
11 1 3.19923 3.07116 29.0527
12 1 5.3635 3.19666 27.8792
13 1 4.11685 1.27099 26.9938
14 1 1.57255 1.17309 27.5191
15 1 2.32312 3.55905 26.7343
16 2 3.26349 1.28008 16.0148
17 2 0.719027 0.673332 16.9738
18 2 4.74929 3.04207 17.7276
19 2 2.17778 2.77523 18.3336
20 2 3.23034 3.48149 11.9321
21 2 6.63257 2.87307 15.1501
22 2 4.04148 4.13287 14.7087
23 2 5.98765 2.38839 13.0628
24 2 3.5708 1.6947 8.47181
25 2 1.22076 0.184816 8.10681
26 2 5.56373 2.26469 10.1393
27 2 3.7867 1.02511 13.3227
28 2 2.53823 0.70516 10.8994
29 2 6.75129 3.03696 8.29052
30 2 2.95902 2.20596 5.74447
31 2 5.57626 3.79839 5.56933
32 2 6.11347 2.49857 3.43984
33 2 3.24165 1.04029 3.29216
34 2 3.45942 3.75204 3.52928
35 2 5.28256 1.11769 5.5651
ITEM: TIMESTEP
2900
ITEM: NUMBER OF ATOMS
35
ITEM: BOX BOUNDS xy xz yz pp pp pp
0.0000000000000000e+00 7.6685730000000003e+00 2.5561910000000001e+00
0.0000000000000000e+00 4.4274529999999999e+00 0.0000000000000000e+00
0.0000000000000000e+00 3.7699264999999997e+01 0.0000000000000000e+00
ITEM: ATOMS id type x y z
1 1 6.42742 3.14428 34.6996
2 1 0.187791 1.13905 33.9553
3 1 3.55222 2.57181 34.0081
4 1 5.1186 0.48267 31.6594
5 1 2.71899 0.18808 33.1579
6 1 3.74978 2.28035 31.7151
7 1 1.63042 2.65506 32.153
8 1 4.71314 4.40049 30.693
9 1 4.208 0.599239 29.2414
10 1 6.02812 1.94234 29.8668
11 1 3.097 2.94401 28.8774
12 1 5.80107 3.36016 27.7856
13 1 4.21709 1.58667 27.1125
14 1 1.96379 0.858095 27.9552
15 1 3.14697 3.66014 26.6205
16 2 3.55854 1.20702 16.0715
17 2 0.881375 0.893205 16.9527
18 2 4.54159 3.2107 17.1961
19 2 2.13776 3.38854 18.467
20 2 2.91174 3.60451 11.4548
21 2 6.80817 3.33253 16.1498
22 2 3.64128 3.63018 14.0441
23 2 5.99601 2.28873 13.1511
24 2 4.04845 1.50481 8.26846
25 2 1.53105 0.178018 8.20534
26 2 5.56689 1.89267 10.8334
27 2 3.82553 0.440975 13.3175
28 2 3.09392 0.51581 10.6997
29 2 6.32184 3.39431 7.95662
30 2 2.68518 2.40258 5.8557
31 2 5.50205 4.06253 5.65668
32 2 5.93134 2.31464 2.9002
33 2 3.28511 0.622414 3.1607
34 2 3.20147 4.17196 3.68684
35 2 5.45416 0.851338 6.06226
ITEM: TIMESTEP
3000
ITEM: NUMBER OF ATOMS
35
ITEM: BOX BOUNDS xy xz yz pp pp pp
0.0000000000000000e+00 7.6685730000000003e+00 2.5561910000000001e+00
0.0000000000000000e+00 4.4274529999999999e+00 0.0000000000000000e+00
0.0000000000000000e+00 3.7699264999999997e+01 0.0000000000000000e+00
ITEM: ATOMS id type x y z
1 1 6.03147 3.27983 34.5399
2 1 5.22075 0.589482 33.9637
3 1 3.09604 2.65049 33.8681
4 1 5.22177 0.028388 31.5084
5 1 2.12922 0.12412 33.0352
6 1 3.63453 2.08888 31.4228
7 1 5.97003 2.76111 32.3568
8 1 2.43519 0.205637 30.5259
9 1 4.47957 0.634066 29.3327
10 1 5.91624 2.70691 29.8966
11 1 3.52202 3.09948 29.3938
12 1 6.47714 3.15105 27.4279
13 1 4.54849 1.4195 27.2321
14 1 1.82529 1.0146 28.5167
15 1 3.5664 3.80115 26.9713
16 2 3.41459 1.14958 15.6493
17 2 0.938845 1.39173 16.9653
18 2 4.40583 3.26742 17.5968
19 2 7.10656 3.94944 18.6471
20 2 3.0042 3.14559 10.4986
21 2 1.99752 3.456 15.7857
22 2 3.89438 3.50132 14.0296
23 2 6.50404 1.77147 13.7294
24 2 4.09254 2.00622 8.19863
25 2 1.56759 0.209675 8.78505
26 2 5.36591 1.84637 10.747
27 2 3.4817 0.458122 13.2705
28 2 3.08315 0.133694 10.8132
29 2 6.7613 2.94317 8.31133
30 2 2.65723 2.53186 5.72919
31 2 5.14344 3.91687 5.53598
32 2 5.73985 2.28495 3.18367
33 2 3.31653 0.933834 3.23044
34 2 3.19456 3.80787 3.4383
35 2 5.30806 1.14268 5.7731
ITEM: TIMESTEP
3100
ITEM: NUMBER OF ATOMS
35
ITEM: BOX BOUNDS xy xz yz pp pp pp
0.0000000000000000e+00 7.6685730000000003e+00 2.5561910000000001e+00
0.0000000000000000e+00 4.4274529999999999e+00 0.0000000000000000e+00
0.0000000000000000e+00 3.7699264999999997e+01 0.0000000000000000e+00
ITEM: ATOMS id type x y z
1 1 5.33207 3.2024 34.6009
2 1 4.47248 0.814952 33.9115
3 1 2.891 2.80818 33.9309
4 1 2.26054 3.95866 31.7895
5 1 2.09452 0.513311 33.355
6 1 3.82769 1.89714 31.5306
7 1 6.0259 2.08403 32.2904
8 1 2.00553 0.418882 30.7027
9 1 4.79958 0.667837 29.5499
10 1 6.16739 2.95723 29.7523
11 1 3.67556 2.92141 29.31
12 1 6.43152 3.44787 27.4425
13 1 4.63152 1.41861 27.0482
14 1 2.59509 1.09095 28.3074
15 1 4.17545 3.9255 26.8893
16 2 3.34891 1.4815 15.9042
17 2 1.02427 1.35669 17.0103
18 2 4.31598 3.32373 17.7673
19 2 4.07533 0.179914 18.0422
20 2 2.80693 2.54056 11.1837
21 2 2.156 3.58612 15.6845
22 2 4.50711 3.2516 13.7464
23 2 1.20347 1.57142 13.9647
24 2 4.19053 1.64618 8.12881
25 2 1.4633 0.525984 8.15285
26 2 5.49977 1.66926 10.9338
27 2 4.42509 0.308631 12.9041
28 2 2.6607 -0.0507732 10.6226
29 2 6.65573 3.42409 8.16271
30 2 2.69802 2.44934 5.74269
31 2 5.15116 3.99289 5.86479
32 2 5.76415 2.50151 3.612
33 2 3.11544 0.995731 3.52437
34 2 3.19663 3.74532 3.17145
35 2 5.0971 0.869831 5.64736
ITEM: TIMESTEP
3200
ITEM: NUMBER OF ATOMS
35
ITEM: BOX BOUNDS xy xz yz pp pp pp
0.0000000000000000e+00 7.6685730000000003e+00 2.5561910000000001e+00
0.0000000000000000e+00 4.4274529999999999e+00 0.0000000000000000e+00
0.0000000000000000e+00 3.7699264999999997e+01 0.0000000000000000e+00
ITEM: ATOMS id type x y z
1 1 5.50313 2.5324 34.49
2 1 3.8446 0.880792 33.6882
3 1 2.51417 3.26701 34.3343
4 1 2.40833 4.12524 31.7685
5 1 1.71136 0.208077 33.5012
6 1 3.44458 1.93948 31.5851
7 1 5.9251 2.20291 32.1033
8 1 2.02335 0.379087 30.7608
9 1 4.94713 0.763388 29.3721
10 1 6.32106 2.82944 29.9526
11 1 3.80354 3.0592 29.0266
12 1 6.97658 3.38806 27.616
13 1 5.31222 1.71105 27.2798
14 1 2.61249 1.06231 28.3518
15 1 3.91532 3.91316 26.9706
16 2 3.82324 1.6685 15.3779
17 2 1.29532 1.77067 17.101
18 2 3.9957 3.245 17.4925
19 2 3.54514 0.495524 18.1424
20 2 2.86755 2.35411 11.6073
21 2 2.25208 3.81797 15.3581
22 2 4.65695 3.19239 13.4569
23 2 1.92703 1.3855 13.9855
24 2 3.96528 2.1011 8.50006
25 2 1.36633 0.66605 7.98845
26 2 5.43761 1.2867 10.7274
27 2 4.48433 -0.0375344 12.9932
28 2 2.38612 -0.429597 10.4894
29 2 6.46828 3.45484 8.44816
30 2 2.73246 2.37699 6.00669
31 2 5.18344 3.7724 5.84189
32 2 5.79498 2.61265 3.7565
33 2 2.9181 0.853735 3.61048
34 2 3.16357 4.12474 3.22327
35 2 5.13528 0.610513 5.52709
ITEM: TIMESTEP
3300
ITEM: NUMBER OF ATOMS
35
ITEM: BOX BOUNDS xy xz yz pp pp pp
0.0000000000000000e+00 7.6685730000000003e+00 2.5561910000000001e+00
0.0000000000000000e+00 4.4274529999999999e+00 0.0000000000000000e+00
0.0000000000000000e+00 3.7699264999999997e+01 0.0000000000000000e+00
ITEM: ATOMS id type x y z
1 1 5.24657 1.99736 34.4651
2 1 3.5286 0.737599 33.6542
3 1 2.56395 2.86748 34.0855
4 1 2.02002 4.67158 31.6966
5 1 1.41206 0.195846 33.1149
6 1 3.27383 2.44168 31.6166
7 1 5.78885 2.57221 32.2817
8 1 2.5608 -0.00839246 31.0809
9 1 4.85393 0.782321 29.4764
10 1 6.54618 2.61674 29.8867
11 1 4.02598 3.0377 29.3202
12 1 7.10234 3.97557 27.5984
13 1 5.34962 1.69353 27.4174
14 1 2.47106 0.850125 28.7453
15 1 4.39286 3.9687 26.7618
16 2 4.85038 1.96856 15.4031
17 2 1.32387 2.00005 17.2556
18 2 3.67631 3.49946 17.653
19 2 3.62926 0.548375 17.8729
20 2 2.59265 1.99416 11.0754
21 2 2.17654 3.70201 15.3438
22 2 4.86546 2.89415 12.9016
23 2 1.78653 1.21732 13.6186
24 2 3.82634 2.41577 8.80849
25 2 1.21326 0.760276 8.17775
26 2 5.22958 0.774591 10.5337
27 2 4.43945 0.349987 12.7996
28 2 5.04487 3.93055 10.8526
29 2 6.59214 3.59889 8.89231
30 2 2.69831 2.22401 6.10055
31 2 5.11473 3.45143 6.10844
32 2 5.75558 2.39039 3.38628
33 2 3.16605 1.31079 3.59563
34 2 2.98866 3.90469 3.29162
35 2 5.02936 0.765636 5.82251
ITEM: TIMESTEP
3400
ITEM: NUMBER OF ATOMS
35
ITEM: BOX BOUNDS xy xz yz pp pp pp
0.0000000000000000e+00 7.6685730000000003e+00 2.5561910000000001e+00
0.0000000000000000e+00 4.4274529999999999e+00 0.0000000000000000e+00
0.0000000000000000e+00 3.7699264999999997e+01 0.0000000000000000e+00
ITEM: ATOMS id type x y z
1 1 4.99196 2.00069 34.5383
2 1 3.55222 -0.229722 34.2139
3 1 2.51479 2.44524 34.0769
4 1 4.56677 0.657009 31.8311
5 1 1.2572 0.124942 33.5861
6 1 3.3935 2.63003 31.6133
7 1 5.73558 2.80737 32.1342
8 1 1.90104 0.30757 30.9657
9 1 5.19062 0.736342 29.4413
10 1 1.31459 2.96339 29.8196
11 1 3.6906 3.02122 28.9257
12 1 7.15994 3.7002 27.333
13 1 5.68214 1.88569 27.5509
14 1 2.9108 0.968473 28.7292
15 1 4.57953 4.10669 26.8838
16 2 4.95455 2.27333 15.6442
17 2 1.54631 1.88624 18.007
18 2 3.71877 3.7862 17.9835
19 2 3.938 0.447899 17.0811
20 2 1.95311 2.53157 10.8198
21 2 7.20997 3.6597 15.1679
22 2 4.31352 2.73251 13.1585
23 2 2.15692 1.1792 13.7331
24 2 4.24855 2.15694 8.45085
25 2 1.60723 0.856762 8.11633
26 2 5.22189 0.617697 10.4306
27 2 4.64291 -0.244286 12.759
28 2 5.00732 3.97398 10.7583
29 2 6.33983 4.01224 8.07764
30 2 2.29846 2.34753 6.11856
31 2 4.98155 3.49532 5.97982
32 2 5.66591 2.506 3.34543
33 2 3.42663 0.943421 3.86081
34 2 3.11736 3.88993 3.7933
35 2 4.81181 0.595347 6.0527
ITEM: TIMESTEP
3500
ITEM: NUMBER OF ATOMS
35
ITEM: BOX BOUNDS xy xz yz pp pp pp
0.0000000000000000e+00 7.6685730000000003e+00 2.5561910000000001e+00
0.0000000000000000e+00 4.4274529999999999e+00 0.0000000000000000e+00
0.0000000000000000e+00 3.7699264999999997e+01 0.0000000000000000e+00
ITEM: ATOMS id type x y z
1 1 4.96971 1.95722 33.9281
2 1 6.54108 3.97794 34.5322
3 1 2.47329 1.49964 33.7829
4 1 4.29565 0.648066 32.2404
5 1 1.06169 -0.336282 33.7969
6 1 2.96436 2.8953 31.2979
7 1 5.6197 2.82515 32.0752
8 1 1.75498 0.88784 31.634
9 1 5.2969 0.790276 29.8262
10 1 6.41272 3.35652 29.7558
11 1 4.05729 3.11054 29.0172
12 1 7.28394 3.95022 27.4519
13 1 5.96264 1.88631 27.3215
14 1 2.70318 1.10011 28.7136
15 1 4.56189 4.16905 26.7476
16 2 4.99366 2.68918 15.7651
17 2 1.65885 2.34871 18.3753
18 2 3.95311 3.52595 17.9014
19 2 3.44916 0.664996 17.2756
20 2 2.17488 2.26813 10.3735
21 2 2.58463 3.09025 15.4203
22 2 4.47877 2.59712 12.9603
23 2 2.46811 0.638602 14.1717
24 2 4.15165 2.67911 8.22556
25 2 1.79885 0.918339 8.34021
26 2 4.55516 1.08611 10.3237
27 2 6.98397 3.94487 12.7829
28 2 4.67673 4.15635 10.8734
29 2 6.78715 3.61594 8.07763
30 2 2.1272 2.08159 5.68871
31 2 4.68394 3.53489 5.89231
32 2 5.98204 2.35562 3.55329
33 2 3.12073 0.711672 3.71417
34 2 3.12595 4.01613 3.50779
35 2 4.90284 1.09336 5.94749
ITEM: TIMESTEP
3600
ITEM: NUMBER OF ATOMS
35
ITEM: BOX BOUNDS xy xz yz pp pp pp
0.0000000000000000e+00 7.6685730000000003e+00 2.5561910000000001e+00
0.0000000000000000e+00 4.4274529999999999e+00 0.0000000000000000e+00
0.0000000000000000e+00 3.7699264999999997e+01 0.0000000000000000e+00
ITEM: ATOMS id type x y z
1 1 5.22648 1.55262 34.463
2 1 6.28077 3.86972 34.0927
3 1 2.40597 1.4884 33.9733
4 1 4.25094 0.682319 32.0274
5 1 3.86589 3.43811 33.6565
6 1 2.98852 2.89788 31.2926
7 1 5.60666 2.95164 31.7688
8 1 1.84697 0.77032 31.3667
9 1 5.12378 1.30181 29.8201
10 1 6.51781 3.37289 29.516
11 1 3.98312 3.25317 29.0895
12 1 7.19177 4.52955 27.7871
13 1 5.73876 1.99375 27.5738
14 1 2.45281 0.977453 29.0504
15 1 4.89855 4.2152 27.076
16 2 5.52292 2.23015 15.5854
17 2 1.14383 2.63305 18.0937
18 2 3.8858 3.65249 18.044
19 2 3.5108 0.951005 17.3699
20 2 1.95243 2.7705 10.8338
21 2 2.94138 3.17714 15.6167
22 2 4.966 1.89603 12.8855
23 2 2.14373 0.42996 14.5729
24 2 4.30013 2.46545 8.37944
25 2 1.87709 0.990166 8.21741
26 2 4.434 0.999195 10.4245
27 2 7.14487 3.72828 13.1414
28 2 4.30266 4.10124 10.9357
29 2 6.78115 3.80403 8.2152
30 2 2.40442 2.37041 5.68421
31 2 4.75816 4.10927 5.75936
32 2 5.74105 2.22155 3.17114
33 2 3.14286 0.787544 3.14256
34 2 3.00885 3.911 2.88119
35 2 4.74314 0.735956 6.06436
ITEM: TIMESTEP
3700
ITEM: NUMBER OF ATOMS
35
ITEM: BOX BOUNDS xy xz yz pp pp pp
0.0000000000000000e+00 7.6685730000000003e+00 2.5561910000000001e+00
0.0000000000000000e+00 4.4274529999999999e+00 0.0000000000000000e+00
0.0000000000000000e+00 3.7699264999999997e+01 0.0000000000000000e+00
ITEM: ATOMS id type x y z
1 1 5.08973 1.18248 34.258
2 1 6.54072 3.46158 34.0004
3 1 2.60438 1.52898 33.6353
4 1 4.2938 0.622954 32.0512
5 1 3.81358 3.62817 33.6617
6 1 3.10248 2.71167 31.6132
7 1 5.60054 2.62432 31.9495
8 1 1.72291 0.186788 31.6692
9 1 5.07988 1.22091 29.699
10 1 6.08391 3.43511 29.8975
11 1 3.58835 3.63332 29.0555
12 1 4.70178 0.139871 27.2662
13 1 6.35103 2.47325 27.6923
14 1 2.58943 1.42455 29.3149
15 1 1.98849 0.292487 27.1563
16 2 5.45962 1.50797 15.6076
17 2 6.05224 2.59111 17.8586
18 2 3.57834 4.41568 18.0913
19 2 3.55059 0.852792 17.1594
20 2 1.42115 2.44665 10.8489
21 2 3.28545 3.2866 15.8622
22 2 4.95293 1.77281 13.185
23 2 2.71331 0.479683 14.3018
24 2 4.46424 2.43063 8.22546
25 2 1.83995 1.15791 8.35228
26 2 4.40028 0.924041 10.7515
27 2 2.18343 3.36462 13.5921
28 2 4.3961 4.1066 11.2152
29 2 6.71753 4.02876 8.38039
30 2 2.52992 2.70628 5.45538
31 2 4.85758 4.03841 5.03581
32 2 5.38376 2.28175 3.34349
33 2 3.17786 0.851502 2.94189
34 2 3.07483 3.59014 3.07465
35 2 4.70669 1.08607 5.60679
ITEM: TIMESTEP
3800
ITEM: NUMBER OF ATOMS
35
ITEM: BOX BOUNDS xy xz yz pp pp pp
0.0000000000000000e+00 7.6685730000000003e+00 2.5561910000000001e+00
0.0000000000000000e+00 4.4274529999999999e+00 0.0000000000000000e+00
0.0000000000000000e+00 3.7699264999999997e+01 0.0000000000000000e+00
ITEM: ATOMS id type x y z
1 1 5.07956 1.26916 34.2146
2 1 6.59358 3.51293 34.4431
3 1 2.74149 0.964091 33.6635
4 1 6.92176 4.33067 31.9893
5 1 3.88999 3.56129 34.0075
6 1 3.17326 2.46603 31.5489
7 1 5.45277 2.10997 32.0256
8 1 1.57394 0.196026 31.2845
9 1 5.00876 1.55717 29.6372
10 1 6.05592 3.87962 29.5679
11 1 3.59028 3.48925 29.1479
12 1 4.57558 1.11311 27.4146
13 1 6.19223 2.80025 27.5939
14 1 2.44629 1.53456 29.301
15 1 2.29592 0.336727 27.4483
16 2 0.948799 1.21902 15.5843
17 2 5.95897 2.90793 17.8946
18 2 0.693695 0.33966 18.5738
19 2 2.98638 0.718486 17.0413
20 2 1.61359 2.18131 10.5919
21 2 3.51612 2.97982 16.0698
22 2 5.02537 2.17183 13.1444
23 2 3.04033 0.294195 14.0077
24 2 4.25074 2.8385 8.09102
25 2 1.72793 1.00178 8.17302
26 2 3.84931 0.967377 10.8824
27 2 2.52306 2.95877 13.0065
28 2 4.32869 3.88962 11.4189
29 2 6.88165 4.0558 8.22227
30 2 2.13921 2.50105 5.68477
31 2 5.03606 4.37707 5.58379
32 2 5.87533 2.03593 3.05921
33 2 3.03456 0.801295 2.78331
34 2 2.82378 3.75182 3.24655
35 2 4.86436 1.45669 5.70116
ITEM: TIMESTEP
3900
ITEM: NUMBER OF ATOMS
35
ITEM: BOX BOUNDS xy xz yz pp pp pp
0.0000000000000000e+00 7.6685730000000003e+00 2.5561910000000001e+00
0.0000000000000000e+00 4.4274529999999999e+00 0.0000000000000000e+00
0.0000000000000000e+00 3.7699264999999997e+01 0.0000000000000000e+00
ITEM: ATOMS id type x y z
1 1 5.28743 1.0516 34.2719
2 1 6.29445 3.10538 34.4131
3 1 2.37503 1.0387 33.8192
4 1 4.50438 0.117951 32.2818
5 1 4.0354 3.04464 33.4506
6 1 2.98439 1.9365 31.5205
7 1 6.00014 2.33514 32.2501
8 1 4.31166 4.25828 31.4546
9 1 4.76219 1.79985 30.1536
10 1 6.30842 4.0025 29.8374
11 1 3.50894 3.95341 28.8651
12 1 4.09527 1.74051 27.8182
13 1 1.81383 2.96177 27.1043
14 1 1.98974 1.69319 29.4962
15 1 2.07562 0.226147 26.9699
16 2 5.88015 1.46295 15.4573
17 2 5.83462 2.59558 18.0383
18 2 0.211489 0.0307853 18.4032
19 2 3.22665 0.784569 17.2008
20 2 6.53597 2.66588 10.1381
21 2 3.75539 3.17335 15.847
22 2 5.55735 1.6157 12.9545
23 2 2.94209 0.0494563 14.0107
24 2 4.19225 2.50788 8.43838
25 2 1.71477 1.12535 8.02971
26 2 4.10513 0.820971 10.8025
27 2 2.78375 2.91075 12.9772
28 2 4.01782 4.17715 10.6024
29 2 6.85176 4.29161 8.1459
30 2 2.1478 2.88794 5.93465
31 2 4.91526 4.17638 5.67305
32 2 5.86874 2.24533 2.98956
33 2 3.20369 0.646278 3.31588
34 2 3.03556 3.92461 3.83588
35 2 4.60883 1.30462 5.81861
ITEM: TIMESTEP
4000
ITEM: NUMBER OF ATOMS
35
ITEM: BOX BOUNDS xy xz yz pp pp pp
0.0000000000000000e+00 7.6685730000000003e+00 2.5561910000000001e+00
0.0000000000000000e+00 4.4274529999999999e+00 0.0000000000000000e+00
0.0000000000000000e+00 3.7699264999999997e+01 0.0000000000000000e+00
ITEM: ATOMS id type x y z
1 1 5.06733 0.654462 34.6699
2 1 6.20408 2.92919 34.6418
3 1 2.47825 0.752371 33.6812
4 1 4.52421 0.0649202 31.8509
5 1 3.71718 2.85628 33.8127
6 1 2.9946 2.02635 31.356
7 1 5.88712 2.35971 32.4672
8 1 4.4487 4.22236 31.4339
9 1 5.00237 2.01803 29.9561
10 1 6.13751 4.27882 29.5639
11 1 3.30125 4.03064 29.3414
12 1 4.18637 1.67714 27.8367
13 1 2.03661 3.53685 27.3459
14 1 1.93958 1.76358 28.9892
15 1 2.28098 0.249162 27.206
16 2 5.68843 1.73501 15.4351
17 2 5.58505 2.34683 17.9895
18 2 3.12637 3.53874 17.8173
19 2 3.15939 0.957462 17.1436
20 2 6.38488 2.7095 10.5549
21 2 3.37619 3.41628 15.5172
22 2 0.799102 1.03063 12.7049
23 2 3.28349 0.0833327 13.9909
24 2 4.29324 2.53332 8.42231
25 2 1.76204 1.19058 7.8484
26 2 3.78531 1.20527 10.7944
27 2 3.15029 3.00066 13.1864
28 2 1.42935 0.0640412 10.1162
29 2 6.75312 4.1969 8.13777
30 2 2.15288 2.72432 5.92601
31 2 4.73743 3.91517 6.13979
32 2 5.57944 2.5666 3.72331
33 2 3.32553 0.880657 3.74066
34 2 3.31325 3.88986 3.37588
35 2 4.64131 1.3578 5.89247
ITEM: TIMESTEP
4100
ITEM: NUMBER OF ATOMS
35
ITEM: BOX BOUNDS xy xz yz pp pp pp
0.0000000000000000e+00 7.6685730000000003e+00 2.5561910000000001e+00
0.0000000000000000e+00 4.4274529999999999e+00 0.0000000000000000e+00
0.0000000000000000e+00 3.7699264999999997e+01 0.0000000000000000e+00
ITEM: ATOMS id type x y z
1 1 4.87196 0.519747 34.1211
2 1 6.34774 2.67574 34.8787
3 1 2.51831 0.826994 33.7592
4 1 6.98329 4.26622 31.989
5 1 3.56772 2.8757 33.9411
6 1 2.83498 2.12236 31.4327
7 1 5.31651 2.05724 32.5184
8 1 4.35464 4.30202 31.6096
9 1 5.23539 2.00472 30.0971
10 1 3.52184 0.153806 29.7073
11 1 3.46057 4.01416 29.5367
12 1 5.15077 1.97383 27.5121
13 1 7.15885 3.80555 27.136
14 1 2.13719 2.21837 28.8274
15 1 4.28313 4.17534 27.5048
16 2 5.80483 2.14413 15.2109
17 2 5.66452 2.07399 17.7006
18 2 3.20561 3.26833 18.0811
19 2 2.96404 0.488206 16.5495
20 2 6.21153 3.18913 11.1776
21 2 2.95725 3.59911 15.3785
22 2 1.25659 1.08082 12.9493
23 2 3.58239 0.15739 13.9235
24 2 4.26863 2.51575 8.50276
25 2 1.71232 1.48629 8.29366
26 2 3.44958 1.36822 10.6161
27 2 3.60475 2.65056 12.8812
28 2 3.53734 4.33078 10.474
29 2 6.88264 3.98588 8.46202
30 2 2.50641 2.81855 5.45518
31 2 4.73975 4.04348 6.05809
32 2 5.44049 2.58912 3.83213
33 2 3.06859 1.11039 3.60014
34 2 3.15465 3.97689 3.03284
35 2 4.91671 0.84264 6.13077
ITEM: TIMESTEP
4200
ITEM: NUMBER OF ATOMS
35
ITEM: BOX BOUNDS xy xz yz pp pp pp
0.0000000000000000e+00 7.6685730000000003e+00 2.5561910000000001e+00
0.0000000000000000e+00 4.4274529999999999e+00 0.0000000000000000e+00
0.0000000000000000e+00 3.7699264999999997e+01 0.0000000000000000e+00
ITEM: ATOMS id type x y z
1 1 4.90946 0.583064 34.5286
2 1 6.11194 2.81902 34.2898
3 1 2.14613 0.735984 34.1997
4 1 6.71692 4.18768 32.0829
5 1 3.65814 2.90105 33.8987
6 1 2.97021 1.91813 31.6248
7 1 5.72501 1.87158 32.2457
8 1 4.13521 4.1259 31.8141
9 1 5.06161 2.31867 30.0339
10 1 3.40568 -0.07697 29.6288
11 1 3.4208 4.28289 29.5438
12 1 5.44835 1.90801 27.6909
13 1 6.68699 4.23433 27.3768
14 1 2.79407 1.9475 28.8427
15 1 4.43258 4.36626 27.1499
16 2 5.67789 2.32677 15.0259
17 2 5.89138 1.52243 17.569
18 2 2.84357 3.26118 17.9903
19 2 3.05583 0.326138 16.3707
20 2 5.67453 3.16127 11.4152
21 2 3.28531 3.50964 15.6291
22 2 1.24064 1.19671 12.9302
23 2 3.77775 0.177726 13.5553
24 2 4.49896 2.84592 8.24006
25 2 1.7242 1.05745 8.54006
26 2 3.44584 1.54021 10.7217
27 2 3.95272 2.88286 13.3028
28 2 3.18599 4.25774 10.8847
29 2 6.8401 4.12917 8.42806
30 2 2.71679 2.50324 5.72333
31 2 5.19401 4.27894 5.80378
32 2 5.25537 2.49178 3.44034
33 2 2.89672 0.815566 3.30972
34 2 2.83744 4.26317 3.40965
35 2 4.97564 1.12564 5.88643
ITEM: TIMESTEP
4300
ITEM: NUMBER OF ATOMS
35
ITEM: BOX BOUNDS xy xz yz pp pp pp
0.0000000000000000e+00 7.6685730000000003e+00 2.5561910000000001e+00
0.0000000000000000e+00 4.4274529999999999e+00 0.0000000000000000e+00
0.0000000000000000e+00 3.7699264999999997e+01 0.0000000000000000e+00
ITEM: ATOMS id type x y z
1 1 4.86854 0.864821 34.3901
2 1 5.83574 3.04698 34.2088
3 1 2.11627 0.594357 34.0568
4 1 6.92178 4.02022 32.2506
5 1 3.31101 2.81291 33.844
6 1 2.78883 1.65699 31.5015
7 1 5.80254 1.65125 32.1561
8 1 4.423 3.7487 31.9514
9 1 4.69139 2.03455 29.9716
10 1 6.21237 4.10972 30.1575
11 1 1.01062 0.290644 29.7042
12 1 5.54973 2.42266 27.7553
13 1 6.91251 4.31728 27.5376
14 1 2.6943 2.25907 28.372
15 1 1.80775 -0.00244536 27.476
16 2 6.06737 2.15744 15.4568
17 2 5.61735 1.22679 17.7241
18 2 2.54822 2.92796 18.1065
19 2 3.36103 0.779122 16.5138
20 2 5.74471 2.86345 10.5064
21 2 3.46472 3.64299 15.8361
22 2 1.61472 1.28008 12.9856
23 2 4.11767 0.15921 13.4927
24 2 4.41238 2.73491 8.00286
25 2 1.73272 1.2099 8.62211
26 2 3.16249 1.57542 10.9381
27 2 3.43496 2.95801 13.1679
28 2 2.81272 4.46401 10.7658
29 2 7.01579 4.08228 8.072
30 2 2.53661 2.54905 6.14503
31 2 5.45474 4.08866 5.59737
32 2 5.28581 2.56303 3.2981
33 2 2.53652 1.03619 3.1267
34 2 2.56953 3.89676 3.92467
35 2 5.52293 1.43193 5.75954
ITEM: TIMESTEP
4400
ITEM: NUMBER OF ATOMS
35
ITEM: BOX BOUNDS xy xz yz pp pp pp
0.0000000000000000e+00 7.6685730000000003e+00 2.5561910000000001e+00
0.0000000000000000e+00 4.4274529999999999e+00 0.0000000000000000e+00
0.0000000000000000e+00 3.7699264999999997e+01 0.0000000000000000e+00
ITEM: ATOMS id type x y z
1 1 4.11636 0.492863 34.222
2 1 5.87841 2.78724 34.586
3 1 1.99949 0.840296 33.6993
4 1 7.13934 3.73071 31.889
5 1 3.35887 2.85823 34.2313
6 1 2.96108 1.65902 31.5187
7 1 5.337 1.45072 32.1912
8 1 4.76578 3.75599 32.0415
9 1 4.55239 2.1543 29.8899
10 1 6.44981 3.77559 29.5595
11 1 1.25121 0.370527 30.0552
12 1 5.47415 2.48963 27.7507
13 1 4.46224 0.548138 27.8277
14 1 2.7754 2.29756 28.4484
15 1 1.74268 0.327521 27.8228
16 2 6.40933 2.50968 15.5485
17 2 5.13797 1.12578 18.4574
18 2 2.29774 2.55753 18.1473
19 2 3.49838 0.976156 16.1483
20 2 5.61736 3.14398 10.3729
21 2 3.86241 3.97269 15.9682
22 2 1.27856 1.21559 13.1725
23 2 3.79932 0.0235521 13.6395
24 2 4.34444 2.48966 8.35426
25 2 1.86829 1.16747 8.00781
26 2 3.01349 1.21358 10.5845
27 2 4.29177 2.82726 13.2099
28 2 0.542395 0.144516 10.4478
29 2 6.86685 4.41997 8.01211
30 2 3.19496 2.43151 5.99385
31 2 5.25315 4.26053 5.63706
32 2 4.94795 2.58986 3.32775
33 2 2.32637 1.1747 3.4616
34 2 2.48694 3.78076 3.7336
35 2 5.46338 1.12648 5.6772
ITEM: TIMESTEP
4500
ITEM: NUMBER OF ATOMS
35
ITEM: BOX BOUNDS xy xz yz pp pp pp
0.0000000000000000e+00 7.6685730000000003e+00 2.5561910000000001e+00
0.0000000000000000e+00 4.4274529999999999e+00 0.0000000000000000e+00
0.0000000000000000e+00 3.7699264999999997e+01 0.0000000000000000e+00
ITEM: ATOMS id type x y z
1 1 4.38487 0.451856 34.0296
2 1 5.54335 2.83086 34.3112
3 1 1.97849 0.655548 34.3021
4 1 1.97444 3.32841 32.2665
5 1 3.15622 2.93297 34.1062
6 1 3.13607 1.17165 31.8196
7 1 5.60567 1.38331 32.2125
8 1 4.33879 3.5871 32.1552
9 1 4.54511 2.26619 29.96
10 1 6.33067 4.10386 29.8395
11 1 1.13757 0.182857 30.0877
12 1 5.88026 2.79071 27.326
13 1 4.23769 0.748864 27.6461
14 1 3.11006 2.85438 28.3421
15 1 1.6628 0.392023 27.7406
16 2 6.38891 2.72663 15.7127
17 2 4.75141 1.10325 18.2294
18 2 2.1793 2.39311 17.9709
19 2 4.16573 1.27524 15.7993
20 2 5.91161 2.96127 11.3261
21 2 3.89049 4.34346 16.1069
22 2 1.54929 1.04111 13.2714
23 2 6.62102 4.25247 13.3251
24 2 4.33346 2.82696 8.54105
25 2 1.56328 1.10206 7.71177
26 2 3.21539 1.75182 10.935
27 2 3.94601 2.66292 13.3648
28 2 3.31136 4.42077 10.6859
29 2 6.83665 3.99318 8.03211
30 2 3.00286 2.68888 5.62048
31 2 5.62654 3.66235 5.75364
32 2 4.48156 2.55883 3.32812
33 2 2.34359 0.838086 3.53274
34 2 7.28126 4.3199 3.08707
35 2 5.37169 1.03388 5.423
ITEM: TIMESTEP
4600
ITEM: NUMBER OF ATOMS
35
ITEM: BOX BOUNDS xy xz yz pp pp pp
0.0000000000000000e+00 7.6685730000000003e+00 2.5561910000000001e+00
0.0000000000000000e+00 4.4274529999999999e+00 0.0000000000000000e+00
0.0000000000000000e+00 3.7699264999999997e+01 0.0000000000000000e+00
ITEM: ATOMS id type x y z
1 1 4.62671 0.721271 34.1129
2 1 5.79148 2.84975 34.2069
3 1 1.7646 0.259829 34.6604
4 1 1.73065 3.47274 31.6698
5 1 2.90092 2.63945 34.4902
6 1 3.05158 1.11157 32.1335
7 1 5.82356 1.03348 32.0848
8 1 4.12856 3.05348 32.3117
9 1 4.73008 2.19087 29.9803
10 1 6.13827 4.21676 29.6089
11 1 1.19452 0.237194 29.9057
12 1 5.52107 3.10942 27.6887
13 1 4.41371 1.00316 27.6716
14 1 3.01533 3.12813 28.2405
15 1 2.06304 0.793742 27.7848
16 2 6.44439 3.22778 15.4931
17 2 4.56461 0.995126 17.7567
18 2 2.29953 2.23244 17.9477
19 2 4.17478 1.43972 15.395
20 2 5.84946 2.70555 11.4026
21 2 4.08324 4.33873 16.3456
22 2 1.97425 0.700401 13.6566
23 2 7.03969 4.65281 13.196
24 2 4.43796 2.56728 8.41
25 2 1.64737 1.18694 8.17772
26 2 3.41763 1.65059 10.7721
27 2 3.66547 2.78349 13.526
28 2 3.29731 4.69172 10.8489
29 2 6.99206 3.8828 8.89517
30 2 3.06348 2.54803 5.60806
31 2 5.38672 3.65564 5.58708
32 2 4.3826 2.7398 3.06002
33 2 1.96306 1.06654 3.65684
34 2 7.03614 4.06816 2.54268
35 2 5.0966 0.773385 5.33687
ITEM: TIMESTEP
4700
ITEM: NUMBER OF ATOMS
35
ITEM: BOX BOUNDS xy xz yz pp pp pp
0.0000000000000000e+00 7.6685730000000003e+00 2.5561910000000001e+00
0.0000000000000000e+00 4.4274529999999999e+00 0.0000000000000000e+00
0.0000000000000000e+00 3.7699264999999997e+01 0.0000000000000000e+00
ITEM: ATOMS id type x y z
1 1 4.10275 0.257138 34.3763
2 1 5.91526 2.43342 33.8421
3 1 1.74209 0.573785 34.2408
4 1 7.07944 2.82248 31.543
5 1 3.4198 2.39335 34.4472
6 1 2.9359 0.972281 32.2675
7 1 0.107811 0.944281 32.3142
8 1 4.41215 3.45546 32.1805
9 1 4.67577 2.33905 30.1423
10 1 6.22644 4.65599 29.8081
11 1 1.27408 0.413264 30.1327
12 1 5.29568 3.35841 27.5317
13 1 4.84221 0.765819 27.7146
14 1 2.88289 3.23273 28.6375
15 1 1.84682 1.3513 27.8003
16 2 6.66791 3.12563 15.3056
17 2 4.73596 0.720695 18.0935
18 2 2.11314 2.2729 17.5527
19 2 4.07904 1.71921 15.5413
20 2 6.02272 3.08717 11.2709
21 2 4.41528 4.08692 16.7575
22 2 1.89543 1.1529 14.0426
23 2 4.47476 0.541271 12.6489
24 2 4.55161 2.19901 8.1907
25 2 2.00121 0.997249 8.347
26 2 3.22635 1.39208 10.5776
27 2 3.93805 3.13862 12.8375
28 2 1.22783 -0.0371213 10.6764
29 2 6.75426 3.85034 8.73871
30 2 2.65667 2.23176 5.91968
31 2 5.17045 3.9243 5.70386
32 2 4.28037 2.78367 3.10312
33 2 1.64979 1.42359 3.46514
34 2 6.7891 3.82145 3.09602
35 2 5.10141 0.568429 5.59578
ITEM: TIMESTEP
4800
ITEM: NUMBER OF ATOMS
35
ITEM: BOX BOUNDS xy xz yz pp pp pp
0.0000000000000000e+00 7.6685730000000003e+00 2.5561910000000001e+00
0.0000000000000000e+00 4.4274529999999999e+00 0.0000000000000000e+00
0.0000000000000000e+00 3.7699264999999997e+01 0.0000000000000000e+00
ITEM: ATOMS id type x y z
1 1 7.21724 4.42452 34.6604
2 1 5.85227 2.45256 33.5865
3 1 2.02028 0.158802 34.3792
4 1 1.47164 3.16808 31.4601
5 1 3.21626 2.3037 34.0993
6 1 2.73763 0.992759 32.3732
7 1 5.38132 0.538429 32.3503
8 1 4.17704 3.00235 31.8378
9 1 5.10769 2.62701 29.7395
10 1 3.77724 0.552432 29.9052
11 1 1.35971 0.930112 30.1
12 1 5.42933 3.42475 27.8994
13 1 4.30754 1.03029 27.7237
14 1 2.64785 3.1846 29.3027
15 1 1.9079 1.34073 28.0316
16 2 6.75216 4.10202 14.9893
17 2 4.78299 0.552501 17.9659
18 2 1.77832 2.25513 17.3625
19 2 4.5118 1.87022 15.6509
20 2 6.42689 2.6209 10.7823
21 2 4.70633 3.98967 17.1663
22 2 1.66252 1.30784 13.7294
23 2 4.39394 0.487232 12.7721
24 2 4.6442 2.08708 8.1106
25 2 1.94218 0.616948 7.98704
26 2 3.71878 1.62099 10.5543
27 2 4.21421 3.14855 13.2452
28 2 3.62051 4.19893 10.0761
29 2 6.94182 3.66141 8.06965
30 2 2.11541 2.35293 5.93293
31 2 5.04975 3.58514 5.78928
32 2 3.87735 2.65536 3.82586
33 2 1.37915 1.04942 3.40887
34 2 6.54117 4.56041 3.90487
35 2 5.30011 0.647846 5.97603
ITEM: TIMESTEP
4900
ITEM: NUMBER OF ATOMS
35
ITEM: BOX BOUNDS xy xz yz pp pp pp
0.0000000000000000e+00 7.6685730000000003e+00 2.5561910000000001e+00
0.0000000000000000e+00 4.4274529999999999e+00 0.0000000000000000e+00
0.0000000000000000e+00 3.7699264999999997e+01 0.0000000000000000e+00
ITEM: ATOMS id type x y z
1 1 4.76679 0.301332 34.7799
2 1 5.89201 2.37337 34.1843
3 1 4.64016 4.26329 34.5713
4 1 6.4807 3.00272 31.701
5 1 3.25158 2.27001 34.352
6 1 2.55715 0.589018 32.3194
7 1 5.33104 0.65332 32.3981
8 1 3.77821 2.68522 32.099
9 1 5.45926 3.02138 29.4438
10 1 3.83359 0.86312 30.01
11 1 1.19309 0.40325 30.1173
12 1 5.66869 3.84626 27.1467
13 1 4.43137 1.53571 27.716
14 1 2.52906 3.08925 29.2901
15 1 1.78361 1.37313 27.7228
16 2 7.00101 3.97135 15.2463
17 2 4.57187 0.640864 17.7248
18 2 2.01142 2.24192 17.0094
19 2 4.55547 2.31129 15.6385
20 2 6.22358 2.49801 10.6809
21 2 4.62101 4.23368 17.382
22 2 1.93075 1.79354 13.6846
23 2 4.41927 0.0663656 12.7039
24 2 4.602 2.27445 8.25704
25 2 2.31673 0.770904 8.05978
26 2 3.65552 1.15569 10.2792
27 2 4.47848 2.98663 13.1889
28 2 3.64987 4.21756 10.6485
29 2 2.16737 3.40868 8.33936
30 2 2.35631 2.05963 5.81474
31 2 4.87018 3.45033 5.95311
32 2 3.71534 2.99143 3.2777
33 2 1.08513 1.23484 3.549
34 2 6.14519 4.3175 3.72591
35 2 4.91528 0.696957 5.99415
ITEM: TIMESTEP
5000
ITEM: NUMBER OF ATOMS
35
ITEM: BOX BOUNDS xy xz yz pp pp pp
0.0000000000000000e+00 7.6685730000000003e+00 2.5561910000000001e+00
0.0000000000000000e+00 4.4274529999999999e+00 0.0000000000000000e+00
0.0000000000000000e+00 3.7699264999999997e+01 0.0000000000000000e+00
ITEM: ATOMS id type x y z
1 1 4.28502 -0.0490851 34.586
2 1 5.89682 2.21702 34.215
3 1 4.43766 4.52792 34.8475
4 1 6.51198 2.42307 31.6606
5 1 3.49496 2.29044 34.4477
6 1 2.81619 0.354621 32.4476
7 1 5.0616 0.562916 32.4255
8 1 3.76426 3.11031 31.9338
9 1 5.22933 3.27359 29.5056
10 1 3.79186 0.928732 30.2925
11 1 1.24318 0.870136 30.0199
12 1 6.21259 3.89375 27.3551
13 1 4.35183 1.78788 27.6685
14 1 2.84486 3.05136 29.148
15 1 1.54196 1.15067 27.6542
16 2 7.33245 4.32829 15.3308
17 2 4.51795 1.0236 17.8793
18 2 2.29527 2.317 17.0743
19 2 4.44924 2.39712 15.3138
20 2 6.11497 2.56104 10.8508
21 2 4.39775 3.8333 17.5752
22 2 2.20568 1.36754 13.6176
23 2 4.49052 0.00520971 12.7009
24 2 5.14079 2.34436 8.36323
25 2 2.19884 0.555266 8.29145
26 2 3.32442 1.06795 10.9312
27 2 4.72414 2.9158 13.0987
28 2 3.67028 4.03714 10.838
29 2 2.45033 3.707 8.40463
30 2 2.28304 2.02335 5.82176
31 2 4.70601 3.57165 5.62607
32 2 3.52207 3.13151 2.74141
33 2 0.708883 1.57995 3.6124
34 2 6.11284 4.14327 3.20513
35 2 4.68573 0.368086 5.75621
ITEM: TIMESTEP
5100
ITEM: NUMBER OF ATOMS
35
ITEM: BOX BOUNDS xy xz yz pp pp pp
0.0000000000000000e+00 7.6685730000000003e+00 2.5561910000000001e+00
0.0000000000000000e+00 4.4274529999999999e+00 0.0000000000000000e+00
0.0000000000000000e+00 3.7699264999999997e+01 0.0000000000000000e+00
ITEM: ATOMS id type x y z
1 1 6.86961 4.21529 34.358
2 1 5.57685 2.20995 33.8972
3 1 1.55806 0.157101 34.7205
4 1 6.66291 3.1605 31.943
5 1 3.01355 2.25693 33.8365
6 1 2.61748 0.486505 32.5421
7 1 5.33061 0.480912 32.1549
8 1 4.12331 2.58278 31.8273
9 1 5.29781 3.25864 29.8286
10 1 3.856 0.919094 30.0149
11 1 1.35942 1.09447 30.0213
12 1 6.41359 3.5567 27.7549
13 1 4.19603 2.12788 28.0494
14 1 2.76811 3.30826 29.8906
15 1 1.71954 0.711152 27.7531
16 2 7.37643 4.2678 15.6948
17 2 4.62908 1.05342 17.9964
18 2 1.74749 1.92294 17.0154
19 2 4.69009 2.67118 15.6205
20 2 6.10503 2.38329 10.6277
21 2 4.73609 3.94347 17.9773
22 2 2.12131 1.01282 14.0112
23 2 5.0914 -0.108982 13.1537
24 2 5.0664 1.95103 8.02574
25 2 2.6089 0.593088 8.17571
26 2 3.55584 1.60291 10.8713
27 2 5.10269 2.86228 12.9015
28 2 3.41393 4.20213 10.4527
29 2 2.25168 3.67104 8.05454
30 2 2.27965 1.96395 5.5109
31 2 4.49172 3.59677 5.34871
32 2 3.02214 2.97174 3.2646
33 2 5.76402 1.48341 3.41395
34 2 3.35744 0.403075 3.02511
35 2 4.5186 0.356964 5.75625
ITEM: TIMESTEP
5200
ITEM: NUMBER OF ATOMS
35
ITEM: BOX BOUNDS xy xz yz pp pp pp
0.0000000000000000e+00 7.6685730000000003e+00 2.5561910000000001e+00
0.0000000000000000e+00 4.4274529999999999e+00 0.0000000000000000e+00
0.0000000000000000e+00 3.7699264999999997e+01 0.0000000000000000e+00
ITEM: ATOMS id type x y z
1 1 3.81695 0.382147 34.1145
2 1 5.13533 2.31374 34.6663
3 1 4.10233 4.37556 33.9158
4 1 6.64546 2.65955 32.19
5 1 2.3657 2.37699 34.3446
6 1 2.95718 0.586794 31.8606
7 1 0.284088 0.429683 32.0925
8 1 3.98733 2.73364 32.1624
9 1 5.27954 3.15492 30.0808
10 1 4.34393 0.79735 29.7512
11 1 1.69547 1.44262 29.9397
12 1 6.79175 3.30906 27.9606
13 1 3.70569 2.46579 27.7106
14 1 3.00857 3.40128 30.0615
15 1 2.00121 0.239497 28.1535
16 2 7.07132 4.14246 15.9468
17 2 4.59875 0.822787 18.4286
18 2 1.83548 1.58445 16.8626
19 2 4.6059 2.78323 15.4218
20 2 6.32215 3.04366 10.0667
21 2 4.94864 4.00431 18.5205
22 2 2.62952 1.47599 14.4532
23 2 2.81096 3.88882 13.0175
24 2 4.78338 2.10223 7.74682
25 2 2.57658 0.421114 8.24722
26 2 3.64886 1.26415 10.8595
27 2 5.34261 2.93418 12.8147
28 2 3.66536 4.43848 10.3561
29 2 2.37476 3.01535 7.76653
30 2 1.8094 1.68184 5.78196
31 2 4.84132 3.41539 5.49424
32 2 2.75265 3.39145 3.49556
33 2 5.55625 1.67115 3.09818
34 2 2.78144 0.332093 3.12
35 2 4.46408 0.768638 5.25463
ITEM: TIMESTEP
5300
ITEM: NUMBER OF ATOMS
35
ITEM: BOX BOUNDS xy xz yz pp pp pp
0.0000000000000000e+00 7.6685730000000003e+00 2.5561910000000001e+00
0.0000000000000000e+00 4.4274529999999999e+00 0.0000000000000000e+00
0.0000000000000000e+00 3.7699264999999997e+01 0.0000000000000000e+00
ITEM: ATOMS id type x y z
1 1 3.79613 0.362833 34.037
2 1 4.87719 2.48534 34.7974
3 1 3.78671 4.71354 34.239
4 1 6.47201 2.43969 32.7865
5 1 2.42749 2.59136 35.0241
6 1 2.64128 0.614721 31.88
7 1 0.19762 0.518345 31.6592
8 1 4.01794 2.61281 32.4309
9 1 5.73297 3.28385 30.2544
10 1 4.39682 1.41342 29.4477
11 1 1.79369 1.30662 29.6804
12 1 6.71186 3.14887 28.1221
13 1 3.82878 1.87468 27.2745
14 1 3.24325 3.53239 30.0224
15 1 2.06825 -0.0890073 27.7564
16 2 6.93828 4.26743 15.9311
17 2 4.87575 0.942382 18.4256
18 2 2.06449 1.36393 17.1517
19 2 4.5888 3.08257 15.9423
20 2 6.48919 3.205 10.0959
21 2 4.79188 3.30099 18.2988
22 2 2.93004 1.30984 13.86
23 2 2.88806 4.0541 12.9121
24 2 4.98486 1.54406 8.42613
25 2 2.46274 0.239388 7.91204
26 2 3.61657 1.48185 11.2559
27 2 5.58854 2.75661 12.6305
28 2 3.70337 4.56694 10.53
29 2 2.69534 3.67451 7.4177
30 2 1.70209 1.50042 5.52745
31 2 4.81714 3.33342 5.57246
32 2 2.68343 3.36921 3.62893
33 2 5.07042 2.14853 2.64931
34 2 2.43932 0.242693 3.03455
35 2 4.13422 0.748431 5.40749
ITEM: TIMESTEP
5400
ITEM: NUMBER OF ATOMS
35
ITEM: BOX BOUNDS xy xz yz pp pp pp
0.0000000000000000e+00 7.6685730000000003e+00 2.5561910000000001e+00
0.0000000000000000e+00 4.4274529999999999e+00 0.0000000000000000e+00
0.0000000000000000e+00 3.7699264999999997e+01 0.0000000000000000e+00
ITEM: ATOMS id type x y z
1 1 3.84375 0.442127 34.5124
2 1 4.87452 2.85987 34.7002
3 1 1.17808 0.669819 34.6311
4 1 6.49574 2.96065 32.6191
5 1 2.53276 2.68522 35.01
6 1 2.40465 0.547505 32.4741
7 1 5.04283 0.66537 32.0283
8 1 3.73443 2.8255 32.3617
9 1 6.0457 3.55386 30.5841
10 1 4.44852 0.885887 29.4237
11 1 1.90829 1.20002 29.5651
12 1 7.07115 3.1505 27.5278
13 1 3.76675 1.3103 27.2781
14 1 3.49978 3.20787 29.6178
15 1 4.12449 3.99069 27.5002
16 2 7.18079 4.31381 15.7377
17 2 4.99652 0.0877766 18.1409
18 2 2.42607 1.64668 17.0736
19 2 4.27639 3.00703 15.4419
20 2 6.67108 3.12017 10.1365
21 2 4.7009 3.3928 18.3157
22 2 2.91615 0.847152 13.7903
23 2 3.08037 4.36453 13.392
24 2 5.02172 1.57827 8.8397
25 2 2.78756 0.832928 8.01515
26 2 3.56818 1.88396 11.1682
27 2 5.83112 2.66212 12.8817
28 2 1.5915 0.154675 10.7553
29 2 2.50317 3.1851 7.10741
30 2 1.34351 1.55843 5.36252
31 2 4.51546 3.27857 5.45804
32 2 2.43921 3.36942 3.67511
33 2 4.75594 1.94142 2.86498
34 2 2.3343 0.807035 2.90018
35 2 4.01507 0.621785 5.40511
ITEM: TIMESTEP
5500
ITEM: NUMBER OF ATOMS
35
ITEM: BOX BOUNDS xy xz yz pp pp pp
0.0000000000000000e+00 7.6685730000000003e+00 2.5561910000000001e+00
0.0000000000000000e+00 4.4274529999999999e+00 0.0000000000000000e+00
0.0000000000000000e+00 3.7699264999999997e+01 0.0000000000000000e+00
ITEM: ATOMS id type x y z
1 1 3.87133 0.989751 34.9673
2 1 5.07852 3.15377 34.5518
3 1 1.2019 0.80732 34.5429
4 1 6.24189 2.82633 32.447
5 1 2.60217 3.13025 34.391
6 1 2.37374 0.671558 32.1965
7 1 4.82778 0.794989 32.8027
8 1 3.57912 3.10313 32.094
9 1 5.841 3.37726 29.8858
10 1 5.16784 0.54071 29.5113
11 1 2.24412 1.26328 29.9689
12 1 1.4796 2.93151 27.911
13 1 3.26221 1.09134 27.7625
14 1 3.6221 2.728 29.6589
15 1 4.31348 3.71287 27.6253
16 2 7.05941 4.18662 15.774
17 2 7.52465 3.95152 18.2274
18 2 2.23763 1.6316 16.7003
19 2 4.69589 2.62311 15.2666
20 2 7.03882 3.69738 10.2105
21 2 5.17525 3.30461 17.5317
22 2 2.86402 1.1445 13.9697
23 2 2.96691 4.24064 12.9411
24 2 5.1119 2.21571 8.17229
25 2 2.35189 0.292112 8.54781
26 2 4.31936 1.78408 11.1853
27 2 6.08069 2.61708 13.0699
28 2 1.95267 0.166768 11.0154
29 2 2.2142 3.35233 7.4471
30 2 1.05786 1.50374 5.66633
31 2 4.17541 3.27594 5.46754
32 2 2.1578 3.6569 3.30129
33 2 4.82928 1.95187 3.33814
34 2 2.14371 0.710851 2.86587
35 2 3.60736 0.715149 5.59396
ITEM: TIMESTEP
5600
ITEM: NUMBER OF ATOMS
35
ITEM: BOX BOUNDS xy xz yz pp pp pp
0.0000000000000000e+00 7.6685730000000003e+00 2.5561910000000001e+00
0.0000000000000000e+00 4.4274529999999999e+00 0.0000000000000000e+00
0.0000000000000000e+00 3.7699264999999997e+01 0.0000000000000000e+00
ITEM: ATOMS id type x y z
1 1 3.83681 1.21461 34.8159
2 1 5.1419 3.35077 34.25
3 1 1.31002 1.42819 34.6802
4 1 6.10021 2.56953 32.3487
5 1 2.49856 3.54349 34.2312
6 1 2.39215 0.733479 32.7934
7 1 4.7696 0.824677 32.259
8 1 3.58329 3.10733 32.1676
9 1 6.24705 3.37802 29.7678
10 1 5.04122 0.759423 29.5857
11 1 2.04395 0.751287 30.3444
12 1 6.41108 2.26692 27.815
13 1 3.51177 0.902343 27.9978
14 1 3.72056 2.64559 30.0491
15 1 4.05816 3.81391 27.6959
16 2 7.5626 4.05082 15.6288
17 2 2.78352 4.0945 18.2503
18 2 2.01515 0.90176 16.448
19 2 4.94419 2.33287 14.8941
20 2 7.53966 3.49041 10.1069
21 2 5.0862 2.86591 17.6002
22 2 2.87608 1.30198 13.8452
23 2 2.9558 4.09508 13.0093
24 2 4.63086 1.97536 8.04783
25 2 1.89063 0.469536 8.59569
26 2 4.70577 1.88722 10.7396
27 2 5.90656 2.86949 12.7071
28 2 2.56826 0.763284 11.3566
29 2 2.24665 3.84951 7.71392
30 2 1.12173 1.9309 5.71191
31 2 3.56123 3.447 5.53866
32 2 1.97503 3.52746 3.41959
33 2 4.7785 2.23196 3.25216
34 2 2.03789 0.420129 3.31263
35 2 3.3197 0.458501 5.94342
ITEM: TIMESTEP
5700
ITEM: NUMBER OF ATOMS
35
ITEM: BOX BOUNDS xy xz yz pp pp pp
0.0000000000000000e+00 7.6685730000000003e+00 2.5561910000000001e+00
0.0000000000000000e+00 4.4274529999999999e+00 0.0000000000000000e+00
0.0000000000000000e+00 3.7699264999999997e+01 0.0000000000000000e+00
ITEM: ATOMS id type x y z
1 1 3.72104 1.64739 34.3179
2 1 4.90379 3.83131 34.9014
3 1 1.18119 1.62006 35.0932
4 1 6.26262 2.90663 32.3815
5 1 2.30906 3.81887 34.6383
6 1 2.34875 0.708214 32.7182
7 1 4.89284 0.457099 31.775
8 1 3.89739 2.84483 32.2789
9 1 6.21627 3.13317 29.8716
10 1 5.2222 0.98857 29.5885
11 1 2.60707 0.517154 30.3183
12 1 6.12301 1.75937 27.4879
13 1 3.56869 0.5199 27.8806
14 1 3.41746 2.70231 29.9103
15 1 3.85974 3.98284 28.0691
16 2 2.51133 3.60419 15.4971
17 2 2.78988 4.19472 17.8966
18 2 2.68577 0.781081 16.654
19 2 5.16875 2.35559 15.2348
20 2 2.58959 3.39987 10.5694
21 2 4.91819 2.1432 17.6927
22 2 2.82644 1.01011 14.1067
23 2 3.33104 4.28936 12.883
24 2 4.09397 2.16623 7.56328
25 2 2.02424 0.983683 8.66872
26 2 5.29644 2.14708 10.1531
27 2 5.70042 3.07286 12.4885
28 2 2.83383 0.970052 11.2328
29 2 1.87038 3.56658 7.92435
30 2 5.87299 2.08488 5.64871
31 2 3.38302 3.54106 5.64751
32 2 6.98924 3.60843 3.34169
33 2 4.36423 1.91167 3.40537
34 2 2.00559 0.702198 3.56758
35 2 3.29814 0.378826 5.79554
ITEM: TIMESTEP
5800
ITEM: NUMBER OF ATOMS
35
ITEM: BOX BOUNDS xy xz yz pp pp pp
0.0000000000000000e+00 7.6685730000000003e+00 2.5561910000000001e+00
0.0000000000000000e+00 4.4274529999999999e+00 0.0000000000000000e+00
0.0000000000000000e+00 3.7699264999999997e+01 0.0000000000000000e+00
ITEM: ATOMS id type x y z
1 1 3.80867 2.0421 34.5611
2 1 4.96107 4.16699 35.1732
3 1 1.05172 1.76132 34.6158
4 1 6.44926 2.83194 32.5992
5 1 7.47835 4.24647 34.4264
6 1 2.34894 0.475346 32.8572
7 1 4.81071 0.482128 32.2059
8 1 3.85814 2.60506 32.3706
9 1 6.28313 2.82249 29.8568
10 1 5.00979 0.522483 29.6675
11 1 2.21994 0.601569 30.1574
12 1 6.09868 2.3054 27.6403
13 1 3.51092 0.35468 27.8434
14 1 3.70715 2.87388 29.8911
15 1 3.92229 3.48259 27.7605
16 2 2.65679 3.43789 15.2072
17 2 2.67826 3.52193 17.759
18 2 2.9421 0.721397 17.1725
19 2 5.28959 2.11072 15.3266
20 2 3.13371 3.99436 10.3
21 2 5.21455 2.40512 17.8357
22 2 3.03662 0.97965 14.1866
23 2 3.14384 4.56863 13.0799
24 2 4.1506 2.44303 7.8513
25 2 1.72819 0.502978 8.22462
26 2 5.47654 2.2622 10.0741
27 2 5.55894 2.56616 12.8049
28 2 3.23778 0.822842 11.1675
29 2 6.55455 3.8726 8.31308
30 2 6.12409 1.91609 5.69306
31 2 2.99275 3.8312 5.25756
32 2 6.74362 3.59319 3.03289
33 2 4.24054 2.00594 3.64757
34 2 1.60524 0.852846 3.19503
35 2 3.20137 0.45486 5.70329
ITEM: TIMESTEP
5900
ITEM: NUMBER OF ATOMS
35
ITEM: BOX BOUNDS xy xz yz pp pp pp
0.0000000000000000e+00 7.6685730000000003e+00 2.5561910000000001e+00
0.0000000000000000e+00 4.4274529999999999e+00 0.0000000000000000e+00
0.0000000000000000e+00 3.7699264999999997e+01 0.0000000000000000e+00
ITEM: ATOMS id type x y z
1 1 3.47323 2.03658 35.0344
2 1 5.04711 4.26967 35.0146
3 1 6.20545 2.25691 34.6855
4 1 6.38249 2.40231 32.5329
5 1 2.50232 4.2312 34.3369
6 1 2.7855 0.351852 32.6725
7 1 5.20449 0.673117 31.9515
8 1 3.60821 3.06316 32.505
9 1 6.11467 2.83715 30.0683
10 1 5.00627 0.364383 29.4907
11 1 2.29603 0.649049 30.3605
12 1 6.33795 2.19933 28.0727
13 1 3.13543 0.636049 27.9192
14 1 3.68612 2.53837 29.8443
15 1 3.60759 3.20331 27.5368
16 2 3.07509 3.37843 15.3946
17 2 2.985 3.20046 17.9004
18 2 2.59073 0.526034 16.943
19 2 5.43721 1.78245 15.8129
20 2 3.74305 3.85011 10.4835
21 2 5.51282 2.56952 18.3434
22 2 3.01474 0.728258 14.0579
23 2 3.04542 4.2657 12.7754
24 2 3.75056 2.21705 8.03918
25 2 1.22898 0.930476 7.66851
26 2 5.79955 2.13485 10.2403
27 2 5.60089 2.90599 12.8732
28 2 3.25581 0.965331 11.0933
29 2 6.66668 4.08085 8.29314
30 2 6.11516 2.44857 5.75366
31 2 3.0718 3.94171 5.28449
32 2 6.32393 3.65649 2.79604
33 2 4.21049 2.22396 3.64776
34 2 1.36434 0.714331 2.83204
35 2 2.96165 0.294617 5.45946
ITEM: TIMESTEP
6000
ITEM: NUMBER OF ATOMS
35
ITEM: BOX BOUNDS xy xz yz pp pp pp
0.0000000000000000e+00 7.6685730000000003e+00 2.5561910000000001e+00
0.0000000000000000e+00 4.4274529999999999e+00 0.0000000000000000e+00
0.0000000000000000e+00 3.7699264999999997e+01 0.0000000000000000e+00
ITEM: ATOMS id type x y z
1 1 3.56506 2.1176 34.7239
2 1 4.65577 4.32897 34.7592
3 1 6.10687 2.0518 35.3171
4 1 6.7541 2.78384 32.8393
5 1 2.37189 4.59872 34.0046
6 1 2.89921 0.801851 32.7511
7 1 5.06344 0.390056 31.3137
8 1 4.50609 2.74663 32.6045
9 1 5.96592 3.00447 30.4518
10 1 5.13057 0.466125 28.9682
11 1 2.00674 0.510668 30.5108
12 1 6.09309 2.3469 27.7913
13 1 3.08386 0.238622 28.2795
14 1 3.38608 2.49821 30.447
15 1 3.66739 2.97789 27.6979
16 2 3.19596 3.32522 15.2443
17 2 3.23271 3.56501 18.1087
18 2 2.969 0.242839 16.7029
19 2 5.5619 1.63307 16.0949
20 2 4.0598 3.4572 10.0062
21 2 5.5745 1.96569 18.618
22 2 2.92147 1.10088 14.0886
23 2 2.86892 4.06669 12.6476
24 2 3.41005 2.4719 7.72314
25 2 1.15989 0.902778 7.88884
26 2 6.47519 2.00159 10.277
27 2 5.65408 2.51654 13.4022
28 2 3.49638 1.12854 11.339
29 2 6.07502 3.91403 8.29402
30 2 5.58592 2.4431 5.29207
31 2 3.00484 4.1771 5.55281
32 2 6.31564 3.7861 2.98635
33 2 3.93933 2.15666 3.07716
34 2 1.23795 0.658437 2.89787
35 2 3.06337 1.24917 5.29807
ITEM: TIMESTEP
6100
ITEM: NUMBER OF ATOMS
35
ITEM: BOX BOUNDS xy xz yz pp pp pp
0.0000000000000000e+00 7.6685730000000003e+00 2.5561910000000001e+00
0.0000000000000000e+00 4.4274529999999999e+00 0.0000000000000000e+00
0.0000000000000000e+00 3.7699264999999997e+01 0.0000000000000000e+00
ITEM: ATOMS id type x y z
1 1 3.4477 2.1779 34.9264
2 1 4.85461 4.18548 34.7023
3 1 6.07216 2.35122 35.1648
4 1 2.13303 2.97867 32.8945
5 1 5.16116 0.892216 33.8175
6 1 2.71184 0.588516 32.7125
7 1 4.58762 0.260661 31.2588
8 1 4.78826 2.7028 32.5968
9 1 5.98009 2.61622 30.099
10 1 5.14151 0.564423 28.8435
11 1 1.86561 0.39972 30.5979
12 1 6.51246 2.45022 27.8115
13 1 2.35468 0.388736 28.3248
14 1 3.39713 2.65229 30.6161
15 1 3.55128 2.38007 28.5401
16 2 3.0191 3.71422 15.2319
17 2 3.27238 3.33532 17.73
18 2 3.5424 0.145903 17.1177
19 2 5.62844 1.87582 16.0185
20 2 4.10269 3.36271 10.1608
21 2 5.86069 1.44939 18.6258
22 2 2.97511 0.94281 14.0115
23 2 3.41639 3.72022 12.5729
24 2 3.45211 2.51286 7.67274
25 2 0.592573 1.01928 7.94486
26 2 1.56658 2.19817 10.9762
27 2 5.52301 2.20638 13.4278
28 2 3.83436 0.604802 11.415
29 2 5.89844 4.17806 7.90389
30 2 5.20374 2.8392 5.27822
31 2 2.66766 4.19671 5.4079
32 2 6.61302 3.77687 3.2137
33 2 3.60828 2.51003 2.19039
34 2 1.28261 0.74534 3.27348
35 2 2.67937 1.37429 5.20957
ITEM: TIMESTEP
6200
ITEM: NUMBER OF ATOMS
35
ITEM: BOX BOUNDS xy xz yz pp pp pp
0.0000000000000000e+00 7.6685730000000003e+00 2.5561910000000001e+00
0.0000000000000000e+00 4.4274529999999999e+00 0.0000000000000000e+00
0.0000000000000000e+00 3.7699264999999997e+01 0.0000000000000000e+00
ITEM: ATOMS id type x y z
1 1 3.86977 2.02821 34.8606
2 1 4.56588 4.6055 35.4635
3 1 6.50023 2.67831 35.0923
4 1 1.87284 3.06726 33.02
5 1 5.6256 0.641682 33.6835
6 1 2.87799 0.884973 33.0091
7 1 4.35984 0.675379 30.9842
8 1 4.88585 2.80216 32.7956
9 1 5.68811 2.7487 30.238
10 1 4.87492 -0.0443861 28.5979
11 1 1.86703 0.32233 30.4649
12 1 6.3784 2.54745 27.7268
13 1 2.25018 -0.00516984 28.0607
14 1 2.80988 2.45068 30.7927
15 1 3.99298 2.3393 28.5626
16 2 2.89908 3.94296 15.0585
17 2 3.53862 2.53956 17.6822
18 2 3.24925 0.168484 17.4061
19 2 5.9004 2.407 16.0273
20 2 4.27831 3.36591 10.1231
21 2 6.22616 1.38842 18.2987
22 2 3.1676 0.58875 14.325
23 2 3.78648 3.56531 12.6193
24 2 2.97308 2.65401 7.94799
25 2 0.539184 1.49454 8.31041
26 2 1.75407 1.93877 11.012
27 2 5.92057 1.99511 13.4161
28 2 4.00897 0.298599 10.7887
29 2 5.74853 4.09425 7.79848
30 2 4.7088 2.96486 5.29552
31 2 2.41317 4.47718 5.71507
32 2 6.26854 3.84365 2.8098
33 2 3.70783 2.60476 2.59347
34 2 1.12929 0.96207 2.67277
35 2 2.57008 1.36038 5.32565
ITEM: TIMESTEP
6300
ITEM: NUMBER OF ATOMS
35
ITEM: BOX BOUNDS xy xz yz pp pp pp
0.0000000000000000e+00 7.6685730000000003e+00 2.5561910000000001e+00
0.0000000000000000e+00 4.4274529999999999e+00 0.0000000000000000e+00
0.0000000000000000e+00 3.7699264999999997e+01 0.0000000000000000e+00
ITEM: ATOMS id type x y z
1 1 4.28614 2.12355 35.1248
2 1 2.02031 0.27462 35.508
3 1 6.61273 3.06319 35.2466
4 1 1.90876 3.04868 32.7367
5 1 0.864089 0.941796 33.3908
6 1 3.28815 0.636784 33.3093
7 1 4.30195 0.681207 31.1142
8 1 4.21403 3.14916 32.4458
9 1 5.38504 2.81876 30.3194
10 1 7.51613 4.10435 28.6672
11 1 1.63533 0.630517 30.6262
12 1 5.96343 1.85335 28.1578
13 1 2.69325 -0.118179 28.1941
14 1 2.84414 2.70269 30.4549
15 1 3.63264 1.98638 28.5101
16 2 3.36472 4.03831 15.6231
17 2 3.61018 2.67798 17.5917
18 2 3.3378 -0.204515 17.5087
19 2 5.88342 2.23001 15.5683
20 2 4.58135 3.29006 9.99567
21 2 0.957826 1.12495 18.0356
22 2 3.52964 0.822322 14.5223
23 2 3.55296 3.46991 12.5649
24 2 2.68982 2.86047 8.04549
25 2 5.50855 1.1862 8.31524
26 2 2.02356 1.46492 10.546
27 2 6.43454 1.73577 13.1892
28 2 4.56494 0.444318 10.5704
29 2 5.23089 4.47643 7.66164
30 2 5.00934 3.04942 5.43011
31 2 4.90279 0.262169 5.5421
32 2 5.89422 4.0749 2.98812
33 2 3.52396 2.33811 3.30224
34 2 0.800583 1.12766 2.6532
35 2 1.99264 1.70345 5.41305
ITEM: TIMESTEP
6400
ITEM: NUMBER OF ATOMS
35
ITEM: BOX BOUNDS xy xz yz pp pp pp
0.0000000000000000e+00 7.6685730000000003e+00 2.5561910000000001e+00
0.0000000000000000e+00 4.4274529999999999e+00 0.0000000000000000e+00
0.0000000000000000e+00 3.7699264999999997e+01 0.0000000000000000e+00
ITEM: ATOMS id type x y z
1 1 4.44332 2.38513 35.0355
2 1 1.75903 0.279241 35.0307
3 1 7.06964 3.47327 34.8673
4 1 6.90357 3.04961 32.5734
5 1 0.468801 0.678393 33.1695
6 1 3.28592 1.0251 33.2432
7 1 4.14969 0.675252 30.8669
8 1 4.35029 3.25308 33.0069
9 1 5.4435 2.95789 30.6171
10 1 2.30736 4.06369 28.6018
11 1 1.48804 0.732097 31.1034
12 1 6.51788 1.42063 28.8731
13 1 4.74034 3.79469 28.3493
14 1 3.08099 3.09151 30.6615
15 1 3.57634 1.59516 28.2506
16 2 3.84096 3.97753 15.2819
17 2 3.30783 2.24054 17.7563
18 2 6.32262 4.05773 17.4048
19 2 6.00636 2.4697 15.398
20 2 5.06471 2.94627 10.2084
21 2 0.763701 0.943324 17.854
22 2 3.9035 0.916503 14.6075
23 2 3.65 3.15057 12.9209
24 2 2.50748 3.11337 7.96972
25 2 4.84547 1.41936 7.6265
26 2 2.51267 1.5522 10.0925
27 2 1.22912 1.80119 12.4797
28 2 4.86638 0.215664 10.9279
29 2 2.5359 0.504241 7.88455
30 2 4.7195 3.24084 5.81964
31 2 4.8026 0.120483 5.26145
32 2 5.65815 3.99615 3.4044
33 2 3.08501 2.55205 3.20492
34 2 0.588636 1.19258 3.26805
35 2 2.11905 1.70975 5.53988
ITEM: TIMESTEP
6500
ITEM: NUMBER OF ATOMS
35
ITEM: BOX BOUNDS xy xz yz pp pp pp
0.0000000000000000e+00 7.6685730000000003e+00 2.5561910000000001e+00
0.0000000000000000e+00 4.4274529999999999e+00 0.0000000000000000e+00
0.0000000000000000e+00 3.7699264999999997e+01 0.0000000000000000e+00
ITEM: ATOMS id type x y z
1 1 4.83839 1.88251 35.3843
2 1 1.74621 0.798041 35.1892
3 1 2.21037 3.62817 34.9164
4 1 6.89184 3.34881 32.6771
5 1 5.13909 1.12277 33.0942
6 1 2.87871 1.04026 33.27
7 1 4.29013 0.721346 30.6734
8 1 4.35305 3.2783 32.9715
9 1 5.6151 3.10291 30.721
10 1 7.14933 3.61775 28.4143
11 1 1.63017 0.545344 31.0134
12 1 1.15048 1.4325 28.8901
13 1 4.72668 3.66377 28.5879
14 1 3.08981 2.94822 30.5125
15 1 3.75476 1.47587 28.3243
16 2 3.99092 4.14019 15.4685
17 2 3.41258 2.18885 17.1949
18 2 6.02169 3.76057 17.4089
19 2 1.60862 2.44014 14.8829
20 2 5.35074 2.91184 10.234
21 2 0.935693 0.989482 17.444
22 2 3.96474 0.704913 14.5565
23 2 3.89068 2.83014 12.8489
24 2 2.09205 3.60061 8.097
25 2 4.95285 1.93257 7.98293
26 2 2.92657 1.85246 10.39
27 2 1.17261 1.74549 12.6961
28 2 7.51286 4.31897 11.0005
29 2 4.57072 4.38538 8.14568
30 2 4.30819 3.25464 5.45269
31 2 4.44484 0.0468671 5.69534
32 2 5.41699 4.05353 3.30671
33 2 2.99616 2.94342 2.89348
34 2 5.6759 1.27209 3.36441
35 2 2.239 1.55649 5.71077
ITEM: TIMESTEP
6600
ITEM: NUMBER OF ATOMS
35
ITEM: BOX BOUNDS xy xz yz pp pp pp
0.0000000000000000e+00 7.6685730000000003e+00 2.5561910000000001e+00
0.0000000000000000e+00 4.4274529999999999e+00 0.0000000000000000e+00
0.0000000000000000e+00 3.7699264999999997e+01 0.0000000000000000e+00
ITEM: ATOMS id type x y z
1 1 4.40699 1.88591 34.9997
2 1 1.94962 0.931166 35.517
3 1 2.42311 3.61961 35.2278
4 1 6.55498 3.56112 32.8507
5 1 5.82198 1.46905 33.0246
6 1 3.30868 1.26748 33.0495
7 1 4.39744 0.475596 30.6953
8 1 4.07581 3.55923 33.2901
9 1 5.56103 2.60772 30.6683
10 1 7.31401 3.46518 28.2563
11 1 1.97211 0.485755 30.9169
12 1 0.494192 1.45898 28.3675
13 1 4.82437 3.76389 28.7189
14 1 3.08952 2.66392 30.7832
15 1 3.15408 1.51898 28.649
16 2 4.35236 4.06402 15.0028
17 2 3.7381 1.97645 16.6782
18 2 5.89524 3.85038 17.3368
19 2 1.85304 2.41528 15.1067
20 2 5.44165 3.20698 10.8476
21 2 0.745749 1.00856 17.4117
22 2 4.27968 0.521174 14.2471
23 2 4.03314 2.92114 12.9078
24 2 1.70359 3.28317 8.57059
25 2 4.56343 1.64794 8.04346
26 2 2.96755 1.50813 10.3146
27 2 1.67151 1.22477 12.6088
28 2 7.80988 4.70222 10.8481
29 2 4.3133 4.72557 8.24463
30 2 4.37457 3.03566 5.31781
31 2 4.14866 0.144625 5.77987
32 2 5.76342 4.74905 2.94297
33 2 2.6733 2.88515 3.09686
34 2 5.52186 1.2784 3.54438
35 2 1.67517 1.73536 5.79154
ITEM: TIMESTEP
6700
ITEM: NUMBER OF ATOMS
35
ITEM: BOX BOUNDS xy xz yz pp pp pp
0.0000000000000000e+00 7.6685730000000003e+00 2.5561910000000001e+00
0.0000000000000000e+00 4.4274529999999999e+00 0.0000000000000000e+00
0.0000000000000000e+00 3.7699264999999997e+01 0.0000000000000000e+00
ITEM: ATOMS id type x y z
1 1 4.33112 1.79257 35.0409
2 1 2.0271 1.0305 34.8147
3 1 2.42136 3.68186 35.1149
4 1 6.90945 3.76858 32.9695
5 1 5.65293 1.5186 33.0477
6 1 3.11471 1.63771 32.8002
7 1 4.37943 0.386298 30.8305
8 1 4.56586 3.62825 33.3207
9 1 5.94603 2.23301 30.8638
10 1 1.7907 3.77048 28.5878
11 1 2.09152 0.275748 31.1065
12 1 5.67797 1.43704 28.542
13 1 4.11554 3.51649 28.625
14 1 3.31354 2.81271 30.667
15 1 2.89058 1.37502 29.0717
16 2 4.73798 4.29096 15.1396
17 2 3.71125 2.18074 16.4457
18 2 6.23035 3.81558 17.2992
19 2 1.19375 2.31297 15.0619
20 2 5.69207 3.4197 11.0871
21 2 1.10547 0.392886 17.2583
22 2 4.87816 0.30306 13.8505
23 2 4.04533 2.71425 13.0333
24 2 6.44674 2.9534 8.49868
25 2 3.78489 1.94325 7.7779
26 2 2.92214 1.59229 10.3671
27 2 2.25115 1.05465 12.8711
28 2 0.409828 0.412685 10.5454
29 2 1.6467 -0.00994156 7.94009
30 2 4.23103 3.18198 5.35771
31 2 4.20502 0.133837 5.76871
32 2 2.81434 0.37573 3.18145
33 2 2.48758 3.20476 3.56166
34 2 5.55168 1.45757 3.42407
35 2 1.55331 1.82521 6.03656
ITEM: TIMESTEP
6800
ITEM: NUMBER OF ATOMS
35
ITEM: BOX BOUNDS xy xz yz pp pp pp
0.0000000000000000e+00 7.6685730000000003e+00 2.5561910000000001e+00
0.0000000000000000e+00 4.4274529999999999e+00 0.0000000000000000e+00
0.0000000000000000e+00 3.7699264999999997e+01 0.0000000000000000e+00
ITEM: ATOMS id type x y z
1 1 4.587 1.76747 35.2782
2 1 1.65056 1.07477 35.4207
3 1 2.5507 3.62198 35.1096
4 1 2.17909 3.4998 32.8127
5 1 5.88062 1.36315 32.9647
6 1 3.26497 1.32118 33.082
7 1 4.65544 0.871145 30.8184
8 1 4.58269 3.74725 33.614
9 1 6.08729 3.13363 30.8308
10 1 6.36948 3.36891 28.4876
11 1 2.02964 0.576328 30.9365
12 1 5.22717 1.13529 28.7986
13 1 3.87859 3.51414 28.3303
14 1 3.34098 2.72144 30.8156
15 1 2.81718 1.28661 28.5119
16 2 2.70916 0.133359 15.1575
17 2 3.64338 2.17509 16.0303
18 2 6.65447 3.40882 17.4308
19 2 6.12964 2.12286 14.9549
20 2 6.1571 3.35664 11.1672
21 2 1.23968 0.471001 17.476
22 2 7.34854 3.99139 13.9238
23 2 4.47373 2.45157 13.023
24 2 6.00193 3.16206 8.3994
25 2 3.67472 1.42312 7.83534
26 2 3.36713 2.21232 10.2752
27 2 1.95391 1.05158 12.4934
28 2 0.540076 0.611823 10.467
29 2 3.56896 4.5157 8.09295
30 2 4.46085 3.33618 5.68867
31 2 4.35894 0.166983 5.80913
32 2 2.3699 0.281759 3.60552
33 2 2.33355 3.42389 3.43003
34 2 5.03313 1.89817 3.37056
35 2 1.59294 1.74017 5.7321
ITEM: TIMESTEP
6900
ITEM: NUMBER OF ATOMS
35
ITEM: BOX BOUNDS xy xz yz pp pp pp
0.0000000000000000e+00 7.6685730000000003e+00 2.5561910000000001e+00
0.0000000000000000e+00 4.4274529999999999e+00 0.0000000000000000e+00
0.0000000000000000e+00 3.7699264999999997e+01 0.0000000000000000e+00
ITEM: ATOMS id type x y z
1 1 4.34091 1.73085 35.4521
2 1 1.95695 1.01382 35.5669
3 1 2.36552 3.45629 35.366
4 1 2.30847 3.39631 32.9304
5 1 1.18148 1.31899 33.3738
6 1 3.68089 1.33822 33.1489
7 1 4.6171 0.674445 31.0292
8 1 4.88359 3.63106 33.7928
9 1 5.51474 3.14048 30.9425
10 1 6.35546 3.40451 28.4455
11 1 1.74946 1.22914 30.5183
12 1 5.03829 1.19778 28.1581
13 1 4.00738 3.43215 28.5398
14 1 3.18912 3.10463 30.7502
15 1 2.67168 1.07433 28.2107
16 2 2.9241 -0.0774726 15.1014
17 2 3.87638 2.57036 16.3438
18 2 6.56601 3.30712 17.0373
19 2 5.89308 1.2513 15.1167
20 2 6.2259 3.80673 11.286
21 2 1.49779 0.672006 17.5441
22 2 2.55791 3.74181 13.601
23 2 4.48383 1.9268 12.7777
24 2 5.99259 2.95871 8.57385
25 2 3.09293 1.20053 8.03979
26 2 3.86999 2.80409 10.1837
27 2 2.20943 1.02588 12.703
28 2 0.567787 0.847806 10.6516
29 2 0.628861 0.35335 7.95484
30 2 4.41132 3.00172 6.35836
31 2 4.62652 0.131119 5.42272
32 2 2.05896 0.588806 3.26033
33 2 2.27205 3.37974 3.13551
34 2 4.38863 2.13975 3.50939
35 2 1.84404 1.82775 5.61626
ITEM: TIMESTEP
7000
ITEM: NUMBER OF ATOMS
35
ITEM: BOX BOUNDS xy xz yz pp pp pp
0.0000000000000000e+00 7.6685730000000003e+00 2.5561910000000001e+00
0.0000000000000000e+00 4.4274529999999999e+00 0.0000000000000000e+00
0.0000000000000000e+00 3.7699264999999997e+01 0.0000000000000000e+00
ITEM: ATOMS id type x y z
1 1 4.80008 1.56807 35.4148
2 1 2.25737 0.686373 35.2086
3 1 1.9841 3.55054 35.4336
4 1 2.48089 3.62002 33.2228
5 1 1.00966 1.26135 33.0446
6 1 3.59276 1.32221 33.1175
7 1 3.90481 1.30627 30.2552
8 1 5.29882 3.3901 33.6173
9 1 5.38366 3.31842 31.2864
10 1 6.65588 3.36074 29.0427
11 1 1.49539 0.75005 30.5852
12 1 5.4301 1.24667 28.6193
13 1 4.02908 3.37032 28.6929
14 1 2.85226 3.29058 30.9948
15 1 2.55603 1.24355 28.1106
16 2 5.90575 4.08783 14.5582
17 2 3.81744 2.37189 16.5498
18 2 6.65737 3.94479 17.1533
19 2 5.67534 0.916397 15.4336
20 2 6.23502 4.19327 10.9929
21 2 1.74124 0.543539 17.7016
22 2 2.72779 3.12531 13.2233
23 2 5.17109 2.17264 13.0483
24 2 6.11468 3.03583 8.56458
25 2 2.95645 1.04854 8.43837
26 2 3.56633 2.94397 10.3873
27 2 1.97831 0.798423 12.7278
28 2 1.08078 1.35516 10.4425
29 2 0.092018 0.0779443 7.78413
30 2 4.55561 2.95131 6.51272
31 2 4.45859 0.0740731 5.26185
32 2 1.76906 0.493106 3.15167
33 2 6.67754 3.55093 2.66474
34 2 4.41975 2.32602 3.83433
35 2 2.10226 1.82444 5.63856
ITEM: TIMESTEP
7100
ITEM: NUMBER OF ATOMS
35
ITEM: BOX BOUNDS xy xz yz pp pp pp
0.0000000000000000e+00 7.6685730000000003e+00 2.5561910000000001e+00
0.0000000000000000e+00 4.4274529999999999e+00 0.0000000000000000e+00
0.0000000000000000e+00 3.7699264999999997e+01 0.0000000000000000e+00
ITEM: ATOMS id type x y z
1 1 5.18347 1.229 34.828
2 1 2.47511 1.06996 35.1019
3 1 6.50248 3.09625 35.8396
4 1 2.67359 3.71677 33.9664
5 1 1.32633 1.57244 32.8694
6 1 3.90834 0.999547 32.8399
7 1 3.85132 1.15857 30.7583
8 1 4.82482 3.49101 33.4141
9 1 5.08126 3.20715 31.1069
10 1 6.65968 3.64948 29.1614
11 1 1.23009 0.981742 30.382
12 1 5.30562 1.0587 28.2508
13 1 4.16863 3.50032 28.9273
14 1 2.51027 3.33223 31.2463
15 1 2.99583 1.3819 28.4318
16 2 6.01512 4.26608 15.1094
17 2 3.70092 2.24063 16.1163
18 2 6.79657 3.91363 17.5556
19 2 1.24154 0.994144 15.2849
20 2 4.19889 0.322244 10.884
21 2 1.83671 0.794136 17.9315
22 2 2.58167 2.97032 13.257
23 2 5.02818 1.9173 13.1017
24 2 5.41951 2.68904 8.41364
25 2 3.17483 1.35329 8.37243
26 2 3.59306 2.91858 10.5701
27 2 2.22127 0.0491018 12.5001
28 2 1.11513 1.49753 10.4502
29 2 0.650501 0.0120653 7.7374
30 2 4.56329 3.23687 5.89129
31 2 6.71324 4.23411 5.10065
32 2 1.37999 0.781735 3.4402
33 2 6.34505 3.66564 2.69236
34 2 4.174 2.36543 3.73976
35 2 1.89196 1.55741 5.75322
ITEM: TIMESTEP
7200
ITEM: NUMBER OF ATOMS
35
ITEM: BOX BOUNDS xy xz yz pp pp pp
0.0000000000000000e+00 7.6685730000000003e+00 2.5561910000000001e+00
0.0000000000000000e+00 4.4274529999999999e+00 0.0000000000000000e+00
0.0000000000000000e+00 3.7699264999999997e+01 0.0000000000000000e+00
ITEM: ATOMS id type x y z
1 1 5.29881 0.973009 35.5948
2 1 2.79548 1.04941 35.3031
3 1 5.57938 3.44572 36.0341
4 1 2.53481 3.2579 34.2372
5 1 1.50969 1.30169 32.7369
6 1 4.35268 1.0795 32.9732
7 1 3.93958 0.933706 30.4881
8 1 5.06783 3.62652 33.5093
9 1 4.98217 3.39005 30.998
10 1 6.5216 3.37065 28.8104
11 1 1.28243 1.53055 30.4961
12 1 5.37998 1.34763 27.9317
13 1 4.01999 3.56959 28.4871
14 1 2.59089 3.42773 31.7213
15 1 2.68095 1.32251 28.369
16 2 6.35566 4.16666 15.5389
17 2 3.87917 2.9877 15.8938
18 2 7.07635 3.39575 17.8101
19 2 1.37907 1.20769 15.3301
20 2 4.14142 0.180533 10.3864
21 2 1.9156 0.935032 17.8051
22 2 2.16666 2.82116 13.3423
23 2 4.69376 1.04456 13.1564
24 2 5.67624 2.95532 8.18756
25 2 3.25055 1.32989 7.74055
26 2 4.05312 3.1177 10.6469
27 2 5.09094 4.104 12.9075
28 2 1.75341 1.89651 10.8417
29 2 3.09553 4.24571 8.20352
30 2 4.29584 3.14296 5.33217
31 2 7.03543 4.55265 5.45229
32 2 0.934358 1.14219 3.44097
33 2 6.26333 3.64337 2.90551
34 2 3.25561 1.84972 2.80894
35 2 1.49819 1.85147 5.97215
ITEM: TIMESTEP
7300
ITEM: NUMBER OF ATOMS
35
ITEM: BOX BOUNDS xy xz yz pp pp pp
0.0000000000000000e+00 7.6685730000000003e+00 2.5561910000000001e+00
0.0000000000000000e+00 4.4274529999999999e+00 0.0000000000000000e+00
0.0000000000000000e+00 3.7699264999999997e+01 0.0000000000000000e+00
ITEM: ATOMS id type x y z
1 1 0.557132 0.714772 35.6851
2 1 2.81219 1.68327 35.0992
3 1 5.20425 2.88872 36.1198
4 1 2.46739 3.61054 33.9254
5 1 1.76074 0.874996 32.9945
6 1 4.06911 1.37427 33.0421
7 1 3.94957 1.29383 30.5279
8 1 5.3535 3.13856 33.7551
9 1 4.98469 3.66199 30.9506
10 1 6.55081 3.58649 28.8594
11 1 1.50641 1.42722 30.3267
12 1 5.15058 1.35143 28.5264
13 1 3.67772 3.5032 28.6026
14 1 2.54632 3.44341 31.6594
15 1 2.69665 1.23455 28.1438
16 2 6.68218 4.42935 15.6755
17 2 4.09227 2.95458 15.9131
18 2 2.18865 3.37827 18.01
19 2 0.996879 1.62521 15.3495
20 2 4.0441 0.32759 10.3937
21 2 2.30041 0.38171 17.7328
22 2 2.55937 2.57712 13.221
23 2 4.65997 1.09004 12.9035
24 2 5.83687 2.84178 8.08038
25 2 3.40273 1.48513 7.94441
26 2 4.51318 3.25211 10.6265
27 2 4.68136 3.84307 13.5165
28 2 1.87422 1.72553 10.6945
29 2 3.46815 4.11002 8.13923
30 2 3.90349 3.19707 4.90587
31 2 4.23996 0.442711 5.72987
32 2 0.347228 0.609416 3.2096
33 2 5.88428 3.67013 3.32961
34 2 3.0006 2.08023 2.60408
35 2 1.5138 2.06549 5.53784
ITEM: TIMESTEP
7400
ITEM: NUMBER OF ATOMS
35
ITEM: BOX BOUNDS xy xz yz pp pp pp
0.0000000000000000e+00 7.6685730000000003e+00 2.5561910000000001e+00
0.0000000000000000e+00 4.4274529999999999e+00 0.0000000000000000e+00
0.0000000000000000e+00 3.7699264999999997e+01 0.0000000000000000e+00
ITEM: ATOMS id type x y z
1 1 1.02407 0.469263 35.354
2 1 3.12681 1.59357 35.2128
3 1 4.97483 3.01663 35.8198
4 1 2.75522 3.34861 33.5681
5 1 1.4521 1.17913 32.952
6 1 3.74271 1.22207 33.0324
7 1 4.05626 1.47299 30.5973
8 1 5.38266 3.14229 33.5774
9 1 5.15143 3.62132 31.5436
10 1 6.2264 3.65051 29.0135
11 1 1.34489 1.24776 30.6672
12 1 5.05463 1.34153 28.5022
13 1 3.90797 3.54614 29.2733
14 1 2.5217 3.68804 31.0652
15 1 2.43362 1.39908 28.5483
16 2 6.78349 4.65771 15.3539
17 2 3.75648 2.62671 16.1434
18 2 2.2284 3.31117 17.9528
19 2 1.47013 1.93395 15.5318
20 2 4.44239 0.19831 10.5035
21 2 2.58291 0.0370674 17.6089
22 2 2.34089 2.43857 12.8981
23 2 5.18339 1.29866 12.9949
24 2 5.85013 2.52107 7.85783
25 2 3.28847 1.70708 8.42672
26 2 4.33157 3.14516 10.8184
27 2 4.90899 4.27213 13.5642
28 2 1.61561 1.44086 10.4217
29 2 3.88019 4.56034 7.63781
30 2 3.65 3.43139 5.52691
31 2 3.84725 0.612107 5.72009
32 2 0.225028 0.554284 2.82583
33 2 5.38434 3.5738 3.41164
34 2 2.96162 2.14288 2.96074
35 2 1.50469 1.57004 5.17934
ITEM: TIMESTEP
7500
ITEM: NUMBER OF ATOMS
35
ITEM: BOX BOUNDS xy xz yz pp pp pp
0.0000000000000000e+00 7.6685730000000003e+00 2.5561910000000001e+00
0.0000000000000000e+00 4.4274529999999999e+00 0.0000000000000000e+00
0.0000000000000000e+00 3.7699264999999997e+01 0.0000000000000000e+00
ITEM: ATOMS id type x y z
1 1 0.427598 0.308395 35.2288
2 1 3.37004 1.16181 35.3692
3 1 5.55416 3.21206 36.431
4 1 2.87121 2.9096 33.6891
5 1 1.3585 1.19093 32.9416
6 1 4.20818 0.610584 33.0567
7 1 3.65826 1.53532 30.8703
8 1 5.20356 3.56966 33.7066
9 1 5.03323 3.80968 31.0173
10 1 6.34746 3.6282 29.0188
11 1 1.00048 1.75449 30.7379
12 1 5.08658 1.33819 28.403
13 1 3.78605 3.78013 28.981
14 1 2.57076 3.6341 31.1959
15 1 2.54717 1.64667 28.5908
16 2 7.08198 4.21995 15.2405
17 2 4.28852 2.89322 15.4742
18 2 2.20417 3.10128 18.0569
19 2 1.41058 1.74722 15.9551
20 2 4.22167 -0.511697 10.1492
21 2 2.54606 0.164544 17.2873
22 2 2.60631 3.06547 12.7322
23 2 5.28155 1.52218 13.1642
24 2 6.04574 3.37548 7.69532
25 2 3.76094 1.82019 8.51524
26 2 4.47664 3.04011 10.8132
27 2 5.02527 4.36251 13.2694
28 2 1.43245 1.38855 10.524
29 2 3.59586 4.77366 8.31037
30 2 3.44718 2.9022 5.67474
31 2 3.76211 0.323538 5.8033
32 2 0.171115 0.57111 2.78662
33 2 5.21833 3.60357 3.32741
34 2 2.92835 1.98102 3.3163
35 2 0.777529 1.6362 5.06369
ITEM: TIMESTEP
7600
ITEM: NUMBER OF ATOMS
35
ITEM: BOX BOUNDS xy xz yz pp pp pp
0.0000000000000000e+00 7.6685730000000003e+00 2.5561910000000001e+00
0.0000000000000000e+00 4.4274529999999999e+00 0.0000000000000000e+00
0.0000000000000000e+00 3.7699264999999997e+01 0.0000000000000000e+00
ITEM: ATOMS id type x y z
1 1 0.556482 0.0620159 35.5717
2 1 2.73777 0.989748 35.5849
3 1 6.20138 3.07681 35.888
4 1 2.68956 2.87484 33.9315
5 1 1.77571 0.903936 33.002
6 1 4.45338 0.750907 33.2299
7 1 3.53677 1.76575 30.8228
8 1 5.28681 2.99272 33.9821
9 1 4.82314 3.98648 31.1992
10 1 6.40967 3.93571 28.8311
11 1 6.17065 1.72391 30.7622
12 1 4.90643 1.83673 28.6329
13 1 3.72507 3.84257 28.6168
14 1 2.19934 4.01213 31.1614
15 1 2.52824 1.48987 28.5666
16 2 7.04703 4.36517 15.5996
17 2 4.22288 2.83404 15.0028
18 2 2.60437 2.90223 17.5991
19 2 1.50297 1.38399 15.4161
20 2 6.85425 4.29349 10.5331
21 2 2.87517 -0.0452928 17.5232
22 2 2.45521 3.47095 12.9853
23 2 5.24067 1.77865 12.9334
24 2 6.18043 3.22363 7.96264
25 2 3.8094 1.95583 8.19619
26 2 4.27645 2.64952 10.7152
27 2 5.33182 4.81582 13.0409
28 2 1.77768 1.09308 10.9738
29 2 1.05995 0.396058 8.17078
30 2 3.26322 3.20801 5.91899
31 2 3.32459 0.0720088 5.32064
32 2 5.15642 0.241455 3.05095
33 2 5.0467 3.60313 3.13538
34 2 2.75347 1.94956 3.32267
35 2 5.77189 1.7348 5.5673
ITEM: TIMESTEP
7700
ITEM: NUMBER OF ATOMS
35
ITEM: BOX BOUNDS xy xz yz pp pp pp
0.0000000000000000e+00 7.6685730000000003e+00 2.5561910000000001e+00
0.0000000000000000e+00 4.4274529999999999e+00 0.0000000000000000e+00
0.0000000000000000e+00 3.7699264999999997e+01 0.0000000000000000e+00
ITEM: ATOMS id type x y z
1 1 0.417621 0.16458 35.5361
2 1 3.33113 0.977653 35.5868
3 1 6.54758 2.80859 35.6372
4 1 2.89326 2.97741 33.1138
5 1 1.61603 0.523592 33.48
6 1 3.98572 0.700747 33.5459
7 1 3.47697 1.73744 31.0113
8 1 5.4518 2.88379 33.0886
9 1 4.92771 3.98709 31.0099
10 1 6.0681 4.10135 28.9629
11 1 1.08879 1.57563 31.2609
12 1 4.84872 1.82125 28.8824
13 1 3.58721 4.06144 29.125
14 1 7.3971 4.19513 31.2169
15 1 2.21926 1.89243 28.9106
16 2 4.15276 0.325074 15.593
17 2 4.38013 3.00926 15.1869
18 2 3.29335 2.45052 17.3163
19 2 1.64432 1.15635 15.3724
20 2 7.05469 4.4531 10.8122
21 2 5.17319 4.03498 17.7289
22 2 2.83862 3.3821 13.2221
23 2 5.55792 2.04987 12.7845
24 2 6.17052 3.10152 8.35982
25 2 3.41831 1.54729 7.71831
26 2 3.98636 2.91559 10.438
27 2 3.1083 0.762578 13.0502
28 2 1.90556 1.19593 10.2783
29 2 1.36785 0.16409 8.11639
30 2 3.1191 3.48942 5.68386
31 2 2.9718 0.227279 5.4496
32 2 5.02751 0.367411 3.63595
33 2 4.87287 2.98446 2.77785
34 2 2.26998 1.98886 3.46917
35 2 5.73564 1.83539 5.76858
ITEM: TIMESTEP
7800
ITEM: NUMBER OF ATOMS
35
ITEM: BOX BOUNDS xy xz yz pp pp pp
0.0000000000000000e+00 7.6685730000000003e+00 2.5561910000000001e+00
0.0000000000000000e+00 4.4274529999999999e+00 0.0000000000000000e+00
0.0000000000000000e+00 3.7699264999999997e+01 0.0000000000000000e+00
ITEM: ATOMS id type x y z
1 1 0.674819 -0.02528 35.4352
2 1 3.51872 1.29477 35.8798
3 1 6.24949 2.49041 35.2774
4 1 3.0171 2.69717 33.6812
5 1 1.64361 0.734714 33.2175
6 1 4.30766 0.478714 33.2496
7 1 3.65857 1.82121 31.1909
8 1 5.24301 2.9631 33.2313
9 1 4.73921 4.00672 31.3555
10 1 5.91247 4.24407 28.9945
11 1 1.00666 1.72833 31.0374
12 1 4.81781 2.0271 29.0897
13 1 3.48665 4.30307 28.9977
14 1 7.31628 3.67742 31.1516
15 1 2.13598 2.11403 29.1057
16 2 4.56786 -0.102155 15.648
17 2 4.87364 3.28067 15.0116
18 2 3.11028 1.99499 17.6112
19 2 1.44413 1.65802 15.9287
20 2 6.93094 4.53371 10.5059
21 2 5.31534 3.78187 17.6761
22 2 3.11029 3.7011 13.1075
23 2 5.94877 2.29747 12.672
24 2 6.17546 3.19133 8.35993
25 2 3.88633 1.3004 7.76115
26 2 4.38239 3.04441 10.4607
27 2 3.0435 0.655859 12.7087
28 2 1.89869 1.58633 10.3411
29 2 3.34577 4.01084 7.81986
30 2 2.98662 3.01034 5.5337
31 2 2.75674 0.281198 5.3461
32 2 4.72177 0.394568 3.5896
33 2 4.61174 3.1476 3.1161
34 2 1.95306 1.8222 3.36384
35 2 5.58692 2.22601 6.01552
ITEM: TIMESTEP
7900
ITEM: NUMBER OF ATOMS
35
ITEM: BOX BOUNDS xy xz yz pp pp pp
0.0000000000000000e+00 7.6685730000000003e+00 2.5561910000000001e+00
0.0000000000000000e+00 4.4274529999999999e+00 0.0000000000000000e+00
0.0000000000000000e+00 3.7699264999999997e+01 0.0000000000000000e+00
ITEM: ATOMS id type x y z
1 1 3.67 4.31505 35.8258
2 1 3.60248 1.25686 35.6089
3 1 6.09687 2.30026 35.9138
4 1 2.68136 2.94057 33.4967
5 1 1.88025 0.565989 33.4876
6 1 4.42944 0.521654 33.6097
7 1 3.17018 1.52759 31.49
8 1 5.33306 2.79868 33.4315
9 1 4.60581 3.59817 30.709
10 1 6.3461 4.58882 29.0921
11 1 5.77313 1.65706 31.0758
12 1 4.78722 2.42371 28.5826
13 1 3.39286 4.6304 28.7227
14 1 7.19225 3.77004 31.347
15 1 2.31707 2.22378 28.9872
16 2 7.37699 4.40494 15.7599
17 2 4.36359 3.12082 15.0142
18 2 3.62893 1.95153 17.8251
19 2 1.9207 1.56823 15.6253
20 2 4.7462 0.328475 10.3637
21 2 5.55507 3.42872 17.3532
22 2 3.03249 4.14615 12.6549
23 2 5.82666 2.32766 13.0228
24 2 5.90963 2.72988 8.13218
25 2 3.48078 1.31123 8.17587
26 2 4.50426 3.03163 10.7772
27 2 3.19786 0.980742 13.2264
28 2 2.09765 1.65711 10.3256
29 2 3.70534 4.23372 7.93457
30 2 2.86458 2.97645 5.40085
31 2 2.61276 0.294279 5.7067
32 2 4.32471 0.254129 3.48435
33 2 4.30606 3.6414 3.31947
34 2 1.79494 1.85597 2.81911
35 2 5.44269 1.52606 5.48554
ITEM: TIMESTEP
8000
ITEM: NUMBER OF ATOMS
35
ITEM: BOX BOUNDS xy xz yz pp pp pp
0.0000000000000000e+00 7.6685730000000003e+00 2.5561910000000001e+00
0.0000000000000000e+00 4.4274529999999999e+00 0.0000000000000000e+00
0.0000000000000000e+00 3.7699264999999997e+01 0.0000000000000000e+00
ITEM: ATOMS id type x y z
1 1 4.11218 4.01191 35.7961
2 1 3.40201 1.35673 35.7399
3 1 5.84941 2.38387 35.6329
4 1 3.10713 2.68682 33.6698
5 1 1.56767 0.482663 33.4872
6 1 4.29531 0.636617 33.3821
7 1 2.86617 1.14662 31.3214
8 1 5.95979 2.84266 33.28
9 1 4.12748 3.47991 31.1461
10 1 3.65945 0.548304 29.2028
11 1 5.48966 1.29122 30.9003
12 1 5.0807 2.64817 28.7556
13 1 1.3154 0.385082 28.7662
14 1 6.76657 3.70174 31.3825
15 1 2.45192 2.79446 29.4124
16 2 4.70292 0.45478 15.5638
17 2 4.25846 3.00629 15.2878
18 2 3.57844 1.80227 17.595
19 2 2.02268 1.3411 15.5094
20 2 4.63003 0.283321 10.2566
21 2 6.03484 3.14299 17.2928
22 2 3.24705 4.13592 12.9648
23 2 6.12713 2.66602 13.2973
24 2 6.03484 2.48396 7.99182
25 2 3.4317 1.54349 8.12254
26 2 4.93803 3.3161 10.7003
27 2 3.49473 1.0894 12.9609
28 2 2.1481 1.84649 10.9341
29 2 3.55878 4.16336 8.29238
30 2 2.51513 2.84287 5.61261
31 2 2.78866 -0.123702 5.96719
32 2 3.72183 0.459256 2.86273
33 2 4.08388 3.47247 3.13008
34 2 1.59416 2.05893 2.79119
35 2 5.26462 1.30964 5.09991
ITEM: TIMESTEP
8100
ITEM: NUMBER OF ATOMS
35
ITEM: BOX BOUNDS xy xz yz pp pp pp
0.0000000000000000e+00 7.6685730000000003e+00 2.5561910000000001e+00
0.0000000000000000e+00 4.4274529999999999e+00 0.0000000000000000e+00
0.0000000000000000e+00 3.7699264999999997e+01 0.0000000000000000e+00
ITEM: ATOMS id type x y z
1 1 4.06311 3.96718 35.6022
2 1 3.25258 1.11125 35.5061
3 1 6.20876 1.91028 35.3972
4 1 2.96454 2.87654 33.5618
5 1 2.03747 0.705384 33.5293
6 1 4.39888 0.270608 33.6554
7 1 2.59533 1.4488 31.2047
8 1 5.31195 2.58872 33.3697
9 1 3.97854 3.57855 31.507
10 1 3.90585 0.690484 28.9909
11 1 5.09929 1.07686 31.506
12 1 5.26908 3.00501 29.3504
13 1 1.5015 0.820685 29.3605
14 1 6.47511 3.64883 30.9532
15 1 2.86482 2.84167 28.9318
16 2 4.31879 0.248219 15.218
17 2 4.34954 3.14536 15.7214
18 2 3.50022 1.63255 17.6355
19 2 2.04049 1.4923 15.423
20 2 4.74759 0.465104 10.4981
21 2 6.40055 3.01348 17.3474
22 2 4.09222 4.12801 13.0061
23 2 6.40641 2.93896 13.5538
24 2 6.22962 2.68571 8.05701
25 2 3.81703 1.16868 8.01017
26 2 4.64755 3.40867 10.4766
27 2 3.9302 1.17296 12.8661
28 2 2.02195 2.16599 10.6401
29 2 3.4003 4.14181 8.09458
30 2 2.61666 2.49343 5.41874
31 2 5.06095 3.99251 5.53241
32 2 3.55576 0.688384 2.63223
33 2 3.55754 3.26365 3.22349
34 2 0.976554 2.26169 3.21773
35 2 5.10585 1.16434 5.46731
ITEM: TIMESTEP
8200
ITEM: NUMBER OF ATOMS
35
ITEM: BOX BOUNDS xy xz yz pp pp pp
0.0000000000000000e+00 7.6685730000000003e+00 2.5561910000000001e+00
0.0000000000000000e+00 4.4274529999999999e+00 0.0000000000000000e+00
0.0000000000000000e+00 3.7699264999999997e+01 0.0000000000000000e+00
ITEM: ATOMS id type x y z
1 1 3.63803 3.29247 35.3627
2 1 3.94216 1.05215 36.1667
3 1 1.06221 1.89429 35.6028
4 1 2.69331 2.42843 33.4993
5 1 1.39072 0.253151 33.242
6 1 4.46677 0.513573 33.9454
7 1 3.05422 1.69304 31.1558
8 1 5.26459 2.68964 33.7921
9 1 4.00405 3.84561 30.9949
10 1 4.04403 0.589046 29.1963
11 1 5.46191 1.6295 31.4479
12 1 5.25359 3.13703 29.0047
13 1 1.36377 1.07559 29.2503
14 1 6.46772 3.65512 31.5985
15 1 2.567 2.9549 28.7998
16 2 4.56333 0.129029 15.4298
17 2 4.32545 3.01737 15.8365
18 2 3.80806 1.12516 17.9902
19 2 1.94001 1.46449 15.3678
20 2 4.96825 0.735589 10.46
21 2 6.49743 3.15186 17.6729
22 2 4.45725 4.68393 12.8027
23 2 6.67616 2.84517 12.7335
24 2 6.24432 2.77825 7.92068
25 2 3.36278 1.00182 8.08848
26 2 4.53336 3.30813 10.1559
27 2 4.29139 1.93875 13.0834
28 2 2.2398 2.02371 10.3537
29 2 3.85779 4.25126 7.70025
30 2 2.59086 2.08098 5.62234
31 2 4.82819 3.95717 5.13872
32 2 3.33403 0.685126 3.19962
33 2 3.06311 3.9091 2.9564
34 2 5.51307 2.05303 3.54269
35 2 4.84278 0.47475 5.76188
ITEM: TIMESTEP
8300
ITEM: NUMBER OF ATOMS
35
ITEM: BOX BOUNDS xy xz yz pp pp pp
0.0000000000000000e+00 7.6685730000000003e+00 2.5561910000000001e+00
0.0000000000000000e+00 4.4274529999999999e+00 0.0000000000000000e+00
0.0000000000000000e+00 3.7699264999999997e+01 0.0000000000000000e+00
ITEM: ATOMS id type x y z
1 1 3.18146 3.51537 35.7615
2 1 4.18513 0.798683 36.4222
3 1 1.71698 1.45107 35.7741
4 1 2.72681 2.44384 33.5596
5 1 1.16169 0.392651 33.2565
6 1 3.67228 0.210734 34.3249
7 1 2.68891 1.66856 31.347
8 1 5.20195 2.67814 33.5361
9 1 4.16783 3.78065 31.05
10 1 4.11863 0.873105 29.2417
11 1 5.5121 1.94755 30.9174
12 1 5.19426 2.89201 28.8012
13 1 1.43884 0.798615 28.6451
14 1 6.91472 4.16802 31.7575
15 1 2.66711 3.22779 29.2745
16 2 4.66169 -0.16573 15.1091
17 2 4.59995 3.10725 15.9456
18 2 3.9616 1.31915 17.727
19 2 1.75344 1.59863 15.512
20 2 4.83043 0.619833 10.4383
21 2 6.7398 2.43428 17.8327
22 2 1.96277 0.579067 12.9405
23 2 2.06597 3.64714 12.3509
24 2 5.97552 2.57903 7.65948
25 2 3.78213 1.4461 7.97602
26 2 5.11452 3.47783 10.2819
27 2 4.30932 2.14298 13.2695
28 2 2.41378 1.66477 10.3244
29 2 3.56362 4.06902 7.98089
30 2 2.3838 2.01786 5.52236
31 2 4.60181 3.46389 5.48987
32 2 2.74018 0.967625 3.22453
33 2 2.6871 3.77647 2.79921
34 2 5.63183 2.06668 3.66203
35 2 4.53362 0.325018 5.5569
ITEM: TIMESTEP
8400
ITEM: NUMBER OF ATOMS
35
ITEM: BOX BOUNDS xy xz yz pp pp pp
0.0000000000000000e+00 7.6685730000000003e+00 2.5561910000000001e+00
0.0000000000000000e+00 4.4274529999999999e+00 0.0000000000000000e+00
0.0000000000000000e+00 3.7699264999999997e+01 0.0000000000000000e+00
ITEM: ATOMS id type x y z
1 1 3.40606 3.53916 35.9223
2 1 4.37331 1.30187 36.3333
3 1 2.07645 1.38189 35.7619
4 1 2.24578 2.59466 33.6101
5 1 1.16239 0.367476 33.6144
6 1 3.4727 0.00260108 33.9846
7 1 3.07556 1.85261 31.6154
8 1 4.61099 2.20369 33.2604
9 1 4.33241 4.05683 31.3187
10 1 3.86651 0.859888 29.2529
11 1 5.55388 1.81012 30.8391
12 1 5.37859 3.10346 28.5882
13 1 1.47556 0.685725 28.9245
14 1 6.88476 4.13922 31.7322
15 1 2.52411 3.06019 29.5632
16 2 6.87874 4.36966 15.0972
17 2 4.6927 3.50483 16.166
18 2 4.31109 0.861721 17.0804
19 2 1.98349 1.6168 15.3195
20 2 5.00718 0.940972 10.3346
21 2 1.78327 2.31877 17.8115
22 2 2.07851 0.556395 12.9593
23 2 2.18423 3.63074 12.627
24 2 6.3277 2.74302 8.00637
25 2 3.48125 1.02522 7.65552
26 2 5.20438 3.51981 10.6566
27 2 4.55749 2.28537 13.4316
28 2 2.47334 2.08124 10.4292
29 2 3.43546 3.97866 8.14533
30 2 1.95046 1.77485 5.54537
31 2 4.31826 3.51081 5.79106
32 2 2.77489 0.638137 2.82211
33 2 2.69806 3.42785 3.12924
34 2 5.13257 2.41001 3.26649
35 2 4.52213 0.329946 5.09964
ITEM: TIMESTEP
8500
ITEM: NUMBER OF ATOMS
35
ITEM: BOX BOUNDS xy xz yz pp pp pp
0.0000000000000000e+00 7.6685730000000003e+00 2.5561910000000001e+00
0.0000000000000000e+00 4.4274529999999999e+00 0.0000000000000000e+00
0.0000000000000000e+00 3.7699264999999997e+01 0.0000000000000000e+00
ITEM: ATOMS id type x y z
1 1 3.62067 3.78349 35.5499
2 1 5.06665 1.28396 35.494
3 1 2.09835 1.6983 36.0529
4 1 1.82426 2.16149 33.7539
5 1 0.469845 -0.142945 33.373
6 1 3.29758 0.283368 34.1484
7 1 3.20635 1.69869 31.5654
8 1 4.54774 2.63364 33.5886
9 1 4.42735 4.12119 31.3314
10 1 3.88808 0.81533 29.451
11 1 5.74343 1.95402 31.545
12 1 5.19052 3.00941 29.1811
13 1 1.34298 0.79019 29.0757
14 1 6.94967 4.04691 31.5676
15 1 2.64447 2.92828 29.3593
16 2 7.1506 4.38004 14.6292
17 2 4.11185 3.71625 16.5292
18 2 4.7979 0.788697 17.673
19 2 2.11587 1.77627 15.104
20 2 4.98074 0.900869 10.8148
21 2 1.9928 2.50827 17.568
22 2 2.08744 0.724606 12.8744
23 2 2.22096 3.29132 12.4435
24 2 6.17437 2.66902 8.33866
25 2 3.28432 0.998796 7.85563
26 2 4.98981 3.95617 10.5274
27 2 4.82259 2.35809 13.5231
28 2 2.94661 2.36937 10.1346
29 2 3.66235 3.93155 8.17112
30 2 1.4104 1.77866 5.30232
31 2 4.47854 3.22849 5.40382
32 2 2.6864 0.425803 2.82249
33 2 2.61207 3.3438 3.12417
34 2 5.18483 1.9816 2.95737
35 2 4.12731 0.359956 5.32611
ITEM: TIMESTEP
8600
ITEM: NUMBER OF ATOMS
35
ITEM: BOX BOUNDS xy xz yz pp pp pp
0.0000000000000000e+00 7.6685730000000003e+00 2.5561910000000001e+00
0.0000000000000000e+00 4.4274529999999999e+00 0.0000000000000000e+00
0.0000000000000000e+00 3.7699264999999997e+01 0.0000000000000000e+00
ITEM: ATOMS id type x y z
1 1 4.25343 3.55883 35.7429
2 1 5.00586 1.42984 35.6338
3 1 2.78474 1.81604 36.1853
4 1 1.70494 2.42572 34.0825
5 1 5.19013 0.341012 33.6041
6 1 2.99545 0.181812 34.2629
7 1 3.10419 1.86452 31.5323
8 1 4.36849 2.76592 33.4315
9 1 4.35621 4.18976 31.4395
10 1 3.84692 0.728211 28.8868
11 1 5.69903 1.67709 31.5295
12 1 5.07648 2.68799 29.7088
13 1 1.31059 0.751015 29.3116
14 1 6.77688 3.8771 31.2007
15 1 2.8339 2.87438 29.2443
16 2 4.71892 0.201176 15.2257
17 2 4.68746 3.75769 16.5341
18 2 4.79342 1.14475 17.4699
19 2 2.21158 1.73799 15.4347
20 2 5.37714 1.17491 10.9444
21 2 1.9335 2.69816 17.7311
22 2 2.28454 0.442507 12.762
23 2 2.15653 3.23021 12.3181
24 2 5.68019 2.47048 8.10401
25 2 3.63767 1.36177 7.70703
26 2 5.23345 4.10829 10.2431
27 2 4.66768 2.58109 13.5076
28 2 2.76683 2.3258 10.049
29 2 3.26705 4.41029 7.731
30 2 1.59132 1.38277 5.41135
31 2 4.05604 2.94706 4.94691
32 2 2.69216 0.404957 3.15684
33 2 2.30447 3.30003 3.25389
34 2 5.36033 1.30573 2.72062
35 2 3.90451 0.0379973 5.60485
ITEM: TIMESTEP
8700
ITEM: NUMBER OF ATOMS
35
ITEM: BOX BOUNDS xy xz yz pp pp pp
0.0000000000000000e+00 7.6685730000000003e+00 2.5561910000000001e+00
0.0000000000000000e+00 4.4274529999999999e+00 0.0000000000000000e+00
0.0000000000000000e+00 3.7699264999999997e+01 0.0000000000000000e+00
ITEM: ATOMS id type x y z
1 1 4.32194 3.8536 36.282
2 1 5.33535 1.35051 35.9806
3 1 2.76266 1.77272 36.1316
4 1 6.54336 3.02434 34.1666
5 1 0.610671 0.325349 33.8484
6 1 2.76524 0.54234 33.7153
7 1 3.00687 1.66506 30.9645
8 1 4.09678 2.45407 34.1113
9 1 4.40752 3.7989 31.7942
10 1 3.71772 0.537765 28.7914
11 1 5.60772 1.85389 31.615
12 1 5.3018 2.74349 28.8801
13 1 1.40757 0.416551 29.6822
14 1 6.93425 3.98358 31.6068
15 1 2.35321 2.95811 29.0877
16 2 4.99371 0.0110049 14.9559
17 2 5.3135 3.6916 16.1776
18 2 4.4242 1.57185 17.4607
19 2 2.27685 1.91807 15.4178
20 2 5.24348 1.40047 10.7019
21 2 2.1872 2.93568 18.0415
22 2 2.51569 0.833685 12.9091
23 2 2.18556 3.71857 12.7442
24 2 6.00118 3.27106 7.662
25 2 2.89052 1.4728 7.64308
26 2 5.34613 3.96623 10.2248
27 2 4.62864 2.19689 13.8017
28 2 2.70335 2.72121 10.087
29 2 3.41514 4.1126 7.73156
30 2 1.25857 1.15391 5.46103
31 2 4.18524 2.4819 5.09858
32 2 2.57834 0.147056 3.24215
33 2 2.08679 2.6201 2.96098
34 2 4.91199 1.45018 2.846
35 2 6.78213 3.73726 5.38595
ITEM: TIMESTEP
8800
ITEM: NUMBER OF ATOMS
35
ITEM: BOX BOUNDS xy xz yz pp pp pp
0.0000000000000000e+00 7.6685730000000003e+00 2.5561910000000001e+00
0.0000000000000000e+00 4.4274529999999999e+00 0.0000000000000000e+00
0.0000000000000000e+00 3.7699264999999997e+01 0.0000000000000000e+00
ITEM: ATOMS id type x y z
1 1 4.86831 4.10076 36.0491
2 1 5.25385 1.36822 36.6253
3 1 2.53338 1.85433 35.8392
4 1 6.60185 2.6932 34.1268
5 1 5.17853 0.580698 34.0574
6 1 2.80365 0.927472 33.4636
7 1 3.25835 1.55691 31.4318
8 1 4.11312 2.98538 33.6199
9 1 4.55338 3.52716 31.5277
10 1 3.68093 0.311253 29.4904
11 1 5.99676 1.61166 31.9298
12 1 4.80723 2.77564 29.1132
13 1 1.06398 0.532226 29.5308
14 1 7.09549 3.91502 31.6915
15 1 2.31809 2.67094 29.2386
16 2 0.539676 0.165727 15.5984
17 2 5.39876 3.68412 15.8544
18 2 4.4379 1.56037 17.1308
19 2 2.36182 1.90725 15.6351
20 2 5.03473 1.29831 10.3369
21 2 2.53613 3.49636 17.7277
22 2 2.20999 1.13833 12.9352
23 2 2.18697 3.88171 12.5476
24 2 5.61634 2.99086 7.81585
25 2 3.09001 1.48248 7.70918
26 2 5.14489 4.51425 10.577
27 2 5.02355 2.48589 13.6006
28 2 2.80144 2.8098 10.3759
29 2 3.16475 4.42676 8.25602
30 2 1.61941 0.657197 5.34467
31 2 4.07294 2.22512 5.6148
32 2 4.4251 3.68793 3.0584
33 2 2.34519 2.49535 2.38542
34 2 4.53014 1.17232 2.92511
35 2 6.88787 3.71358 4.74636
ITEM: TIMESTEP
8900
ITEM: NUMBER OF ATOMS
35
ITEM: BOX BOUNDS xy xz yz pp pp pp
0.0000000000000000e+00 7.6685730000000003e+00 2.5561910000000001e+00
0.0000000000000000e+00 4.4274529999999999e+00 0.0000000000000000e+00
0.0000000000000000e+00 3.7699264999999997e+01 0.0000000000000000e+00
ITEM: ATOMS id type x y z
1 1 5.25373 3.48639 35.8927
2 1 5.49469 1.29701 36.8296
3 1 2.64733 2.5262 36.1251
4 1 6.26809 2.96391 33.8431
5 1 5.07747 0.841013 34.5485
6 1 2.54966 0.932565 33.8361
7 1 3.84213 1.83907 31.6657
8 1 3.58787 3.08814 33.6784
9 1 4.9004 4.18201 31.6116
10 1 3.61656 0.315985 29.371
11 1 5.90016 1.38497 31.883
12 1 4.55756 2.35441 29.2758
13 1 0.782736 0.253914 29.5391
14 1 7.28759 3.64943 31.8245
15 1 2.26651 2.50384 29.8013
16 2 0.701652 0.377484 15.0248
17 2 5.85561 3.80902 15.7594
18 2 4.72639 2.14276 17.4126
19 2 2.94721 2.12372 15.2792
20 2 5.20772 1.58478 10.6368
21 2 2.60762 3.73524 17.8823
22 2 2.15162 1.14529 13.0652
23 2 2.12695 4.29927 13.0196
24 2 5.51438 2.82907 7.96714
25 2 2.91886 1.21955 8.35274
26 2 4.92064 4.25073 10.5743
27 2 4.73426 2.71496 12.8624
28 2 2.57168 2.82423 10.3803
29 2 2.8062 4.46553 7.63111
30 2 2.0953 0.632423 5.4606
31 2 4.23334 2.2502 5.4416
32 2 4.38265 3.51392 2.77155
33 2 1.69436 2.06744 2.05933
34 2 4.6472 0.497641 2.87528
35 2 6.61709 3.23739 5.02031
ITEM: TIMESTEP
9000
ITEM: NUMBER OF ATOMS
35
ITEM: BOX BOUNDS xy xz yz pp pp pp
0.0000000000000000e+00 7.6685730000000003e+00 2.5561910000000001e+00
0.0000000000000000e+00 4.4274529999999999e+00 0.0000000000000000e+00
0.0000000000000000e+00 3.7699264999999997e+01 0.0000000000000000e+00
ITEM: ATOMS id type x y z
1 1 5.0964 3.32822 36.322
2 1 0.883911 0.782659 37.6024
3 1 2.48026 3.12653 36.288
4 1 6.13628 3.29784 34.0509
5 1 4.7992 0.961653 34.7766
6 1 2.33851 0.945794 34.1847
7 1 3.50107 1.75044 31.8085
8 1 3.71454 3.34955 34.1383
9 1 4.97973 3.70954 31.8116
10 1 3.38112 0.189012 29.4514
11 1 1.23035 1.76664 32.0023
12 1 4.76852 2.10107 29.6001
13 1 3.32474 4.35105 29.9226
14 1 2.55325 4.27415 32.0485
15 1 2.02624 2.25398 29.6844
16 2 0.979913 0.985776 15.6333
17 2 5.96315 4.00734 15.478
18 2 5.05517 2.43382 17.623
19 2 3.8067 2.37584 15.2842
20 2 5.22778 1.18363 10.4374
21 2 2.67215 3.83169 17.4489
22 2 2.19477 1.44135 12.6314
23 2 6.96417 4.24393 12.7647
24 2 5.39351 2.93113 7.8807
25 2 2.62974 1.36021 8.26202
26 2 4.8249 4.0599 10.3933
27 2 4.40096 3.06296 12.9352
28 2 2.17462 3.1735 10.4278
29 2 2.87118 3.88692 7.29865
30 2 1.83742 0.358986 5.1675
31 2 4.36199 1.8805 5.29919
32 2 4.46294 3.38891 2.82576
33 2 1.40624 1.632 2.27679
34 2 4.33763 0.255908 2.97746
35 2 1.90893 3.17656 5.03778
ITEM: TIMESTEP
9100
ITEM: NUMBER OF ATOMS
35
ITEM: BOX BOUNDS xy xz yz pp pp pp
0.0000000000000000e+00 7.6685730000000003e+00 2.5561910000000001e+00
0.0000000000000000e+00 4.4274529999999999e+00 0.0000000000000000e+00
0.0000000000000000e+00 3.7699264999999997e+01 0.0000000000000000e+00
ITEM: ATOMS id type x y z
1 1 4.72053 3.44626 36.438
2 1 1.25599 -0.0299332 0.826846
3 1 2.28491 3.34361 36.5165
4 1 6.0399 3.36854 34.5005
5 1 4.892 1.21751 35.0833
6 1 2.16367 1.14988 35.0168
7 1 3.47792 1.72373 32.1842
8 1 3.88192 3.15915 34.1793
9 1 4.69888 4.0702 32.151
10 1 6.01555 4.11606 30.0325
11 1 1.16407 1.91395 32.3268
12 1 4.91376 2.20569 30.151
13 1 3.49351 4.39044 30.0851
14 1 7.40976 4.26181 32.5724
15 1 2.2842 1.99532 29.6457
16 2 1.49908 1.49302 15.4825
17 2 6.04186 4.1662 15.1713
18 2 5.33669 2.73115 17.7578
19 2 3.79982 2.42398 15.2932
20 2 4.53739 1.39806 10.0256
21 2 2.67462 3.86616 17.1576
22 2 1.94006 1.67994 12.6151
23 2 4.75436 0.180159 13.0329
24 2 5.31292 2.58487 7.48391
25 2 2.771 1.30081 7.56124
26 2 4.63341 4.24017 10.2285
27 2 4.64224 3.23054 12.7409
28 2 2.13605 2.57292 10.0071
29 2 2.93311 4.34236 7.89584
30 2 1.78212 0.0592013 5.05585
31 2 4.49434 1.30424 5.29517
32 2 4.10424 2.90004 2.71379
33 2 1.69997 1.63479 2.93386
34 2 3.8629 0.319722 2.65101
35 2 2.02686 2.91458 4.97248
ITEM: TIMESTEP
9200
ITEM: NUMBER OF ATOMS
35
ITEM: BOX BOUNDS xy xz yz pp pp pp
0.0000000000000000e+00 7.6685730000000003e+00 2.5561910000000001e+00
0.0000000000000000e+00 4.4274529999999999e+00 0.0000000000000000e+00
0.0000000000000000e+00 3.7699264999999997e+01 0.0000000000000000e+00
ITEM: ATOMS id type x y z
1 1 4.81462 3.17061 36.751
2 1 1.12637 0.34483 0.725339
3 1 1.96808 3.36341 37.0488
4 1 6.063 3.52563 34.5372
5 1 4.95607 1.0551 35.4159
6 1 2.38359 1.08837 35.5115
7 1 3.47195 2.13018 32.5839
8 1 3.26964 3.10807 34.768
9 1 4.80858 4.5512 32.8762
10 1 6.25033 4.20091 30.4011
11 1 5.76512 2.04259 32.7172
12 1 4.92293 2.06479 30.3567
13 1 3.88854 4.067 30.6202
14 1 7.32337 4.16809 32.4688
15 1 2.33232 1.95277 30.5783
16 2 1.04955 1.31117 15.1865
17 2 6.06858 4.15855 15.0701
18 2 5.46543 3.00228 17.3345
19 2 3.91978 2.60119 15.0011
20 2 4.22502 1.5497 10.1799
21 2 2.84767 4.30509 17.1012
22 2 2.42283 1.95116 12.7731
23 2 5.0968 0.370367 12.5581
24 2 5.39361 2.7919 7.3713
25 2 2.97908 1.04785 7.22533
26 2 4.51623 4.34963 10.1103
27 2 5.01812 3.16798 12.4632
28 2 1.58811 2.7693 9.91589
29 2 0.276378 -0.0260273 8.09021
30 2 4.49496 3.98848 5.19051
31 2 4.43699 1.05007 4.82693
32 2 4.01296 2.66146 2.88295
33 2 1.34316 1.5329 2.97379
34 2 6.54812 4.11704 2.26396
35 2 1.99896 2.89423 5.57249
ITEM: TIMESTEP
9300
ITEM: NUMBER OF ATOMS
35
ITEM: BOX BOUNDS xy xz yz pp pp pp
0.0000000000000000e+00 7.6685730000000003e+00 2.5561910000000001e+00
0.0000000000000000e+00 4.4274529999999999e+00 0.0000000000000000e+00
0.0000000000000000e+00 3.7699264999999997e+01 0.0000000000000000e+00
ITEM: ATOMS id type x y z
1 1 4.45891 2.7318 37.8078
2 1 0.986745 1.14247 0.309982
3 1 2.30012 3.11751 37.6616
4 1 6.11254 3.32867 35.401
5 1 4.87743 1.1028 35.2713
6 1 2.37775 1.08626 35.9839
7 1 3.57207 2.24234 33.2574
8 1 3.38473 3.47518 35.4506
9 1 2.23586 0.0505915 33.3626
10 1 6.17841 4.2657 30.6093
11 1 6.03379 2.33178 33.0741
12 1 5.00558 1.56773 30.616
13 1 3.62235 3.96061 31.1626
14 1 7.08415 4.46139 33.1428
15 1 2.33337 2.0549 31.2136
16 2 1.16113 1.16041 14.5485
17 2 6.42325 4.38548 14.6464
18 2 5.40854 3.13227 16.7752
19 2 3.44717 2.84276 15.0602
20 2 3.9806 1.64322 10.1381
21 2 0.391298 0.0840956 17.1846
22 2 3.01293 1.93667 12.4585
23 2 5.25506 0.238386 12.1957
24 2 5.06355 2.71067 7.76761
25 2 3.00876 1.18626 7.74331
26 2 1.55244 0.279166 10.1386
27 2 5.47191 3.39618 12.5411
28 2 6.56667 3.0174 10.034
29 2 2.84108 4.07457 7.66856
30 2 4.72303 3.71257 4.96084
31 2 4.37896 0.848807 4.70438
32 2 3.72184 2.87281 2.34109
33 2 1.42406 1.08342 3.07973
34 2 6.36777 3.72918 2.2591
35 2 2.1373 2.65218 5.40005
ITEM: TIMESTEP
9400
ITEM: NUMBER OF ATOMS
35
ITEM: BOX BOUNDS xy xz yz pp pp pp
0.0000000000000000e+00 7.6685730000000003e+00 2.5561910000000001e+00
0.0000000000000000e+00 4.4274529999999999e+00 0.0000000000000000e+00
0.0000000000000000e+00 3.7699264999999997e+01 0.0000000000000000e+00
ITEM: ATOMS id type x y z
1 1 5.05515 2.70744 37.5762
2 1 1.24841 0.489405 0.583541
3 1 2.10937 3.39386 0.44345
4 1 6.24471 3.45358 35.4948
5 1 4.9144 1.24877 35.5887
6 1 2.39661 1.24577 36.0854
7 1 3.28111 2.31262 33.6248
8 1 3.63288 3.67515 35.8242
9 1 2.14967 0.222978 33.8623
10 1 6.14427 3.79744 31.6848
11 1 6.06176 2.32329 33.606
12 1 4.8067 1.79916 31.6068
13 1 3.52941 3.97573 31.6211
14 1 4.73818 0.231497 33.4457
15 1 2.48631 1.55558 31.3632
16 2 1.42945 1.33149 14.4752
17 2 4.00807 0.43621 14.6903
18 2 5.59407 3.10337 16.3417
19 2 3.37783 2.91415 15.1296
20 2 4.09154 1.8668 9.84544
21 2 0.28278 0.369227 16.9408
22 2 2.99804 1.88249 12.3409
23 2 0.378249 0.239626 12.2804
24 2 5.38618 2.41714 7.50692
25 2 2.42741 0.881074 7.54383
26 2 1.31746 0.381125 9.70844
27 2 5.33527 3.29434 12.4133
28 2 6.76479 3.34919 10.0094
29 2 2.62328 4.0187 7.25894
30 2 4.86315 3.55926 5.0937
31 2 4.58091 0.872708 4.95902
32 2 3.41571 2.52301 2.48403
33 2 1.31573 1.04402 2.965
34 2 6.04599 4.06496 2.52973
35 2 2.15498 2.03122 5.09701
ITEM: TIMESTEP
9500
ITEM: NUMBER OF ATOMS
35
ITEM: BOX BOUNDS xy xz yz pp pp pp
0.0000000000000000e+00 7.6685730000000003e+00 2.5561910000000001e+00
0.0000000000000000e+00 4.4274529999999999e+00 0.0000000000000000e+00
0.0000000000000000e+00 3.7699264999999997e+01 0.0000000000000000e+00
ITEM: ATOMS id type x y z
1 1 4.71819 2.14723 0.861678
2 1 2.21341 0.355669 0.587699
3 1 2.22905 3.35523 0.501391
4 1 5.99743 3.89245 36.3219
5 1 5.2239 1.60533 36.3443
6 1 2.50124 1.69912 36.1511
7 1 3.38852 2.50858 33.9645
8 1 3.944 3.66363 36.0701
9 1 2.30355 0.147039 33.7923
10 1 6.14044 3.64309 31.8716
11 1 6.02869 2.35536 34.0036
12 1 4.60966 1.47914 31.7747
13 1 3.68221 3.62626 31.7124
14 1 4.86563 0.115391 33.9842
15 1 1.99062 1.50473 31.8367
16 2 1.53153 1.42475 14.6336
17 2 3.89126 0.521845 14.3092
18 2 5.88104 3.39319 16.4894
19 2 3.72676 3.33668 14.7804
20 2 4.16048 2.06671 9.60393
21 2 5.25244 0.6832 16.9268
22 2 2.73008 1.63947 11.9229
23 2 0.270568 0.221387 12.1167
24 2 5.2596 2.20925 7.31836
25 2 2.77653 0.616257 7.15084
26 2 1.62885 0.30189 9.72313
27 2 5.2325 3.0851 12.5903
28 2 6.43806 3.65077 9.76792
29 2 2.50005 3.62791 7.38612
30 2 4.69305 3.54038 4.9311
31 2 4.90831 0.540119 5.07411
32 2 3.48343 2.45535 2.83949
33 2 5.64769 1.18892 2.47271
34 2 6.02609 4.09763 2.89335
35 2 2.21295 2.0966 4.90434
ITEM: TIMESTEP
9600
ITEM: NUMBER OF ATOMS
35
ITEM: BOX BOUNDS xy xz yz pp pp pp
0.0000000000000000e+00 7.6685730000000003e+00 2.5561910000000001e+00
0.0000000000000000e+00 4.4274529999999999e+00 0.0000000000000000e+00
0.0000000000000000e+00 3.7699264999999997e+01 0.0000000000000000e+00
ITEM: ATOMS id type x y z
1 1 4.326 2.67196 0.269259
2 1 2.82576 0.931488 0.568119
3 1 1.81944 3.54237 0.690476
4 1 6.31394 4.12206 36.2935
5 1 5.43097 1.72264 36.2428
6 1 2.68901 1.83088 36.0919
7 1 3.92472 2.22531 33.8449
8 1 3.80634 3.81995 36.1506
9 1 2.2466 0.0872426 34.2405
10 1 5.718 3.6152 31.8738
11 1 6.17459 2.49107 34.2988
12 1 4.80339 1.17495 31.9243
13 1 3.18423 3.55958 32.0513
14 1 4.99636 0.111255 34.1998
15 1 1.99501 1.43199 32.2885
16 2 1.49601 1.94065 14.4894
17 2 4.06248 0.315106 14.1728
18 2 5.69912 3.98041 16.5722
19 2 3.76756 3.28424 14.8396
20 2 4.00762 1.97122 9.84666
21 2 5.43736 1.08358 16.7143
22 2 2.49602 1.52869 11.9429
23 2 0.183214 -0.0204523 11.7916
24 2 5.24844 1.88985 7.21932
25 2 2.89718 0.401159 7.20931
26 2 1.37303 0.735634 9.37615
27 2 5.21663 2.96056 12.3195
28 2 6.47024 3.49675 9.90382
29 2 2.9971 3.15532 7.73427
30 2 4.58749 3.34345 5.09289
31 2 4.81854 0.482383 4.99495
32 2 3.31377 2.80751 2.67936
33 2 1.00737 0.961477 2.44673
34 2 5.96575 3.91666 2.86296
35 2 1.94723 2.02786 5.1868
ITEM: TIMESTEP
9700
ITEM: NUMBER OF ATOMS
35
ITEM: BOX BOUNDS xy xz yz pp pp pp
0.0000000000000000e+00 7.6685730000000003e+00 2.5561910000000001e+00
0.0000000000000000e+00 4.4274529999999999e+00 0.0000000000000000e+00
0.0000000000000000e+00 3.7699264999999997e+01 0.0000000000000000e+00
ITEM: ATOMS id type x y z
1 1 4.74344 3.36625 0.741822
2 1 2.46916 1.42299 0.506192
3 1 2.41096 3.85561 0.154229
4 1 6.49775 3.8973 35.795
5 1 5.10182 1.72033 36.4246
6 1 2.65662 1.83786 35.9382
7 1 4.20571 2.53656 34.102
8 1 3.96251 4.1353 36.3977
9 1 2.57832 0.290557 33.9789
10 1 5.54152 3.39591 31.9897
11 1 1.56347 2.37931 33.831
12 1 4.38694 1.30577 31.8128
13 1 2.98442 3.48995 31.8254
14 1 5.3846 0.550167 33.8758
15 1 2.11535 1.1292 31.3511
16 2 1.31669 2.2194 14.2476
17 2 4.1776 0.549718 14.2454
18 2 2.95503 0.230779 16.481
19 2 3.7527 3.13025 15.021
20 2 3.76419 1.8348 9.89077
21 2 5.55255 1.4496 16.5893
22 2 2.64094 1.35751 12.3597
23 2 2.83314 4.21999 12.1098
24 2 5.49312 1.58301 7.2625
25 2 5.75733 4.37093 7.32114
26 2 1.38477 0.608865 9.72453
27 2 5.10252 2.84086 12.0999
28 2 6.18221 3.53995 9.61498
29 2 3.00805 3.12701 7.47269
30 2 4.36505 3.24052 5.15349
31 2 4.52353 0.449383 4.89959
32 2 3.45798 2.1329 2.97464
33 2 0.885665 1.29058 2.57141
34 2 5.79033 4.01299 3.00093
35 2 2.09201 1.80685 5.16419
ITEM: TIMESTEP
9800
ITEM: NUMBER OF ATOMS
35
ITEM: BOX BOUNDS xy xz yz pp pp pp
0.0000000000000000e+00 7.6685730000000003e+00 2.5561910000000001e+00
0.0000000000000000e+00 4.4274529999999999e+00 0.0000000000000000e+00
0.0000000000000000e+00 3.7699264999999997e+01 0.0000000000000000e+00
ITEM: ATOMS id type x y z
1 1 5.05804 3.18821 0.477197
2 1 2.40909 1.44897 0.578524
3 1 2.34239 4.32357 0.866277
4 1 6.6352 4.02347 36.0663
5 1 5.03379 1.50048 36.4903
6 1 2.72531 2.0667 35.8172
7 1 4.5607 2.80541 33.6095
8 1 4.19015 4.13886 35.5813
9 1 3.27597 0.6979 33.6035
10 1 5.67336 3.23737 31.2239
11 1 1.89666 2.7388 33.4001
12 1 4.07568 1.22284 31.5185
13 1 3.27089 3.44635 31.4834
14 1 0.578551 0.594784 33.7873
15 1 1.19916 1.00309 30.4282
16 2 6.42919 2.29058 14.6777
17 2 4.1254 0.712588 14.4998
18 2 2.78389 0.870616 16.6243
19 2 3.81079 3.53525 15.0843
20 2 3.62561 1.85649 9.58374
21 2 5.37382 1.68623 16.9398
22 2 2.90778 1.10081 12.004
23 2 2.541 3.97568 12.3463
24 2 5.66812 1.29805 7.60997
25 2 5.57628 4.42202 7.18881
26 2 1.20618 0.114993 10.1317
27 2 5.24364 2.69688 12.0736
28 2 6.52341 3.32118 9.8501
29 2 3.15406 2.9377 7.39487
30 2 4.53313 3.45535 5.0184
31 2 4.68374 0.21842 5.08792
32 2 3.23187 2.50532 2.74034
33 2 5.69255 1.07416 2.91715
34 2 5.77871 3.76303 2.65115
35 2 1.86714 1.76591 5.11267
ITEM: TIMESTEP
9900
ITEM: NUMBER OF ATOMS
35
ITEM: BOX BOUNDS xy xz yz pp pp pp
0.0000000000000000e+00 7.6685730000000003e+00 2.5561910000000001e+00
0.0000000000000000e+00 4.4274529999999999e+00 0.0000000000000000e+00
0.0000000000000000e+00 3.7699264999999997e+01 0.0000000000000000e+00
ITEM: ATOMS id type x y z
1 1 4.58423 2.86136 0.273007
2 1 1.91245 1.25061 0.165761
3 1 7.45618 4.06275 0.0162978
4 1 6.44435 3.94034 35.309
5 1 5.83328 1.72161 35.35
6 1 3.10407 1.78034 35.3703
7 1 4.55691 2.75733 33.1602
8 1 3.80715 3.89961 35.6259
9 1 3.38463 0.507536 33.344
10 1 5.82566 3.40343 31.0162
11 1 2.23089 3.1411 33.3962
12 1 3.61454 1.15074 30.9627
13 1 3.14934 3.47794 31.1705
14 1 0.915125 0.669506 32.9717
15 1 1.36333 1.18918 30.5847
16 2 1.59282 2.30522 14.9233
17 2 3.91062 1.00423 14.6685
18 2 2.52335 1.04462 17.2699
19 2 4.13071 4.06434 15.0418
20 2 4.06345 1.48566 9.78732
21 2 4.92542 2.16302 17.1828
22 2 2.5759 0.952429 12.2306
23 2 2.69626 3.61109 12.7149
24 2 5.79506 1.55586 7.78653
25 2 5.48154 4.26939 7.66405
26 2 1.3241 -0.0491389 10.0472
27 2 5.12662 2.29829 12.345
28 2 6.56273 2.94504 9.87849
29 2 3.20148 2.85627 7.09299
30 2 4.64476 3.01899 4.88874
31 2 4.29225 0.354026 5.25401
32 2 3.14786 2.86989 2.48682
33 2 0.758289 1.07561 2.74117
34 2 5.84605 4.13497 2.5454
35 2 1.88143 1.8604 5.16982
ITEM: TIMESTEP
10000
ITEM: NUMBER OF ATOMS
35
ITEM: BOX BOUNDS xy xz yz pp pp pp
0.0000000000000000e+00 7.6685730000000003e+00 2.5561910000000001e+00
0.0000000000000000e+00 4.4274529999999999e+00 0.0000000000000000e+00
0.0000000000000000e+00 3.7699264999999997e+01 0.0000000000000000e+00
ITEM: ATOMS id type x y z
1 1 4.60441 2.08938 0.070805
2 1 1.912 1.16645 37.4601
3 1 7.20842 3.96653 0.10892
4 1 6.69078 3.64446 35.3206
5 1 5.58542 1.5941 34.8946
6 1 3.0639 1.79176 35.6006
7 1 4.52158 3.05754 33.0427
8 1 4.26845 4.02228 35.1363
9 1 3.52004 0.471421 32.8488
10 1 5.52387 3.53508 30.9637
11 1 2.21877 2.54429 32.8777
12 1 4.59027 1.56154 30.3748
13 1 2.64734 3.80637 30.3018
14 1 0.767852 0.472586 32.5739
15 1 1.79616 1.35366 30.2664
16 2 1.59232 2.80931 15.2434
17 2 4.10156 1.34023 15.0332
18 2 2.21799 1.07359 17.6365
19 2 4.21399 4.27889 15.147
20 2 4.17287 1.20236 10.2842
21 2 4.54849 2.71825 17.0646
22 2 2.46708 0.403159 12.7518
23 2 2.64963 3.48087 12.6467
24 2 5.63782 1.58617 7.04453
25 2 5.85169 4.34897 7.93032
26 2 4.14791 4.00654 10.1724
27 2 5.23598 1.90615 12.7521
28 2 6.63384 2.69187 10.3945
29 2 3.14916 2.96545 7.75541
30 2 4.28729 3.22051 4.63129
31 2 4.34152 0.273201 5.23002
32 2 3.05858 2.766 2.42081
33 2 5.81899 1.35616 2.24852
34 2 3.31267 0.249775 2.24203
35 2 1.89486 1.40117 4.69631
ITEM: TIMESTEP
10100
ITEM: NUMBER OF ATOMS
35
ITEM: BOX BOUNDS xy xz yz pp pp pp
0.0000000000000000e+00 7.6685730000000003e+00 2.5561910000000001e+00
0.0000000000000000e+00 4.4274529999999999e+00 0.0000000000000000e+00
0.0000000000000000e+00 3.7699264999999997e+01 0.0000000000000000e+00
ITEM: ATOMS id type x y z
1 1 4.6061 2.19818 37.3458
2 1 2.04691 0.623401 37.6138
3 1 6.9207 3.41338 37.5095
4 1 7.00171 3.74642 35.0797
5 1 5.67414 1.33531 35.1352
6 1 3.22346 1.98204 34.9357
7 1 4.5671 2.49057 32.7632
8 1 4.59568 4.02533 35.2489
9 1 3.19484 0.507162 33.2812
10 1 5.43077 3.91307 30.7077
11 1 1.72068 2.53838 32.0203
12 1 4.8977 1.81288 30.1331
13 1 3.19186 3.85661 30.0972
14 1 0.698601 0.303453 32.11
15 1 2.32433 1.68446 29.9
16 2 6.676 3.20275 15.7331
17 2 4.10423 1.39485 15.4057
18 2 1.93487 1.24705 17.2811
19 2 1.31479 0.208111 15.0701
20 2 4.17247 0.891666 10.4961
21 2 4.28966 3.01869 17.6467
22 2 3.13371 0.277198 12.9098
23 2 2.73297 3.15778 12.9499
24 2 5.82972 1.4731 7.17488
25 2 3.20643 0.297483 7.62506
26 2 4.11676 3.99034 10.2739
27 2 5.44658 1.77435 12.9063
28 2 1.60002 2.17224 10.2852
29 2 2.98757 2.97195 7.91372
30 2 4.43255 3.20832 4.90591
31 2 6.94414 4.02489 4.80263
32 2 2.98796 3.29932 2.22802
33 2 5.45881 1.6149 2.21176
34 2 3.00615 0.0255864 2.15273
35 2 1.98991 1.62775 4.53233
ITEM: TIMESTEP
10200
ITEM: NUMBER OF ATOMS
35
ITEM: BOX BOUNDS xy xz yz pp pp pp
0.0000000000000000e+00 7.6685730000000003e+00 2.5561910000000001e+00
0.0000000000000000e+00 4.4274529999999999e+00 0.0000000000000000e+00
0.0000000000000000e+00 3.7699264999999997e+01 0.0000000000000000e+00
ITEM: ATOMS id type x y z
1 1 4.05683 2.21992 37.6806
2 1 1.60185 0.639693 37.539
3 1 6.77184 3.15348 37.2876
4 1 7.17439 4.19933 34.5009
5 1 6.14541 1.94755 34.6054
6 1 3.50757 1.57287 34.9988
7 1 4.4108 2.25159 32.7079
8 1 4.51332 3.76214 35.3956
9 1 2.7924 0.118971 33.1043
10 1 6.14815 4.26092 30.3942
11 1 2.17128 2.41767 32.1657
12 1 4.78302 1.72849 30.5069
13 1 3.56951 3.9439 29.6412
14 1 0.354318 0.332952 32.6609
15 1 2.28641 1.87648 29.658
16 2 6.26628 3.59029 15.8951
17 2 3.93743 1.96826 15.6769
18 2 1.7475 1.28922 17.4538
19 2 1.39646 0.225883 14.846
20 2 4.20491 0.683913 9.96815
21 2 4.0421 3.14885 17.8482
22 2 3.2979 0.0813001 12.7723
23 2 3.26144 2.67154 13.0617
24 2 5.6741 1.38959 7.51782
25 2 3.04939 0.146735 7.38001
26 2 4.20279 3.71905 10.6322
27 2 5.72427 1.85107 12.789
28 2 1.67372 2.24634 9.87764
29 2 2.98199 3.17987 7.58246
30 2 4.57718 2.66665 5.47
31 2 7.08714 4.50123 4.6691
32 2 2.90294 3.36038 2.02879
33 2 5.25134 1.83232 2.42455
34 2 5.43744 4.51159 2.38478
35 2 2.13755 1.24338 4.58983
ITEM: TIMESTEP
10300
ITEM: NUMBER OF ATOMS
35
ITEM: BOX BOUNDS xy xz yz pp pp pp
0.0000000000000000e+00 7.6685730000000003e+00 2.5561910000000001e+00
0.0000000000000000e+00 4.4274529999999999e+00 0.0000000000000000e+00
0.0000000000000000e+00 3.7699264999999997e+01 0.0000000000000000e+00
ITEM: ATOMS id type x y z
1 1 3.74989 1.67823 37.9317
2 1 0.933348 0.855422 37.8243
3 1 6.25863 3.52792 37.4433
4 1 7.6526 3.81179 35.063
5 1 6.15233 1.69641 34.5806
6 1 3.42288 1.57613 35.5535
7 1 3.8941 2.67429 33.204
8 1 5.16403 4.00285 35.5952
9 1 3.21876 0.459381 33.0208
10 1 6.41132 4.11655 30.0614
11 1 1.51522 2.31105 32.2466
12 1 5.00999 2.06626 30.5856
13 1 4.12707 4.18616 30.133
14 1 0.223948 -0.0667269 31.8745
15 1 2.4403 1.67867 30.0611
16 2 6.37059 3.60121 15.7658
17 2 3.92422 2.03147 15.317
18 2 1.35736 1.55059 17.4061
19 2 1.35966 0.687527 15.0085
20 2 4.18387 0.863741 9.84426
21 2 3.73597 3.29862 17.8192
22 2 3.77624 -0.205529 12.6708
23 2 3.20058 2.67961 12.7712
24 2 5.48987 1.54242 7.69187
25 2 2.98727 -0.0952631 7.46683
26 2 4.29372 3.59203 10.3503
27 2 5.90526 1.29005 12.3688
28 2 1.82405 2.45726 10.0289
29 2 2.95978 2.93157 7.44099
30 2 4.60802 2.73677 5.08881
31 2 7.48402 4.2026 4.75024
32 2 2.56757 3.08784 2.26936
33 2 5.32345 1.85807 2.73774
34 2 5.43281 4.86177 2.22237
35 2 2.10912 1.28295 5.03025
ITEM: TIMESTEP
10400
ITEM: NUMBER OF ATOMS
35
ITEM: BOX BOUNDS xy xz yz pp pp pp
0.0000000000000000e+00 7.6685730000000003e+00 2.5561910000000001e+00
0.0000000000000000e+00 4.4274529999999999e+00 0.0000000000000000e+00
0.0000000000000000e+00 3.7699264999999997e+01 0.0000000000000000e+00
ITEM: ATOMS id type x y z
1 1 3.55715 2.20515 0.312172
2 1 0.871507 0.488538 0.341605
3 1 6.16559 3.33634 38.1833
4 1 2.29598 3.72946 35.5218
5 1 1.27372 1.32503 35.1126
6 1 3.85455 1.7433 35.6799
7 1 3.93016 2.87509 33.5349
8 1 5.15167 3.74551 35.1549
9 1 2.76866 0.626506 33.091
10 1 6.82399 4.06015 30.0247
11 1 0.958737 2.40052 33.0755
12 1 5.44783 1.84277 30.8317
13 1 4.17367 4.12732 30.1136
14 1 3.00404 4.5353 32.2859
15 1 2.74532 2.21904 30.8558
16 2 6.81559 3.74904 15.4583
17 2 4.02465 1.95242 15.0358
18 2 0.85002 1.83696 17.3373
19 2 1.31633 0.791381 14.5862
20 2 4.00999 0.960862 10.3428
21 2 3.5261 3.39064 17.0066
22 2 5.88127 4.03237 12.9592
23 2 3.64643 2.61474 12.5739
24 2 5.5943 1.49794 7.45511
25 2 5.48188 4.38851 7.59748
26 2 4.41349 3.86661 9.6813
27 2 0.970872 0.75699 11.8718
28 2 1.79145 2.53777 10.1086
29 2 2.9969 2.77209 7.66453
30 2 4.85416 3.17232 4.65717
31 2 2.01469 4.01439 5.10842
32 2 2.68413 3.17308 2.57159
33 2 5.38589 1.63775 2.50757
34 2 2.48293 0.142806 2.61513
35 2 2.30233 1.30343 5.38688
ITEM: TIMESTEP
10500
ITEM: NUMBER OF ATOMS
35
ITEM: BOX BOUNDS xy xz yz pp pp pp
0.0000000000000000e+00 7.6685730000000003e+00 2.5561910000000001e+00
0.0000000000000000e+00 4.4274529999999999e+00 0.0000000000000000e+00
0.0000000000000000e+00 3.7699264999999997e+01 0.0000000000000000e+00
ITEM: ATOMS id type x y z
1 1 3.42536 2.178 0.568869
2 1 1.31701 0.371862 -0.0614004
3 1 5.99415 3.1556 0.20073
4 1 2.88554 3.46143 35.7663
5 1 1.31869 1.66767 35.6765
6 1 4.24457 1.16474 35.9035
7 1 3.8507 2.37216 33.9447
8 1 5.12378 3.46033 35.7415
9 1 2.37063 0.0633781 33.2433
10 1 6.90563 4.53281 30.5734
11 1 6.50997 2.98194 33.5889
12 1 5.57812 2.21614 30.6375
13 1 4.28752 4.39097 31.0267
14 1 -0.205702 0.496493 32.6598
15 1 2.97558 2.20264 31.3704
16 2 6.67572 3.65833 15.2705
17 2 4.16592 1.98172 14.7862
18 2 5.61392 1.82506 16.7799
19 2 1.48085 0.895195 14.3445
20 2 3.9972 1.01487 10.0455
21 2 3.88929 3.88432 16.8501
22 2 5.91148 3.56761 12.7008
23 2 3.42125 2.21419 12.3412
24 2 5.51289 1.481 7.49194
25 2 5.85142 4.39277 7.51627
26 2 4.15613 3.85822 9.79703
27 2 1.04355 0.811025 11.8564
28 2 1.53359 2.84035 10.075
29 2 3.13507 2.87049 7.53494
30 2 4.58518 2.63865 5.2232
31 2 7.41653 4.67739 5.24128
32 2 2.62319 3.06466 3.05656
33 2 5.0645 1.31133 2.38156
34 2 2.65295 0.13466 2.67318
35 2 2.18536 1.51112 5.00724
ITEM: TIMESTEP
10600
ITEM: NUMBER OF ATOMS
35
ITEM: BOX BOUNDS xy xz yz pp pp pp
0.0000000000000000e+00 7.6685730000000003e+00 2.5561910000000001e+00
0.0000000000000000e+00 4.4274529999999999e+00 0.0000000000000000e+00
0.0000000000000000e+00 3.7699264999999997e+01 0.0000000000000000e+00
ITEM: ATOMS id type x y z
1 1 3.27301 2.05834 0.541431
2 1 1.19443 0.299086 0.604124
3 1 6.31332 3.23194 0.6443
4 1 2.75789 3.52367 36.1085
5 1 1.70603 1.31386 35.9463
6 1 4.20722 1.1437 36.6612
7 1 3.99096 2.41322 34.4666
8 1 5.44858 3.45165 36.0374
9 1 2.00279 0.187947 33.8778
10 1 4.24152 0.163131 30.8711
11 1 6.91453 2.61097 33.1735
12 1 5.59931 2.68697 31.541
13 1 4.21931 4.71514 31.5982
14 1 4.85715 0.442115 33.1463
15 1 3.06272 2.27476 31.3397
16 2 6.88869 3.73104 15.2039
17 2 4.11752 2.14905 14.4528
18 2 5.52312 1.88147 16.9388
19 2 1.7303 0.667346 14.4689
20 2 3.91535 1.165 9.55642
21 2 4.29158 3.93495 16.7948
22 2 6.02282 3.75752 12.3402
23 2 3.06147 2.13406 12.0433
24 2 5.99895 1.48776 7.90638
25 2 5.6737 4.34412 7.28925
26 2 4.05555 3.92022 9.74879
27 2 0.371622 0.785389 11.9453
28 2 6.72253 2.68196 9.90033
29 2 2.94062 2.94727 7.29945
30 2 4.84879 3.00657 5.21136
31 2 4.92975 -0.160064 4.87401
32 2 2.47201 2.87458 2.56754
33 2 5.1018 1.47796 2.5394
34 2 2.62548 -0.127145 2.76749
35 2 1.95192 1.46646 5.11723
ITEM: TIMESTEP
10700
ITEM: NUMBER OF ATOMS
35
ITEM: BOX BOUNDS xy xz yz pp pp pp
0.0000000000000000e+00 7.6685730000000003e+00 2.5561910000000001e+00
0.0000000000000000e+00 4.4274529999999999e+00 0.0000000000000000e+00
0.0000000000000000e+00 3.7699264999999997e+01 0.0000000000000000e+00
ITEM: ATOMS id type x y z
1 1 3.73629 1.93174 0.601063
2 1 0.799217 0.0722189 0.995311
3 1 5.80079 3.84235 0.663345
4 1 3.02366 3.39756 35.8936
5 1 2.27706 1.16795 36.5902
6 1 4.77747 1.05459 36.2113
7 1 4.05687 2.20125 34.1744
8 1 5.45996 3.57226 35.7609
9 1 2.71518 0.0212483 33.7204
10 1 4.16593 0.143528 31.2329
11 1 1.58036 2.21111 34.2512
12 1 5.3103 2.6005 32.2559
13 1 1.50141 0.665021 31.538
14 1 5.20563 0.0402761 33.4461
15 1 2.77366 2.68251 31.477
16 2 7.14922 3.85159 14.83
17 2 4.49623 2.25099 14.4952
18 2 5.58506 1.46286 16.9101
19 2 1.73977 0.898111 14.41
20 2 3.89134 1.06659 9.41621
21 2 4.52561 3.98217 16.7866
22 2 5.21293 3.82375 12.4665
23 2 2.93438 2.26973 12.0839
24 2 5.63088 1.2028 7.28243
25 2 5.7686 4.27997 7.16412
26 2 4.23067 4.18271 9.95665
27 2 5.33891 0.725664 12.0995
28 2 6.5804 2.90551 9.77979
29 2 3.13343 3.06332 7.29917
30 2 4.9161 2.65794 5.00673
31 2 7.29735 4.34298 4.8179
32 2 2.47415 2.74475 2.82819
33 2 5.09602 1.55292 2.65799
34 2 4.81869 4.48356 2.75251
35 2 2.27507 1.40282 5.13045
ITEM: TIMESTEP
10800
ITEM: NUMBER OF ATOMS
35
ITEM: BOX BOUNDS xy xz yz pp pp pp
0.0000000000000000e+00 7.6685730000000003e+00 2.5561910000000001e+00
0.0000000000000000e+00 4.4274529999999999e+00 0.0000000000000000e+00
0.0000000000000000e+00 3.7699264999999997e+01 0.0000000000000000e+00
ITEM: ATOMS id type x y z
1 1 3.95888 2.21599 0.248298
2 1 3.0158 4.40292 -0.0134705
3 1 5.86352 3.52081 0.817724
4 1 3.59621 3.06375 35.9394
5 1 2.0836 1.18901 36.8783
6 1 4.55932 0.928272 35.8835
7 1 4.21464 1.97583 33.8121
8 1 6.04402 3.2452 36.0671
9 1 2.71906 -0.0437582 33.6621
10 1 4.027 0.955359 31.2484
11 1 1.50746 1.83082 34.2792
12 1 5.57372 2.5936 31.9362
13 1 1.26994 0.224047 31.1304
14 1 2.92281 4.23588 33.786
15 1 2.81111 2.73171 31.9853
16 2 7.1478 3.92148 14.6989
17 2 4.3828 2.40836 14.5187
18 2 5.35624 1.17607 16.8174
19 2 2.02093 1.30299 14.7163
20 2 4.19474 1.47307 9.82722
21 2 5.20334 3.86522 16.5683
22 2 5.30194 3.50482 12.1481
23 2 2.50509 2.3384 12.2514
24 2 5.61321 1.35196 7.31315
25 2 5.82572 4.04126 7.30347
26 2 1.35102 0.0485728 9.79409
27 2 5.11891 0.807695 12.1293
28 2 6.38704 2.75469 9.63172
29 2 3.252 2.71475 7.60465
30 2 4.65585 2.91544 4.99576
31 2 7.47502 4.25297 4.98459
32 2 2.30323 2.98271 2.62671
33 2 4.86556 1.51441 2.7088
34 2 2.31856 0.0897687 2.7181
35 2 2.35813 1.31919 5.22143
ITEM: TIMESTEP
10900
ITEM: NUMBER OF ATOMS
35
ITEM: BOX BOUNDS xy xz yz pp pp pp
0.0000000000000000e+00 7.6685730000000003e+00 2.5561910000000001e+00
0.0000000000000000e+00 4.4274529999999999e+00 0.0000000000000000e+00
0.0000000000000000e+00 3.7699264999999997e+01 0.0000000000000000e+00
ITEM: ATOMS id type x y z
1 1 3.62507 1.9582 0.666874
2 1 2.74716 4.51636 0.592885
3 1 5.71555 3.1955 0.214337
4 1 3.61952 3.6747 35.7436
5 1 2.00331 1.01413 37.1471
6 1 4.11823 0.959556 35.9109
7 1 4.41888 1.84878 33.188
8 1 6.3032 2.61976 35.6348
9 1 2.72126 -0.324141 33.88
10 1 4.25752 0.664844 31.079
11 1 2.05425 1.55459 33.8149
12 1 5.71842 3.05349 31.3726
13 1 1.59739 0.379018 31.1286
14 1 2.63391 4.0372 33.5766
15 1 2.91105 2.66121 31.5522
16 2 7.24241 4.22105 14.5406
17 2 4.44259 2.75029 14.3051
18 2 5.16119 0.803673 16.8634
19 2 2.04609 1.02882 14.7526
20 2 3.75777 1.6054 10.1595
21 2 5.67535 3.81861 16.7118
22 2 5.10827 3.93544 12.0359
23 2 2.38193 2.0642 12.2069
24 2 5.84606 0.935669 7.38076
25 2 5.7911 4.1905 7.53395
26 2 1.32098 0.0543947 9.78565
27 2 5.16139 0.622069 12.3948
28 2 6.54171 3.10449 9.87304
29 2 3.19099 2.52235 7.70201
30 2 4.97804 3.17389 4.91634
31 2 7.32888 4.2291 5.15537
32 2 2.34792 3.01583 2.55062
33 2 4.80453 1.35591 2.87031
34 2 2.22658 0.155226 2.44882
35 2 2.18588 1.63806 5.14868
ITEM: TIMESTEP
11000
ITEM: NUMBER OF ATOMS
35
ITEM: BOX BOUNDS xy xz yz pp pp pp
0.0000000000000000e+00 7.6685730000000003e+00 2.5561910000000001e+00
0.0000000000000000e+00 4.4274529999999999e+00 0.0000000000000000e+00
0.0000000000000000e+00 3.7699264999999997e+01 0.0000000000000000e+00
ITEM: ATOMS id type x y z
1 1 3.4953 2.45168 0.651225
2 1 4.58939 0.112208 0.674093
3 1 5.75912 2.75204 0.235348
4 1 3.09596 3.43018 35.7541
5 1 2.18406 0.932102 37.1489
6 1 4.06627 1.21585 35.5756
7 1 4.17488 1.45193 33.2425
8 1 6.01899 2.62748 35.7307
9 1 5.93206 3.96233 33.3632
10 1 4.57708 0.280259 31.1466
11 1 1.65481 1.68114 33.5784
12 1 5.53715 2.87822 31.0478
13 1 2.11398 0.69138 31.1008
14 1 3.21965 3.66867 32.9809
15 1 3.48692 2.88759 30.2752
16 2 7.03944 3.90611 14.7149
17 2 4.73422 2.62995 14.6239
18 2 5.39557 0.833312 16.802
19 2 2.10001 1.19914 15.1576
20 2 3.91715 1.58422 9.79024
21 2 5.45593 3.26763 16.9784
22 2 5.06508 3.84307 12.3278
23 2 2.42871 2.56334 12.6453
24 2 0.628969 1.10335 7.49426
25 2 5.81773 3.99088 7.51628
26 2 1.31504 0.0999639 9.73854
27 2 5.14182 0.95983 12.0152
28 2 6.47052 3.14389 10.0352
29 2 3.25473 2.43883 7.26863
30 2 4.71621 3.05693 5.27748
31 2 4.70434 0.302623 5.19601
32 2 2.14413 2.94693 2.80455
33 2 4.85183 1.5737 2.77692
34 2 2.25491 0.119418 2.17611
35 2 2.31233 1.51189 5.04935
ITEM: TIMESTEP
11100
ITEM: NUMBER OF ATOMS
35
ITEM: BOX BOUNDS xy xz yz pp pp pp
0.0000000000000000e+00 7.6685730000000003e+00 2.5561910000000001e+00
0.0000000000000000e+00 4.4274529999999999e+00 0.0000000000000000e+00
0.0000000000000000e+00 3.7699264999999997e+01 0.0000000000000000e+00
ITEM: ATOMS id type x y z
1 1 3.40734 3.18143 0.171401
2 1 4.07354 0.543817 0.0385605
3 1 6.46075 1.98559 0.415851
4 1 3.11386 3.46479 35.1779
5 1 1.88163 0.254171 36.7196
6 1 4.02056 0.751413 35.4598
7 1 4.36422 1.69766 33.0114
8 1 5.28836 3.00138 35.6597
9 1 5.96138 3.52358 33.188
10 1 4.86655 0.358567 30.8534
11 1 1.83804 1.19339 34.2681
12 1 6.23626 2.22191 31.1975
13 1 2.5201 0.541444 30.4617
14 1 3.5747 4.13173 32.5396
15 1 3.43955 2.88198 29.9604
16 2 7.02878 3.9224 14.7408
17 2 4.65355 2.20698 14.9977
18 2 5.30936 0.172276 17.2292
19 2 2.36513 1.1321 15.4322
20 2 3.94393 1.71613 9.68594
21 2 5.39865 3.56462 17.2842
22 2 5.18748 4.1211 12.4432
23 2 2.80784 2.70872 12.3182
24 2 5.83496 1.27764 7.46332
25 2 5.79095 3.94654 7.57778
26 2 1.49561 -0.0408169 9.87534
27 2 5.00422 1.25286 12.4016
28 2 6.56193 2.79936 10.0736
29 2 3.01986 2.7051 7.40291
30 2 4.51061 3.12861 4.80575
31 2 4.65051 0.101426 5.09039
32 2 2.05609 3.40004 2.82738
33 2 4.68132 1.81385 2.5998
34 2 2.17183 0.170829 2.34808
35 2 1.98768 1.42833 4.97906
ITEM: TIMESTEP
11200
ITEM: NUMBER OF ATOMS
35
ITEM: BOX BOUNDS xy xz yz pp pp pp
0.0000000000000000e+00 7.6685730000000003e+00 2.5561910000000001e+00
0.0000000000000000e+00 4.4274529999999999e+00 0.0000000000000000e+00
0.0000000000000000e+00 3.7699264999999997e+01 0.0000000000000000e+00
ITEM: ATOMS id type x y z
1 1 3.85795 3.10659 0.317391
2 1 3.83319 0.447532 0.15879
3 1 0.880347 2.34659 0.59711
4 1 3.20246 2.7837 34.3336
5 1 1.38967 0.4916 36.5887
6 1 4.32976 0.630231 34.9836
7 1 4.21946 1.67812 32.4827
8 1 5.85344 2.62399 35.3581
9 1 6.089 3.83427 33.042
10 1 4.97578 0.449405 30.2731
11 1 1.94449 0.895551 33.9483
12 1 1.73323 2.27458 31.6797
13 1 2.38746 -0.0656973 30.4845
14 1 3.76088 4.21405 32.3542
15 1 3.88462 2.47504 30.665
16 2 7.24331 3.60439 14.5725
17 2 4.64723 2.49405 15.2375
18 2 2.89613 4.08838 17.3131
19 2 1.81808 1.03506 15.607
20 2 4.14666 1.20368 10.076
21 2 5.51954 3.49427 17.3823
22 2 2.7748 0.139448 12.7108
23 2 2.94773 2.65815 12.2968
24 2 0.549814 1.13328 7.23304
25 2 5.46113 4.44411 7.56206
26 2 4.0813 4.44594 10.262
27 2 5.58217 1.21818 12.7605
28 2 6.4732 2.87291 9.97621
29 2 3.20461 2.81791 7.33284
30 2 4.47158 3.08908 4.92332
31 2 4.26315 0.258607 5.11545
32 2 2.18297 3.40175 2.38183
33 2 4.29487 1.60727 2.36016
34 2 1.92116 0.526859 2.42675
35 2 1.7786 1.9656 4.69816
ITEM: TIMESTEP
11300
ITEM: NUMBER OF ATOMS
35
ITEM: BOX BOUNDS xy xz yz pp pp pp
0.0000000000000000e+00 7.6685730000000003e+00 2.5561910000000001e+00
0.0000000000000000e+00 4.4274529999999999e+00 0.0000000000000000e+00
0.0000000000000000e+00 3.7699264999999997e+01 0.0000000000000000e+00
ITEM: ATOMS id type x y z
1 1 3.2371 3.14926 -0.0398321
2 1 3.71484 0.169964 37.32
3 1 5.8933 2.12782 0.235656
4 1 4.08582 3.15379 35.1517
5 1 1.58985 0.660074 36.2981
6 1 4.66387 0.683152 35.021
7 1 4.88572 1.31924 32.8472
8 1 6.30916 2.96925 35.4682
9 1 5.34554 3.7508 32.5736
10 1 0.719109 0.176081 29.8795
11 1 1.76277 1.13031 34.1608
12 1 1.7178 1.31874 31.5679
13 1 3.39416 0.0128473 30.3655
14 1 2.68418 3.25865 32.307
15 1 3.86839 2.30015 29.7658
16 2 2.07685 3.79238 14.9356
17 2 4.26773 2.21325 15.0079
18 2 3.14225 3.76226 17.1286
19 2 1.85554 1.15772 15.5356
20 2 4.1105 1.02796 10.3856
21 2 5.69934 2.93601 17.5062
22 2 5.70483 4.22635 13.1734
23 2 3.1642 2.90448 12.1154
24 2 5.42283 1.49828 7.34906
25 2 2.90779 0.121115 7.53324
26 2 1.58554 -0.013771 10.2045
27 2 5.96927 1.66042 12.9806
28 2 6.4462 2.67467 9.76221
29 2 3.05226 2.83309 7.62676
30 2 4.07973 3.78553 5.09905
31 2 4.01433 0.68449 4.75888
32 2 1.87844 3.30545 2.28229
33 2 4.38824 1.84554 2.55202
34 2 1.67013 0.361661 2.19604
35 2 1.72856 1.99884 4.81319
ITEM: TIMESTEP
11400
ITEM: NUMBER OF ATOMS
35
ITEM: BOX BOUNDS xy xz yz pp pp pp
0.0000000000000000e+00 7.6685730000000003e+00 2.5561910000000001e+00
0.0000000000000000e+00 4.4274529999999999e+00 0.0000000000000000e+00
0.0000000000000000e+00 3.7699264999999997e+01 0.0000000000000000e+00
ITEM: ATOMS id type x y z
1 1 2.84512 2.63668 0.0852138
2 1 4.46268 0.357983 0.67482
3 1 5.44412 2.59352 0.0245572
4 1 3.79583 3.32842 35.0121
5 1 2.1224 0.736587 36.4024
6 1 4.57926 0.928935 35.0074
7 1 4.33454 0.849004 31.9318
8 1 6.55455 3.01259 35.3303
9 1 4.82566 3.04875 32.7398
10 1 1.08831 0.150847 28.9824
11 1 2.59997 0.831116 33.7635
12 1 1.99929 0.963831 31.2121
13 1 6.95232 3.47431 30.5877
14 1 2.355 3.21068 32.7652
15 1 4.26264 2.13027 30.2746
16 2 7.111 3.93741 15.3287
17 2 4.47259 2.25349 14.8544
18 2 3.5145 3.62415 17.7102
19 2 2.14956 0.731595 15.6714
20 2 4.11819 1.14587 10.3467
21 2 5.76832 2.13826 17.0596
22 2 2.98001 0.068588 12.4379
23 2 3.18015 3.16762 12.2783
24 2 5.32679 1.72141 7.50376
25 2 2.91185 0.0582056 7.45222
26 2 4.26278 4.17754 9.81476
27 2 0.904503 1.51832 12.6555
28 2 6.40548 2.49698 10.0881
29 2 2.7702 3.26935 7.89566
30 2 3.77678 3.90274 4.92267
31 2 4.01709 0.773429 4.80108
32 2 6.6146 3.51537 2.65578
33 2 4.25562 2.24899 2.55177
34 2 1.73637 0.398349 1.97274
35 2 6.48297 2.45477 5.0955
ITEM: TIMESTEP
11500
ITEM: NUMBER OF ATOMS
35
ITEM: BOX BOUNDS xy xz yz pp pp pp
0.0000000000000000e+00 7.6685730000000003e+00 2.5561910000000001e+00
0.0000000000000000e+00 4.4274529999999999e+00 0.0000000000000000e+00
0.0000000000000000e+00 3.7699264999999997e+01 0.0000000000000000e+00
ITEM: ATOMS id type x y z
1 1 3.0302 2.44951 0.0932973
2 1 4.8904 0.730362 0.226453
3 1 5.60112 3.34568 37.6782
4 1 3.73031 3.09895 35.1598
5 1 2.03043 0.951738 36.4333
6 1 4.99039 0.899066 35.239
7 1 4.14052 0.301276 31.7323
8 1 6.02483 3.06263 35.1578
9 1 5.06533 2.33104 32.7707
10 1 1.11519 0.130018 29.2391
11 1 2.58519 0.69782 33.8057
12 1 1.6518 0.415042 31.4169
13 1 2.31365 2.69652 29.9468
14 1 2.40384 2.81569 33.0685
15 1 4.89877 2.78543 30.3755
16 2 2.28245 3.59038 15.2233
17 2 4.55767 2.57583 14.5091
18 2 3.59595 3.3134 17.4788
19 2 2.40532 0.471894 15.5953
20 2 4.17629 1.1283 9.76265
21 2 5.62527 1.72122 17.0569
22 2 3.31248 0.214105 12.4417
23 2 3.09188 3.22534 12.519
24 2 5.15287 1.79901 7.58637
25 2 2.60771 0.439925 7.30386
26 2 4.12413 3.99973 9.88774
27 2 5.64421 1.40475 12.6932
28 2 1.67106 2.65192 10.4224
29 2 2.54427 3.33781 7.47825
30 2 4.04794 3.77196 4.93737
31 2 3.64061 1.11568 5.08443
32 2 6.60864 3.6289 2.98044
33 2 3.9244 2.31486 2.73755
34 2 1.75902 1.06013 2.14444
35 2 6.39627 2.37908 5.30663
ITEM: TIMESTEP
11600
ITEM: NUMBER OF ATOMS
35
ITEM: BOX BOUNDS xy xz yz pp pp pp
0.0000000000000000e+00 7.6685730000000003e+00 2.5561910000000001e+00
0.0000000000000000e+00 4.4274529999999999e+00 0.0000000000000000e+00
0.0000000000000000e+00 3.7699264999999997e+01 0.0000000000000000e+00
ITEM: ATOMS id type x y z
1 1 3.20572 3.38718 38.2295
2 1 4.86074 1.09768 37.6056
3 1 5.72935 3.40874 0.729475
4 1 3.47522 2.72914 35.2432
5 1 1.82074 0.930898 36.1928
6 1 4.98648 0.805394 34.8495
7 1 4.04742 0.388446 31.1083
8 1 5.96508 3.04749 35.72
9 1 5.21351 2.06572 33.0311
10 1 0.93087 0.421383 30.162
11 1 2.73052 0.315752 34.0796
12 1 1.16992 -0.0474543 32.5102
13 1 2.76356 1.99103 30.1298
14 1 2.66587 2.25593 32.2555
15 1 5.26057 2.87262 30.5483
16 2 2.05403 3.64966 14.6945
17 2 4.86745 2.2254 14.8623
18 2 3.32405 2.95274 17.0193
19 2 2.60433 1.05853 15.4209
20 2 4.0171 0.952787 9.94134
21 2 5.5774 1.32887 17.0379
22 2 3.14127 0.204322 12.7613
23 2 3.28285 2.82579 12.4211
24 2 5.07969 2.13244 7.48462
25 2 2.15443 0.550032 7.82978
26 2 4.10835 4.13705 10.1564
27 2 6.05042 1.37176 12.4756
28 2 1.73095 2.49779 9.92391
29 2 2.4741 3.39946 7.29727
30 2 3.87916 4.14848 5.14046
31 2 3.88059 1.08225 5.15907
32 2 6.74567 4.15517 2.80905
33 2 4.29146 2.52673 2.64695
34 2 1.47452 1.0499 2.44241
35 2 6.30643 2.26059 4.79904
ITEM: TIMESTEP
11700
ITEM: NUMBER OF ATOMS
35
ITEM: BOX BOUNDS xy xz yz pp pp pp
0.0000000000000000e+00 7.6685730000000003e+00 2.5561910000000001e+00
0.0000000000000000e+00 4.4274529999999999e+00 0.0000000000000000e+00
0.0000000000000000e+00 3.7699264999999997e+01 0.0000000000000000e+00
ITEM: ATOMS id type x y z
1 1 2.98702 3.76488 0.407106
2 1 3.9643 1.64909 0.157927
3 1 5.85685 3.51685 0.669949
4 1 3.28735 2.56897 34.8495
5 1 2.05697 0.487298 36.8461
6 1 0.444451 0.714485 34.9236
7 1 3.83786 0.120779 31.9469
8 1 5.72925 2.52524 35.8392
9 1 5.31277 2.69422 33.1983
10 1 1.5656 0.61338 30.8103
11 1 3.32286 0.0706611 34.4609
12 1 3.17379 3.85395 32.8479
13 1 3.05804 1.99035 29.4193
14 1 2.15489 1.70529 32.8451
15 1 4.86746 2.65759 30.8135
16 2 2.49723 3.9859 14.696
17 2 5.02719 2.30783 14.6996
18 2 3.07967 2.83737 16.8577
19 2 2.23129 0.823787 15.0117
20 2 4.26141 0.882596 10.2079
21 2 0.536993 0.912772 17.2973
22 2 5.79931 4.08586 12.3447
23 2 3.4397 2.50723 12.3857
24 2 4.74359 2.33272 7.47658
25 2 2.35338 0.684053 7.75759
26 2 4.10906 3.90096 10.2821
27 2 5.9418 1.56238 12.1862
28 2 6.37521 2.57925 9.69291
29 2 2.30914 3.66354 7.49643
30 2 3.90049 4.10438 5.08657
31 2 3.81713 0.974441 5.37188
32 2 4.27233 0.158377 2.76898
33 2 4.26294 2.78615 2.79887
34 2 1.87656 1.09174 2.28661
35 2 6.43809 2.73731 4.55067
ITEM: TIMESTEP
11800
ITEM: NUMBER OF ATOMS
35
ITEM: BOX BOUNDS xy xz yz pp pp pp
0.0000000000000000e+00 7.6685730000000003e+00 2.5561910000000001e+00
0.0000000000000000e+00 4.4274529999999999e+00 0.0000000000000000e+00
0.0000000000000000e+00 3.7699264999999997e+01 0.0000000000000000e+00
ITEM: ATOMS id type x y z
1 1 2.59075 4.11708 37.5933
2 1 4.0729 1.53847 0.240747
3 1 5.67504 2.85819 0.951149
4 1 3.12265 2.53352 35.7668
5 1 2.08921 0.886232 36.9666
6 1 3.66227 4.32445 34.8273
7 1 6.10753 4.31227 32.1837
8 1 5.76766 2.84558 36.5708
9 1 4.80812 2.19233 33.9743
10 1 1.54245 0.721041 30.7951
11 1 3.70427 0.066388 34.7559
12 1 3.18544 3.55283 32.399
13 1 2.99057 2.3447 29.8396
14 1 2.03115 1.4597 33.4329
15 1 4.86457 2.33496 31.3833
16 2 2.37515 3.99023 14.5324
17 2 5.13615 2.53378 15.0325
18 2 2.95208 2.21372 16.756
19 2 2.60293 0.796274 14.7466
20 2 4.04477 1.02033 9.80823
21 2 5.58348 0.970541 16.8822
22 2 6.0031 3.98079 12.2478
23 2 3.18815 2.43563 12.6379
24 2 4.83922 2.43304 7.43508
25 2 2.31818 0.930568 7.71898
26 2 3.81616 3.74054 9.826
27 2 0.885683 0.830679 12.2619
28 2 6.58094 2.5516 9.80573
29 2 7.38872 3.96269 7.34159
30 2 3.89667 4.3182 5.1711
31 2 3.60195 1.3516 5.12501
32 2 4.65423 0.223642 2.73675
33 2 4.06066 3.13059 2.83097
34 2 2.13894 1.55502 2.05149
35 2 6.49937 2.54626 4.92209
ITEM: TIMESTEP
11900
ITEM: NUMBER OF ATOMS
35
ITEM: BOX BOUNDS xy xz yz pp pp pp
0.0000000000000000e+00 7.6685730000000003e+00 2.5561910000000001e+00
0.0000000000000000e+00 4.4274529999999999e+00 0.0000000000000000e+00
0.0000000000000000e+00 3.7699264999999997e+01 0.0000000000000000e+00
ITEM: ATOMS id type x y z
1 1 2.77589 3.33256 0.634098
2 1 4.37053 1.77424 0.555486
3 1 5.77185 4.07288 0.998464
4 1 2.75029 2.00112 35.8302
5 1 1.69216 0.507107 37.4026
6 1 4.25187 4.38867 34.6755
7 1 5.64238 4.48181 32.2376
8 1 5.49395 2.87814 36.3711
9 1 4.7825 1.67993 34.5136
10 1 1.50856 0.505671 30.7229
11 1 6.7321 3.82576 34.5564
12 1 3.35104 3.84969 32.8996
13 1 2.81978 2.71326 30.5653
14 1 2.17548 1.91781 33.6878
15 1 5.15951 1.68956 32.4893
16 2 2.5014 3.80418 14.6642
17 2 5.03412 2.76206 14.8466
18 2 2.89239 1.97949 16.9258
19 2 2.61931 1.10144 14.4478
20 2 3.90733 0.959205 9.63211
21 2 0.475497 0.475227 16.676
22 2 5.90914 3.6607 12.0188
23 2 3.61932 2.13661 12.2366
24 2 5.01526 2.62307 7.36817
25 2 2.07853 1.25897 7.49529
26 2 3.74918 3.99342 9.60274
27 2 0.788773 0.460309 12.353
28 2 1.39913 2.27716 10.1307
29 2 7.26622 4.0009 7.21048
30 2 1.25953 0.111875 5.20911
31 2 3.77515 1.593 4.86042
32 2 4.77422 0.549106 2.66299
33 2 4.4436 3.23756 2.90974
34 2 1.95222 1.48568 2.36738
35 2 6.14717 2.9333 4.79183
ITEM: TIMESTEP
12000
ITEM: NUMBER OF ATOMS
35
ITEM: BOX BOUNDS xy xz yz pp pp pp
0.0000000000000000e+00 7.6685730000000003e+00 2.5561910000000001e+00
0.0000000000000000e+00 4.4274529999999999e+00 0.0000000000000000e+00
0.0000000000000000e+00 3.7699264999999997e+01 0.0000000000000000e+00
ITEM: ATOMS id type x y z
1 1 2.89606 3.02356 0.473516
2 1 5.02676 1.93617 1.1199
3 1 5.77516 4.85224 0.759293
4 1 2.89837 1.97212 36.3069
5 1 0.802656 0.277554 37.1005
6 1 4.21414 3.90177 35.2506
7 1 3.87974 -0.403428 32.3001
8 1 6.21243 3.02017 36.8444
9 1 5.02551 1.56018 35.1474
10 1 1.42741 0.448462 30.5742
11 1 6.94935 3.54489 34.6545
12 1 3.5709 4.04906 32.9383
13 1 2.54425 2.6215 31.2797
14 1 2.2551 1.67083 33.3451
15 1 4.86798 2.17837 31.7472
16 2 2.49454 3.75289 14.3092
17 2 4.99083 2.40238 14.7527
18 2 2.84868 2.01337 16.8046
19 2 2.17582 0.995282 14.4398
20 2 3.90328 0.48516 9.44411
21 2 0.766727 0.240641 16.9828
22 2 5.8744 3.71263 12.412
23 2 3.67192 1.98247 11.6047
24 2 4.55826 2.80946 7.38748
25 2 2.24898 1.40157 7.41637
26 2 3.96163 3.75291 9.66962
27 2 0.910709 0.597191 12.2268
28 2 1.21098 2.08663 9.81485
29 2 7.14201 4.152 7.25402
30 2 1.11727 0.35548 4.98994
31 2 3.48806 1.72133 5.21499
32 2 4.62778 0.362165 2.84115
33 2 4.4755 3.45276 2.703
34 2 2.03453 1.83317 2.80993
35 2 6.53524 3.48249 4.73416
ITEM: TIMESTEP
12100
ITEM: NUMBER OF ATOMS
35
ITEM: BOX BOUNDS xy xz yz pp pp pp
0.0000000000000000e+00 7.6685730000000003e+00 2.5561910000000001e+00
0.0000000000000000e+00 4.4274529999999999e+00 0.0000000000000000e+00
0.0000000000000000e+00 3.7699264999999997e+01 0.0000000000000000e+00
ITEM: ATOMS id type x y z
1 1 3.01105 3.39638 0.779564
2 1 5.63312 2.11568 1.17552
3 1 2.66729 0.697516 0.514729
4 1 3.74656 1.18391 35.9576
5 1 0.672917 0.444336 36.9056
6 1 4.37494 3.38968 35.2889
7 1 6.35192 4.52115 32.2096
8 1 6.10673 3.56578 36.7387
9 1 5.7864 1.36509 34.3942
10 1 1.2747 0.436094 30.6956
11 1 6.79534 3.75154 34.5102
12 1 3.63043 3.70665 33.0083
13 1 2.5736 2.34719 30.4522
14 1 2.95198 1.36637 33.8742
15 1 5.06013 2.21179 31.5644
16 2 2.37765 3.83734 14.633
17 2 4.957 2.04147 14.9702
18 2 2.92668 2.07508 16.5511
19 2 2.3221 0.622982 14.419
20 2 3.74884 0.413838 9.84218
21 2 0.980454 0.197196 16.7155
22 2 5.79872 3.46121 12.3714
23 2 3.06999 2.15718 12.1996
24 2 4.79714 2.84208 7.29259
25 2 2.13951 1.21125 7.42845
26 2 3.8074 3.34137 9.75852
27 2 0.903202 0.734214 11.7226
28 2 6.17504 2.15423 9.69714
29 2 7.51526 4.37319 7.32933
30 2 1.08126 0.660686 5.11276
31 2 3.81745 2.12622 4.81256
32 2 4.35108 0.417471 2.54058
33 2 4.49305 3.77794 2.86835
34 2 2.09009 1.96355 2.97086
35 2 5.99295 3.23765 5.19915
ITEM: TIMESTEP
12200
ITEM: NUMBER OF ATOMS
35
ITEM: BOX BOUNDS xy xz yz pp pp pp
0.0000000000000000e+00 7.6685730000000003e+00 2.5561910000000001e+00
0.0000000000000000e+00 4.4274529999999999e+00 0.0000000000000000e+00
0.0000000000000000e+00 3.7699264999999997e+01 0.0000000000000000e+00
ITEM: ATOMS id type x y z
1 1 3.29346 3.09266 0.496958
2 1 5.25507 2.21298 0.66471
3 1 2.1272 0.766222 0.681885
4 1 3.33071 1.27216 36.5086
5 1 0.991448 1.16944 35.9385
6 1 4.32526 3.44556 35.1835
7 1 3.77096 -0.00471435 31.0484
8 1 6.67447 3.25139 36.6687
9 1 0.913152 1.31598 33.7035
10 1 1.24671 0.162541 30.5605
11 1 6.55531 3.56987 34.2623
12 1 4.04886 3.88767 32.5313
13 1 2.77579 2.44298 31.2617
14 1 3.44569 1.26872 33.4894
15 1 5.53574 2.25996 31.6944
16 2 2.15276 3.67076 14.6831
17 2 5.16793 2.21741 14.8155
18 2 3.15073 1.799 16.6593
19 2 2.3088 0.341103 14.2054
20 2 3.46897 0.766858 10.2415
21 2 1.00208 0.331058 16.7911
22 2 5.59457 3.20861 11.9502
23 2 3.26134 2.30763 12.7621
24 2 4.94212 2.71257 7.58662
25 2 2.7426 1.24833 7.30494
26 2 3.28944 3.36478 9.90103
27 2 0.31563 0.428734 12.2609
28 2 6.25125 2.00235 9.71688
29 2 7.49739 4.33919 7.70863
30 2 0.954651 0.429979 5.06312
31 2 3.70266 1.87164 4.96998
32 2 4.48095 0.58696 2.24282
33 2 4.51317 3.76053 2.78294
34 2 1.75568 2.36947 2.87013
35 2 6.32814 3.87453 5.1036
ITEM: TIMESTEP
12300
ITEM: NUMBER OF ATOMS
35
ITEM: BOX BOUNDS xy xz yz pp pp pp
0.0000000000000000e+00 7.6685730000000003e+00 2.5561910000000001e+00
0.0000000000000000e+00 4.4274529999999999e+00 0.0000000000000000e+00
0.0000000000000000e+00 3.7699264999999997e+01 0.0000000000000000e+00
ITEM: ATOMS id type x y z
1 1 2.82908 3.04335 0.59589
2 1 5.46998 2.99908 -0.0562482
3 1 2.17509 0.524621 0.578285
4 1 3.18468 1.60831 36.2489
5 1 0.874218 1.37533 35.7734
6 1 4.21123 3.25062 35.0874
7 1 3.98027 0.189485 30.7087
8 1 7.35547 3.9172 36.1152
9 1 0.803227 1.29627 33.1499
10 1 1.36354 0.305066 30.2016
11 1 7.23548 3.37848 33.6392
12 1 5.06377 3.78889 32.6388
13 1 2.71549 2.24117 31.6547
14 1 3.71662 1.33375 33.9637
15 1 5.254 2.17369 30.9317
16 2 7.18688 3.66818 15.0564
17 2 5.25789 2.03606 14.8194
18 2 3.37495 1.55682 16.317
19 2 2.12897 0.26224 14.474
20 2 3.48788 0.737971 10.0873
21 2 1.00887 0.257636 16.903
22 2 5.60386 3.16554 12.0457
23 2 2.99771 1.92657 12.7731
24 2 5.07683 2.976 7.40604
25 2 2.41957 1.47908 7.59839
26 2 3.45071 3.68713 10.3654
27 2 5.18842 0.427113 12.6695
28 2 0.867121 1.78155 9.72393
29 2 7.60568 4.12765 7.55712
30 2 1.25818 0.621985 5.25775
31 2 3.77468 2.25094 4.9361
32 2 4.45084 0.822478 2.06028
33 2 4.2423 3.649 2.88985
34 2 1.63985 2.3819 2.72186
35 2 6.28994 3.35495 5.17402
ITEM: TIMESTEP
12400
ITEM: NUMBER OF ATOMS
35
ITEM: BOX BOUNDS xy xz yz pp pp pp
0.0000000000000000e+00 7.6685730000000003e+00 2.5561910000000001e+00
0.0000000000000000e+00 4.4274529999999999e+00 0.0000000000000000e+00
0.0000000000000000e+00 3.7699264999999997e+01 0.0000000000000000e+00
ITEM: ATOMS id type x y z
1 1 3.07307 3.49703 0.537614
2 1 5.53426 2.86129 37.5994
3 1 1.42702 1.03546 0.401822
4 1 3.66841 1.56159 36.5659
5 1 6.1191 1.87759 34.6653
6 1 4.91211 4.09244 35.2896
7 1 4.35758 0.0290646 31.1804
8 1 7.28798 4.04808 35.7333
9 1 0.907409 1.34542 32.4206
10 1 1.7426 0.0255312 30.7801
11 1 3.17809 3.42029 33.4677
12 1 5.4062 3.4119 32.8078
13 1 2.70807 2.24569 30.8106
14 1 3.71131 1.10152 33.7907
15 1 4.99372 2.34398 30.1458
16 2 2.24694 3.43795 15.2213
17 2 5.08468 1.61993 14.8036
18 2 3.22567 1.59197 16.6052
19 2 4.59398 4.31811 14.7
20 2 3.72767 0.479952 9.79158
21 2 1.22373 0.134422 17.2805
22 2 5.38955 3.32951 12.4664
23 2 2.55513 1.89221 12.6495
24 2 4.78876 3.02996 7.64415
25 2 2.32768 1.46654 7.76749
26 2 3.52244 3.29973 10.1738
27 2 5.25523 0.338576 12.4107
28 2 5.98991 2.32406 10.0349
29 2 4.98044 0.0179133 7.47242
30 2 1.36773 0.782928 5.20357
31 2 3.92231 1.92473 5.18575
32 2 4.09718 1.02404 2.13053
33 2 4.05769 3.84227 2.71883
34 2 1.45324 2.04941 2.70624
35 2 6.51971 3.7498 4.82977
ITEM: TIMESTEP
12500
ITEM: NUMBER OF ATOMS
35
ITEM: BOX BOUNDS xy xz yz pp pp pp
0.0000000000000000e+00 7.6685730000000003e+00 2.5561910000000001e+00
0.0000000000000000e+00 4.4274529999999999e+00 0.0000000000000000e+00
0.0000000000000000e+00 3.7699264999999997e+01 0.0000000000000000e+00
ITEM: ATOMS id type x y z
1 1 2.33587 3.14542 0.365861
2 1 5.02 3.83126 0.49632
3 1 1.55233 1.31729 37.2711
4 1 4.2119 1.56099 36.682
5 1 1.3084 1.86948 34.9893
6 1 5.25262 4.24886 35.4802
7 1 6.93985 4.23785 30.9848
8 1 2.2843 3.86103 35.573
9 1 1.65032 1.4517 32.2085
10 1 4.64206 3.75543 30.6705
11 1 2.89024 3.67062 33.0758
12 1 5.41963 4.1009 33.2752
13 1 3.03433 2.16175 30.4809
14 1 4.25989 1.71359 32.9864
15 1 5.71941 1.76703 29.9958
16 2 1.96922 2.86755 15.1973
17 2 4.81394 1.3559 14.853
18 2 3.49084 1.52838 17.34
19 2 2.32577 0.022418 15.1381
20 2 3.57965 0.583919 9.97528
21 2 3.4134 4.32028 17.268
22 2 4.99854 3.52689 12.4563
23 2 2.73894 1.81273 12.7752
24 2 4.94916 2.97198 7.4847
25 2 2.20021 1.62505 7.57036
26 2 3.68703 3.45565 9.67968
27 2 5.13314 0.242886 12.0866
28 2 1.35771 1.89066 10.4188
29 2 4.69061 0.221781 7.38637
30 2 1.46517 0.693117 5.17939
31 2 3.94824 2.46452 5.10401
32 2 3.64158 0.806352 2.21151
33 2 3.99896 3.70985 2.7711
34 2 1.2837 2.29423 2.77902
35 2 6.61606 3.92924 4.70472
ITEM: TIMESTEP
12600
ITEM: NUMBER OF ATOMS
35
ITEM: BOX BOUNDS xy xz yz pp pp pp
0.0000000000000000e+00 7.6685730000000003e+00 2.5561910000000001e+00
0.0000000000000000e+00 4.4274529999999999e+00 0.0000000000000000e+00
0.0000000000000000e+00 3.7699264999999997e+01 0.0000000000000000e+00
ITEM: ATOMS id type x y z
1 1 2.20061 3.73954 0.414546
2 1 5.05987 3.55949 0.138617
3 1 1.1191 1.43765 37.767
4 1 3.85418 1.80663 36.6214
5 1 1.07605 1.52319 34.7391
6 1 5.42708 4.11405 35.7987
7 1 7.2863 3.67218 30.0994
8 1 3.2776 3.67152 35.5007
9 1 2.09234 2.26197 32.5793
10 1 4.79814 3.61347 31.0157
11 1 2.7963 4.51006 32.6449
12 1 5.55306 4.4096 33.1003
13 1 3.63137 1.36084 30.4768
14 1 4.64463 2.0767 32.7631
15 1 1.24864 1.07841 30.5337
16 2 1.94284 2.51007 15.3841
17 2 4.57547 1.44823 14.8273
18 2 3.70548 1.47356 17.4773
19 2 4.99303 4.2113 15.4647
20 2 3.78861 0.706842 9.8524
21 2 2.86782 4.23398 16.9944
22 2 5.09836 3.28563 12.3924
23 2 2.67661 1.80593 12.7813
24 2 5.16801 3.10208 7.31878
25 2 2.4885 1.74428 7.62651
26 2 3.83016 3.64026 9.61504
27 2 4.94006 0.0114898 12.619
28 2 0.981125 1.82597 10.3794
29 2 4.90711 0.298385 7.29541
30 2 1.68775 1.16902 5.03233
31 2 3.8011 2.51947 5.03761
32 2 3.63627 0.977414 2.27968
33 2 3.48575 3.78368 2.69619
34 2 6.12365 2.11855 2.42852
35 2 6.33985 3.8348 4.99736
ITEM: TIMESTEP
12700
ITEM: NUMBER OF ATOMS
35
ITEM: BOX BOUNDS xy xz yz pp pp pp
0.0000000000000000e+00 7.6685730000000003e+00 2.5561910000000001e+00
0.0000000000000000e+00 4.4274529999999999e+00 0.0000000000000000e+00
0.0000000000000000e+00 3.7699264999999997e+01 0.0000000000000000e+00
ITEM: ATOMS id type x y z
1 1 7.22346 3.99786 -0.244772
2 1 4.41161 3.26232 0.601986
3 1 1.35841 1.12622 -0.130457
4 1 3.37014 1.70757 36.8898
5 1 0.837012 1.64897 34.8875
6 1 6.35797 3.92443 35.287
7 1 3.11376 2.71354 30.0552
8 1 3.46551 3.32553 34.7853
9 1 1.7766 3.08645 32.5652
10 1 5.05037 3.40516 30.799
11 1 1.21992 0.289737 32.7537
12 1 3.3211 0.620319 33.3207
13 1 4.14488 0.509047 31.2376
14 1 4.56748 2.50964 33.2819
15 1 1.2494 1.37048 30.631
16 2 1.92416 2.25053 15.1076
17 2 4.5362 1.38414 14.9324
18 2 3.26843 1.78999 17.3101
19 2 4.91055 3.9891 15.2489
20 2 3.88111 0.553038 10.0087
21 2 2.93215 4.43744 16.9927
22 2 5.06059 2.95537 12.5862
23 2 2.23371 1.27928 12.4122
24 2 5.17233 3.35192 7.56405
25 2 2.87959 1.72713 7.68538
26 2 3.54734 3.5343 10.1618
27 2 7.68717 4.22179 13.0136
28 2 6.23499 2.40924 9.95475
29 2 5.6678 0.463899 7.28605
30 2 1.18825 1.11669 4.79479
31 2 4.03588 2.25485 5.08857
32 2 3.36602 1.11358 2.15238
33 2 3.16306 3.94557 2.73474
34 2 5.9275 2.40637 2.51071
35 2 6.20618 4.11383 4.87455
ITEM: TIMESTEP
12800
ITEM: NUMBER OF ATOMS
35
ITEM: BOX BOUNDS xy xz yz pp pp pp
0.0000000000000000e+00 7.6685730000000003e+00 2.5561910000000001e+00
0.0000000000000000e+00 4.4274529999999999e+00 0.0000000000000000e+00
0.0000000000000000e+00 3.7699264999999997e+01 0.0000000000000000e+00
ITEM: ATOMS id type x y z
1 1 6.65173 3.44606 0.315351
2 1 4.17336 3.48739 0.3642
3 1 5.68231 1.235 0.408827
4 1 4.04283 1.27573 36.3284
5 1 1.15926 1.30656 35.4619
6 1 5.92833 3.73002 35.3776
7 1 3.29847 2.31504 30.6104
8 1 3.62131 3.49734 35.1981
9 1 2.68414 2.9632 32.9058
10 1 5.47757 3.82899 30.7761
11 1 1.28651 0.477875 33.0677
12 1 3.38629 1.18478 34.0861
13 1 4.75509 0.551361 31.1552
14 1 4.86726 2.5553 32.5761
15 1 1.43976 1.16849 30.12
16 2 1.86757 2.33767 14.6562
17 2 4.34563 1.1712 14.8639
18 2 2.93918 1.82485 17.1355
19 2 4.71163 4.03898 15.0578
20 2 3.789 0.809948 10.3434
21 2 0.40687 0.418114 17.0374
22 2 4.96232 2.35131 12.5849
23 2 2.19909 0.974191 12.2624
24 2 5.66566 3.45719 7.51872
25 2 3.15387 1.89421 7.45783
26 2 3.75097 3.6146 10.5104
27 2 2.54366 3.85772 12.8863
28 2 1.42279 2.15223 9.73136
29 2 0.375518 0.318332 7.57139
30 2 1.34962 1.04533 4.96444
31 2 3.72099 2.70908 4.96847
32 2 2.98625 1.11135 2.00237
33 2 3.11514 3.98558 2.74801
34 2 5.74403 2.82253 2.52917
35 2 6.22169 4.1427 4.87668
ITEM: TIMESTEP
12900
ITEM: NUMBER OF ATOMS
35
ITEM: BOX BOUNDS xy xz yz pp pp pp
0.0000000000000000e+00 7.6685730000000003e+00 2.5561910000000001e+00
0.0000000000000000e+00 4.4274529999999999e+00 0.0000000000000000e+00
0.0000000000000000e+00 3.7699264999999997e+01 0.0000000000000000e+00
ITEM: ATOMS id type x y z
1 1 6.75192 3.15045 0.155462
2 1 4.28505 3.46199 37.3952
3 1 5.31298 1.51801 0.737277
4 1 3.77412 1.09533 36.9617
5 1 1.90661 0.76955 36.0011
6 1 5.50077 3.16946 35.3419
7 1 3.58183 2.64816 31.0882
8 1 2.97223 3.23033 35.2919
9 1 2.22541 3.2796 33.2665
10 1 5.64383 3.70762 30.4756
11 1 2.01981 0.81871 33.0835
12 1 4.4208 0.84636 34.1382
13 1 5.19857 0.637492 31.6009
14 1 5.06728 2.75039 33.1258
15 1 1.55968 1.63616 29.8249
16 2 1.50759 2.54275 14.9506
17 2 4.25222 0.961657 14.6384
18 2 2.94073 1.86218 17.0586
19 2 4.22903 3.67223 15.0969
20 2 4.2214 0.628785 9.96656
21 2 0.366103 0.562641 16.9862
22 2 4.94317 2.15027 12.2039
23 2 2.39264 0.884533 12.7233
24 2 5.50672 3.3464 7.26682
25 2 3.21342 1.96345 7.46424
26 2 4.12045 3.59869 9.85506
27 2 2.18875 3.73482 12.2757
28 2 1.54961 2.01613 9.90656
29 2 0.359648 0.238996 7.84937
30 2 1.40328 1.43061 5.31274
31 2 3.62064 2.91626 4.90621
32 2 2.82988 1.33134 2.05135
33 2 3.13274 4.23235 2.6123
34 2 5.37659 2.69893 2.9678
35 2 6.49643 4.37069 4.89874
ITEM: TIMESTEP
13000
ITEM: NUMBER OF ATOMS
35
ITEM: BOX BOUNDS xy xz yz pp pp pp
0.0000000000000000e+00 7.6685730000000003e+00 2.5561910000000001e+00
0.0000000000000000e+00 4.4274529999999999e+00 0.0000000000000000e+00
0.0000000000000000e+00 3.7699264999999997e+01 0.0000000000000000e+00
ITEM: ATOMS id type x y z
1 1 2.23878 3.27047 0.354332
2 1 4.72876 3.94123 0.828138
3 1 5.6335 1.43844 0.552572
4 1 3.64687 0.74929 36.757
5 1 1.60862 0.706524 35.8694
6 1 5.28979 2.97808 35.7513
7 1 3.71216 2.62758 30.8878
8 1 2.70718 2.78083 35.6277
9 1 1.9069 3.18798 32.9086
10 1 5.90491 4.22208 31.2865
11 1 2.87441 1.05253 33.1151
12 1 4.75321 0.774125 34.1129
13 1 5.27305 0.93458 31.9687
14 1 4.6757 3.09417 33.2312
15 1 1.6246 1.59589 30.519
16 2 6.34903 2.53986 14.9284
17 2 4.31308 0.771719 14.4735
18 2 3.08102 1.77256 17.0701
19 2 3.72402 3.51537 14.9853
20 2 4.08633 0.515465 9.77111
21 2 5.36807 0.751061 16.9332
22 2 4.73885 2.37126 12.0524
23 2 2.1231 0.509364 12.7437
24 2 5.48275 3.23059 7.18686
25 2 2.91481 1.5285 7.58822
26 2 4.59403 3.46717 9.70929
27 2 2.269 3.49497 12.0964
28 2 1.92588 2.11649 9.89083
29 2 0.554419 0.293925 7.36047
30 2 1.31852 1.54741 5.23149
31 2 3.63853 3.15539 5.1405
32 2 2.92273 1.43648 2.35923
33 2 2.82369 4.22075 2.56901
34 2 5.64327 2.67934 3.09079
35 2 3.93228 0.575868 4.7636
ITEM: TIMESTEP
13100
ITEM: NUMBER OF ATOMS
35
ITEM: BOX BOUNDS xy xz yz pp pp pp
0.0000000000000000e+00 7.6685730000000003e+00 2.5561910000000001e+00
0.0000000000000000e+00 4.4274529999999999e+00 0.0000000000000000e+00
0.0000000000000000e+00 3.7699264999999997e+01 0.0000000000000000e+00
ITEM: ATOMS id type x y z
1 1 2.97293 3.05605 0.154663
2 1 5.13226 4.14525 0.497445
3 1 5.86489 1.55695 0.627646
4 1 3.85799 0.826149 37.0245
5 1 1.64265 0.545887 35.9791
6 1 5.29957 2.7671 36.0643
7 1 4.3292 2.83936 31.0027
8 1 2.65784 2.43697 35.3858
9 1 6.23416 3.34602 32.9547
10 1 3.46479 0.419704 31.1065
11 1 2.78579 1.00697 33.3672
12 1 4.52875 0.421637 34.7545
13 1 5.50651 0.730031 32.7513
14 1 4.11293 3.54594 33.7546
15 1 1.54649 1.86266 30.6004
16 2 6.27021 2.21238 14.7697
17 2 3.71572 0.799696 14.3372
18 2 2.78663 1.75978 16.611
19 2 4.00865 3.60998 14.9297
20 2 4.67586 0.617628 10.0503
21 2 5.42403 0.652738 16.8181
22 2 4.64715 1.92168 12.1962
23 2 1.88331 0.602508 12.2892
24 2 5.83773 2.92347 6.97836
25 2 2.97066 1.36505 7.27623
26 2 4.28183 3.52732 9.65331
27 2 2.12539 3.46471 12.4567
28 2 1.92415 2.02157 9.88325
29 2 0.199262 0.00778588 7.66175
30 2 1.51813 1.79547 4.76816
31 2 3.60139 3.56488 5.22639
32 2 3.29397 1.67843 2.50128
33 2 2.94559 4.40109 2.87009
34 2 5.55822 2.89444 2.77885
35 2 3.85385 0.469135 5.0968
ITEM: TIMESTEP
13200
ITEM: NUMBER OF ATOMS
35
ITEM: BOX BOUNDS xy xz yz pp pp pp
0.0000000000000000e+00 7.6685730000000003e+00 2.5561910000000001e+00
0.0000000000000000e+00 4.4274529999999999e+00 0.0000000000000000e+00
0.0000000000000000e+00 3.7699264999999997e+01 0.0000000000000000e+00
ITEM: ATOMS id type x y z
1 1 2.65387 3.27624 0.17211
2 1 5.33402 4.27693 0.323625
3 1 1.24264 1.93669 0.740442
4 1 4.89641 0.711258 37.6566
5 1 4.11494 4.37219 35.8948
6 1 5.39697 2.20418 35.3868
7 1 3.93601 3.39765 31.8845
8 1 2.60229 2.35346 35.6839
9 1 6.29503 3.43934 33.4159
10 1 4.06642 0.563825 30.6375
11 1 2.56257 1.36542 32.8868
12 1 4.09281 0.272663 35.2465
13 1 5.29098 0.93122 32.6657
14 1 3.64194 3.3079 33.9239
15 1 1.80693 2.5943 30.9204
16 2 6.09111 1.92583 14.5635
17 2 3.55919 0.73912 14.3791
18 2 2.80459 1.76218 16.797
19 2 3.7851 3.58211 14.812
20 2 4.46505 0.444029 10.1379
21 2 5.01542 0.411292 16.5508
22 2 4.43992 2.28784 12.387
23 2 2.08332 0.47866 11.8354
24 2 5.45228 2.40276 7.40328
25 2 2.9472 1.33764 7.5689
26 2 4.63413 3.38338 9.72686
27 2 7.05241 3.38935 12.3953
28 2 1.81176 2.23207 9.73133
29 2 2.98394 4.27829 7.59479
30 2 1.49118 1.98122 4.55407
31 2 4.26704 3.38835 5.31565
32 2 3.25061 1.7279 2.39067
33 2 0.553204 0.170732 2.70292
34 2 5.501 3.63311 2.7686
35 2 4.25136 0.358402 5.04097
ITEM: TIMESTEP
13300
ITEM: NUMBER OF ATOMS
35
ITEM: BOX BOUNDS xy xz yz pp pp pp
0.0000000000000000e+00 7.6685730000000003e+00 2.5561910000000001e+00
0.0000000000000000e+00 4.4274529999999999e+00 0.0000000000000000e+00
0.0000000000000000e+00 3.7699264999999997e+01 0.0000000000000000e+00
ITEM: ATOMS id type x y z
1 1 3.60826 3.42786 0.514506
2 1 5.62008 4.40469 38.1455
3 1 6.58222 2.19159 1.18116
4 1 4.78156 1.67164 37.2132
5 1 3.59752 4.32616 35.9999
6 1 5.29972 2.01223 35.0604
7 1 4.14906 4.36722 30.9127
8 1 2.47586 2.15068 36.1393
9 1 6.16788 3.43317 33.2322
10 1 3.96385 0.674408 30.913
11 1 2.5148 1.19583 32.8396
12 1 3.85676 -0.469777 35.6857
13 1 5.05497 1.30516 32.8846
14 1 3.56152 3.35863 33.5055
15 1 1.89833 2.58387 31.1527
16 2 6.13862 1.8802 14.8501
17 2 3.49799 0.459829 14.1841
18 2 2.47157 1.87937 16.8996
19 2 3.36477 3.16457 14.6715
20 2 4.30258 0.648406 9.73573
21 2 4.62922 0.176419 16.7254
22 2 4.55795 2.25425 12.2288
23 2 1.97279 0.80316 12.1607
24 2 5.52813 2.4659 7.51254
25 2 2.99814 0.858165 7.37734
26 2 4.35597 3.41527 9.89584
27 2 7.12118 3.59647 12.1328
28 2 2.07806 2.06237 9.86091
29 2 3.07688 3.83953 7.37759
30 2 1.94946 1.82339 4.78415
31 2 4.42582 3.26541 5.04167
32 2 3.52984 2.1086 2.6043
33 2 0.434863 0.311376 2.38277
34 2 5.54714 3.84362 2.93252
35 2 4.42855 0.485519 5.21279
ITEM: TIMESTEP
13400
ITEM: NUMBER OF ATOMS
35
ITEM: BOX BOUNDS xy xz yz pp pp pp
0.0000000000000000e+00 7.6685730000000003e+00 2.5561910000000001e+00
0.0000000000000000e+00 4.4274529999999999e+00 0.0000000000000000e+00
0.0000000000000000e+00 3.7699264999999997e+01 0.0000000000000000e+00
ITEM: ATOMS id type x y z
1 1 3.35611 3.92201 -0.00496981
2 1 3.82095 0.490784 0.743561
3 1 2.05237 1.96317 0.832073
4 1 5.18476 1.99603 37.08
5 1 3.67353 4.07938 35.142
6 1 4.56638 1.81854 34.68
7 1 1.36056 0.157141 30.9057
8 1 2.75853 1.63942 36.1002
9 1 6.07386 3.84243 32.983
10 1 3.63307 0.868048 30.919
11 1 2.29676 1.21544 34.0598
12 1 6.21496 4.11794 35.4097
13 1 5.41094 1.34878 32.5381
14 1 3.5333 3.34219 32.7198
15 1 1.97929 2.60859 30.8149
16 2 5.73276 1.8413 14.8389
17 2 3.28104 -0.0616073 14.5981
18 2 2.22893 1.76282 17.0251
19 2 3.37436 3.10977 14.5856
20 2 4.58223 0.673384 9.464
21 2 4.42318 0.0869672 16.7609
22 2 4.52853 2.12753 12.1186
23 2 1.90288 0.879756 12.5616
24 2 5.87649 2.40561 7.35681
25 2 2.84303 0.693934 7.29079
26 2 4.32918 3.8063 9.93168
27 2 7.08985 3.79429 11.9494
28 2 1.83591 1.93222 9.76289
29 2 3.10194 3.52554 7.53736
30 2 1.90178 1.70821 5.03373
31 2 4.33245 3.20686 5.23935
32 2 3.50026 2.28007 2.79927
33 2 0.793048 0.906601 2.76311
34 2 5.8606 3.8954 2.87256
35 2 4.73254 0.344078 5.05
ITEM: TIMESTEP
13500
ITEM: NUMBER OF ATOMS
35
ITEM: BOX BOUNDS xy xz yz pp pp pp
0.0000000000000000e+00 7.6685730000000003e+00 2.5561910000000001e+00
0.0000000000000000e+00 4.4274529999999999e+00 0.0000000000000000e+00
0.0000000000000000e+00 3.7699264999999997e+01 0.0000000000000000e+00
ITEM: ATOMS id type x y z
1 1 4.15499 4.62657 37.8268
2 1 4.2484 0.269873 0.0622034
3 1 1.56781 2.46789 0.786693
4 1 4.97162 2.44498 36.9645
5 1 3.77516 4.0714 34.4061
6 1 4.71987 1.48359 34.6137
7 1 1.184 -0.118907 30.4593
8 1 2.92348 1.83738 36.3858
9 1 6.15756 4.27328 32.9928
10 1 3.53317 0.970548 30.7912
11 1 1.86935 1.93499 33.9409
12 1 6.49428 3.70676 35.3005
13 1 5.58258 1.58811 31.9339
14 1 3.62885 2.7178 32.2831
15 1 1.63874 3.04545 30.7809
16 2 5.40146 1.22977 14.7369
17 2 5.63006 4.31407 14.8026
18 2 2.05204 1.62684 16.6578
19 2 2.97695 2.9186 14.7353
20 2 4.387 0.92081 9.60248
21 2 4.66213 0.0916647 17.0842
22 2 4.08648 2.32502 12.2668
23 2 1.9935 0.641636 12.4004
24 2 5.52021 2.11179 7.45562
25 2 2.9907 0.649676 7.34462
26 2 4.9101 3.72983 10.0592
27 2 6.96624 3.87661 12.1544
28 2 1.8936 2.27658 9.98679
29 2 3.24385 3.51091 7.81207
30 2 2.08823 1.80377 5.19098
31 2 4.7267 3.10428 5.00355
32 2 3.46579 2.70788 2.71904
33 2 0.948832 0.968876 2.67696
34 2 6.13999 3.85376 2.68222
35 2 4.53559 0.0133878 5.2542
ITEM: TIMESTEP
13600
ITEM: NUMBER OF ATOMS
35
ITEM: BOX BOUNDS xy xz yz pp pp pp
0.0000000000000000e+00 7.6685730000000003e+00 2.5561910000000001e+00
0.0000000000000000e+00 4.4274529999999999e+00 0.0000000000000000e+00
0.0000000000000000e+00 3.7699264999999997e+01 0.0000000000000000e+00
ITEM: ATOMS id type x y z
1 1 2.40517 0.392889 0.303272
2 1 4.87214 0.507562 0.0186164
3 1 1.87094 2.56055 0.777014
4 1 4.56531 2.85819 37.2742
5 1 4.31389 3.9358 34.2408
6 1 5.11844 1.69734 34.4278
7 1 4.10871 3.83173 29.9913
8 1 2.23303 1.67099 35.8403
9 1 6.17054 4.7212 32.5037
10 1 3.07452 1.52321 30.3936
11 1 2.02076 2.3726 33.3147
12 1 6.2629 3.81347 35.7813
13 1 5.77505 0.935274 32.061
14 1 3.67209 3.0694 32.0886
15 1 6.48797 3.30755 30.6819
16 2 5.18746 1.05769 14.6071
17 2 5.20625 3.86654 15.0443
18 2 1.86342 1.35995 16.8095
19 2 2.79372 2.76233 14.7131
20 2 4.72169 1.07816 10.4019
21 2 4.94252 0.00354613 17.0932
22 2 4.38843 2.37692 12.5235
23 2 1.46926 0.870599 12.2508
24 2 5.58301 1.9609 7.45814
25 2 3.03735 0.477942 7.69886
26 2 4.63552 3.89714 9.90399
27 2 6.7573 3.77763 12.5863
28 2 2.22954 2.32756 10.1069
29 2 2.9547 3.53742 7.72132
30 2 2.49083 1.6545 4.9676
31 2 4.77447 3.0403 4.87731
32 2 3.82368 2.4396 2.0206
33 2 0.658467 0.882177 2.69096
34 2 5.77351 4.5244 2.61843
35 2 4.84047 0.120941 5.28051
ITEM: TIMESTEP
13700
ITEM: NUMBER OF ATOMS
35
ITEM: BOX BOUNDS xy xz yz pp pp pp
0.0000000000000000e+00 7.6685730000000003e+00 2.5561910000000001e+00
0.0000000000000000e+00 4.4274529999999999e+00 0.0000000000000000e+00
0.0000000000000000e+00 3.7699264999999997e+01 0.0000000000000000e+00
ITEM: ATOMS id type x y z
1 1 3.45617 0.814122 0.158643
2 1 0.92284 0.484704 0.168762
3 1 6.19779 3.08613 0.686056
4 1 3.57614 2.85998 36.2349
5 1 3.89079 4.00169 34.3679
6 1 4.79993 1.53206 34.3432
7 1 4.33946 3.78495 29.3974
8 1 1.84196 1.37506 35.8245
9 1 3.05539 1.03927 32.7205
10 1 2.88745 1.51289 30.2565
11 1 1.99257 3.36088 33.1028
12 1 6.67215 4.02732 35.8159
13 1 0.881299 0.763299 31.6119
14 1 4.80091 2.75856 32.3421
15 1 6.38641 3.43651 30.6193
16 2 5.2375 1.14995 14.9651
17 2 5.00082 3.70436 15.5329
18 2 2.08037 1.35869 17.2232
19 2 2.54525 2.23345 14.7637
20 2 4.84031 0.854411 10.2366
21 2 7.19164 3.76098 16.9672
22 2 3.7941 2.77308 12.4339
23 2 1.81068 0.94016 12.7503
24 2 5.75671 1.87565 7.52836
25 2 3.18265 0.451938 7.76946
26 2 4.51406 3.87128 10.0108
27 2 6.49628 3.70636 12.5508
28 2 2.05515 2.61893 10.0759
29 2 2.92068 3.31345 7.42416
30 2 2.53567 1.66447 4.6805
31 2 4.96239 3.14312 4.94985
32 2 3.84783 2.77935 1.62954
33 2 0.748326 1.11017 2.73289
34 2 5.79165 4.23261 2.76254
35 2 5.22879 0.175354 5.10565
ITEM: TIMESTEP
13800
ITEM: NUMBER OF ATOMS
35
ITEM: BOX BOUNDS xy xz yz pp pp pp
0.0000000000000000e+00 7.6685730000000003e+00 2.5561910000000001e+00
0.0000000000000000e+00 4.4274529999999999e+00 0.0000000000000000e+00
0.0000000000000000e+00 3.7699264999999997e+01 0.0000000000000000e+00
ITEM: ATOMS id type x y z
1 1 4.29147 1.19025 0.171903
2 1 1.79968 0.330293 -0.105057
3 1 6.38096 2.7127 -0.348502
4 1 3.65749 3.02067 36.2447
5 1 4.35159 4.08139 33.6779
6 1 4.65615 1.73806 34.3917
7 1 4.32992 3.5815 29.7792
8 1 1.53159 1.37495 35.4122
9 1 2.20054 2.04656 32.9339
10 1 3.24196 1.54011 30.7761
11 1 6.63076 4.29079 32.8575
12 1 6.15948 3.7828 35.4032
13 1 0.902612 0.502432 31.5585
14 1 5.14129 2.56733 31.8471
15 1 6.8164 3.52009 30.3817
16 2 4.89896 0.832986 14.9612
17 2 4.70824 3.77244 15.4928
18 2 2.3543 0.759239 17.7283
19 2 2.62582 2.1379 15.2162
20 2 4.44544 0.912907 10.1283
21 2 6.98636 3.7028 17.257
22 2 3.74617 2.53682 12.2798
23 2 1.30128 0.776437 12.555
24 2 5.80658 1.59142 7.67547
25 2 3.317 0.377787 7.3158
26 2 4.71973 3.95356 9.98456
27 2 6.40517 4.223 12.8603
28 2 1.80395 2.32959 9.87678
29 2 3.38765 3.12162 7.33046
30 2 2.70583 2.011 4.7185
31 2 5.34167 3.14395 5.3208
32 2 3.13654 3.06161 2.30692
33 2 0.918987 1.49432 2.35104
34 2 6.29 4.1304 2.6693
35 2 5.19229 0.341379 5.00218
ITEM: TIMESTEP
13900
ITEM: NUMBER OF ATOMS
35
ITEM: BOX BOUNDS xy xz yz pp pp pp
0.0000000000000000e+00 7.6685730000000003e+00 2.5561910000000001e+00
0.0000000000000000e+00 4.4274529999999999e+00 0.0000000000000000e+00
0.0000000000000000e+00 3.7699264999999997e+01 0.0000000000000000e+00
ITEM: ATOMS id type x y z
1 1 5.11076 0.657122 0.0695748
2 1 2.66339 0.352708 37.9809
3 1 6.6637 2.80344 37.7935
4 1 3.41021 3.27825 36.2732
5 1 3.94014 3.92039 33.728
6 1 4.61054 1.55376 34.5983
7 1 4.28738 3.57243 29.5289
8 1 1.93525 1.32779 35.0941
9 1 2.03379 3.01351 33.305
10 1 3.05049 1.58021 30.5558
11 1 3.4883 0.541423 32.7419
12 1 5.9886 3.87913 35.1663
13 1 1.12446 0.406795 31.3998
14 1 5.32334 2.66595 32.0036
15 1 7.059 3.48804 30.1091
16 2 4.82077 0.671702 15.4765
17 2 4.65822 3.66884 14.9959
18 2 2.16802 0.426432 17.5357
19 2 2.17374 1.99446 15.3372
20 2 4.37402 0.865913 9.84673
21 2 7.29584 3.73446 17.5974
22 2 3.91165 2.47762 12.4915
23 2 0.887531 0.989423 12.2411
24 2 5.98273 1.45519 7.47893
25 2 3.39788 0.185823 7.42163
26 2 4.37876 3.88922 9.83057
27 2 6.03673 3.95182 12.8757
28 2 2.06773 2.43817 10.0446
29 2 3.43197 3.04178 7.57777
30 2 2.78081 1.8123 5.07277
31 2 5.49113 3.17987 5.02148
32 2 3.83437 2.88371 2.49003
33 2 0.984448 1.77469 2.29244
34 2 5.65045 4.8315 2.6351
35 2 5.36004 0.520904 4.77894
ITEM: TIMESTEP
14000
ITEM: NUMBER OF ATOMS
35
ITEM: BOX BOUNDS xy xz yz pp pp pp
0.0000000000000000e+00 7.6685730000000003e+00 2.5561910000000001e+00
0.0000000000000000e+00 4.4274529999999999e+00 0.0000000000000000e+00
0.0000000000000000e+00 3.7699264999999997e+01 0.0000000000000000e+00
ITEM: ATOMS id type x y z
1 1 5.27056 0.922662 37.8622
2 1 2.90062 0.438116 -0.0427257
3 1 1.89035 2.8524 0.344669
4 1 3.88332 3.34439 36.2652
5 1 3.96559 4.23009 33.8873
6 1 5.06338 1.33349 35.4719
7 1 4.54912 3.54013 29.5696
8 1 2.41702 1.48569 35.6268
9 1 1.86245 2.81641 33.0396
10 1 3.07644 1.84857 29.9458
11 1 3.15904 0.887876 32.49
12 1 6.21957 3.62994 35.8256
13 1 0.833342 0.506342 31.5482
14 1 4.49727 2.66196 31.9391
15 1 6.61438 3.85596 30.4197
16 2 4.46544 0.731735 15.4178
17 2 4.57957 3.40139 15.0956
18 2 1.97858 0.443863 17.1321
19 2 1.8516 2.04907 14.8045
20 2 4.68168 0.998731 9.89028
21 2 2.44045 3.27909 17.5832
22 2 3.24725 2.4209 12.8082
23 2 1.17785 0.866881 12.4761
24 2 0.814515 1.65011 7.38537
25 2 3.43975 -0.130642 7.57609
26 2 4.58596 3.76345 10.0541
27 2 6.15786 3.86166 12.4061
28 2 1.88622 2.63557 10.2094
29 2 3.25582 3.08618 7.47422
30 2 2.96775 1.62088 5.34526
31 2 5.3179 3.31641 4.83824
32 2 3.66935 3.27698 2.04623
33 2 6.23832 1.96214 2.65443
34 2 3.52967 0.536795 2.73665
35 2 0.400674 0.134029 4.56585
ITEM: TIMESTEP
14100
ITEM: NUMBER OF ATOMS
35
ITEM: BOX BOUNDS xy xz yz pp pp pp
0.0000000000000000e+00 7.6685730000000003e+00 2.5561910000000001e+00
0.0000000000000000e+00 4.4274529999999999e+00 0.0000000000000000e+00
0.0000000000000000e+00 3.7699264999999997e+01 0.0000000000000000e+00
ITEM: ATOMS id type x y z
1 1 5.06265 1.73808 0.478491
2 1 2.70009 0.669189 0.609338
3 1 1.80285 2.942 -0.184743
4 1 4.01478 3.71025 36.9556
5 1 3.94024 4.08008 34.0725
6 1 5.3167 1.12388 35.4997
7 1 4.41426 3.99505 29.9317
8 1 2.99802 1.29098 35.4751
9 1 6.6133 2.82723 33.3934
10 1 2.43742 1.47055 30.2354
11 1 3.1218 0.845865 32.5408
12 1 6.60726 3.3892 35.3059
13 1 0.701763 1.29028 31.7678
14 1 4.08806 2.93964 32.0535
15 1 6.77938 3.76567 30.833
16 2 4.04246 0.421424 15.17
17 2 4.33182 3.29183 15.0155
18 2 2.0284 0.493212 17.1412
19 2 1.60243 2.06536 14.704
20 2 4.73216 1.18616 10.1659
21 2 2.43923 3.05956 16.7778
22 2 3.74771 2.25281 12.4044
23 2 0.73512 0.558989 12.7332
24 2 5.63146 1.46792 7.43651
25 2 5.88711 4.48228 7.48621
26 2 4.62999 4.10403 10.0054
27 2 6.02832 4.03262 12.4117
28 2 2.22052 2.35553 9.99915
29 2 3.46262 3.2484 7.75567
30 2 3.06264 1.49394 5.05929
31 2 5.31988 2.92572 5.07465
32 2 3.68171 3.70237 1.86441
33 2 1.48235 2.13533 2.89838
34 2 4.20579 0.733982 2.6672
35 2 2.77843 4.14328 4.86052
ITEM: TIMESTEP
14200
ITEM: NUMBER OF ATOMS
35
ITEM: BOX BOUNDS xy xz yz pp pp pp
0.0000000000000000e+00 7.6685730000000003e+00 2.5561910000000001e+00
0.0000000000000000e+00 4.4274529999999999e+00 0.0000000000000000e+00
0.0000000000000000e+00 3.7699264999999997e+01 0.0000000000000000e+00
ITEM: ATOMS id type x y z
1 1 5.10893 1.82046 0.196435
2 1 2.4938 1.34492 0.234186
3 1 6.87356 4.01399 0.867169
4 1 4.1927 3.8573 36.818
5 1 4.16144 3.48632 34.4456
6 1 5.74303 1.67015 35.4893
7 1 4.07133 3.39154 30.0123
8 1 2.95431 1.6921 35.4067
9 1 6.55303 2.7244 33.1465
10 1 2.8625 1.64827 31.0056
11 1 3.26137 0.474428 33.1959
12 1 6.62685 3.88621 35.3141
13 1 5.11507 1.35541 31.5458
14 1 3.56666 3.5825 32.4574
15 1 6.50833 3.83524 30.857
16 2 3.89935 0.67469 14.881
17 2 4.13764 3.29367 14.6596
18 2 2.07395 0.0716315 16.9573
19 2 1.67417 1.96004 14.2923
20 2 4.83014 0.935088 9.871
21 2 2.2146 3.33826 16.8648
22 2 3.57113 2.05243 12.2382
23 2 0.623497 0.192266 12.3259
24 2 5.95462 1.6483 7.56416
25 2 3.28329 0.314693 7.62109
26 2 4.73446 4.14834 9.96446
27 2 5.78309 3.65792 12.4199
28 2 2.18134 2.59151 10.081
29 2 3.34511 2.98101 7.58137
30 2 2.65258 1.09881 5.14449
31 2 5.40672 2.72962 5.03187
32 2 4.38323 3.67711 2.49148
33 2 1.83944 2.31441 2.59895
34 2 4.30265 0.865846 2.90612
35 2 2.85945 4.23158 5.42512
ITEM: TIMESTEP
14300
ITEM: NUMBER OF ATOMS
35
ITEM: BOX BOUNDS xy xz yz pp pp pp
0.0000000000000000e+00 7.6685730000000003e+00 2.5561910000000001e+00
0.0000000000000000e+00 4.4274529999999999e+00 0.0000000000000000e+00
0.0000000000000000e+00 3.7699264999999997e+01 0.0000000000000000e+00
ITEM: ATOMS id type x y z
1 1 5.48943 2.0824 0.657278
2 1 2.91562 2.16218 0.309614
3 1 3.91383 -0.110337 0.28423
4 1 4.01063 3.9879 37.8162
5 1 4.57834 3.85301 34.4392
6 1 5.82156 1.4711 35.3982
7 1 3.76291 3.53579 30.0104
8 1 2.9689 2.13206 35.5224
9 1 6.62043 2.3246 33.4922
10 1 2.19343 1.19173 31.4506
11 1 3.88678 0.640834 33.5616
12 1 6.90027 4.26279 35.9501
13 1 4.40351 1.73299 31.5262
14 1 3.19688 4.04789 32.2643
15 1 6.43025 3.56739 31.0781
16 2 4.31936 0.663669 14.8813
17 2 4.05843 3.62117 14.3623
18 2 2.13252 0.186497 16.6457
19 2 1.58514 2.06404 14.5413
20 2 4.69475 1.07401 9.55192
21 2 1.74295 3.03743 16.6502
22 2 2.96271 1.28701 12.1444
23 2 0.655865 0.194661 11.9507
24 2 6.27233 1.93941 7.57007
25 2 3.3423 0.0240256 7.48067
26 2 4.59097 3.77265 9.8624
27 2 5.83327 3.10496 12.3802
28 2 1.92701 2.596 9.99095
29 2 3.69602 2.97449 7.55572
30 2 2.49309 1.15367 5.13677
31 2 5.39607 2.72255 5.14615
32 2 4.85079 3.98019 2.79376
33 2 2.17603 2.29475 2.63827
34 2 4.60199 1.01858 3.32716
35 2 2.57477 4.18021 5.33799
ITEM: TIMESTEP
14400
ITEM: NUMBER OF ATOMS
35
ITEM: BOX BOUNDS xy xz yz pp pp pp
0.0000000000000000e+00 7.6685730000000003e+00 2.5561910000000001e+00
0.0000000000000000e+00 4.4274529999999999e+00 0.0000000000000000e+00
0.0000000000000000e+00 3.7699264999999997e+01 0.0000000000000000e+00
ITEM: ATOMS id type x y z
1 1 5.33232 2.58405 0.989332
2 1 3.20066 2.18523 0.111636
3 1 6.70424 4.30499 0.930147
4 1 1.40645 0.186865 0.320698
5 1 4.89196 4.75716 34.6874
6 1 5.76358 1.42172 36.3008
7 1 2.98829 3.66016 30.1741
8 1 3.6317 2.43122 35.5353
9 1 1.46906 2.2985 33.4097
10 1 1.54198 1.09729 31.1569
11 1 4.8156 1.11438 33.8254
12 1 6.45609 3.49967 35.6813
13 1 4.20523 1.90224 31.6223
14 1 3.56527 3.75125 32.8901
15 1 6.04186 3.90799 31.5274
16 2 4.36161 0.716718 14.8804
17 2 4.13697 3.4368 14.2646
18 2 1.9186 0.363771 16.6057
19 2 1.79548 1.93649 14.3984
20 2 4.47376 1.02685 9.71858
21 2 6.70588 3.01509 16.9211
22 2 3.1757 1.28196 12.1697
23 2 0.198077 -0.083901 12.1014
24 2 1.17487 1.27268 7.37408
25 2 3.74568 0.275107 7.4085
26 2 4.3931 3.99762 10.0083
27 2 5.56288 2.60318 12.0313
28 2 2.12443 2.22597 9.7108
29 2 3.71738 3.10782 7.41579
30 2 2.59633 1.20693 5.05181
31 2 4.95187 2.77165 5.15121
32 2 4.73449 4.23787 2.7271
33 2 2.55231 2.74609 2.82473
34 2 5.02724 1.08342 2.92601
35 2 2.5478 3.88809 5.16914
ITEM: TIMESTEP
14500
ITEM: NUMBER OF ATOMS
35
ITEM: BOX BOUNDS xy xz yz pp pp pp
0.0000000000000000e+00 7.6685730000000003e+00 2.5561910000000001e+00
0.0000000000000000e+00 4.4274529999999999e+00 0.0000000000000000e+00
0.0000000000000000e+00 3.7699264999999997e+01 0.0000000000000000e+00
ITEM: ATOMS id type x y z
1 1 5.82824 2.41309 0.501642
2 1 2.88813 2.21503 0.00390319
3 1 4.47495 0.345666 0.42641
4 1 2.06224 0.0106553 0.0519879
5 1 2.53284 1.24121 35.2398
6 1 5.28459 1.08869 35.9717
7 1 2.34394 3.49007 31.1105
8 1 4.2334 3.53173 35.3802
9 1 1.78478 2.74508 33.5408
10 1 1.46514 1.42466 31.3673
11 1 4.51975 0.78313 33.9345
12 1 6.69538 3.46306 35.8918
13 1 4.12908 1.61672 31.4564
14 1 3.70976 3.67388 33.1825
15 1 5.57669 4.28275 32.1721
16 2 4.21881 0.575907 14.9783
17 2 4.59561 3.25222 14.6824
18 2 1.61097 0.337078 16.7349
19 2 1.80838 2.10021 14.4201
20 2 4.66885 0.720033 10.0004
21 2 6.61796 3.1795 16.6121
22 2 2.94821 1.15665 12.1518
23 2 2.7611 3.80721 12.4408
24 2 1.15225 1.44373 7.14937
25 2 3.68743 -0.0102835 7.42988
26 2 4.5973 4.20505 9.99854
27 2 5.51276 2.46018 11.8744
28 2 1.86025 2.5591 9.53626
29 2 3.58235 2.86357 7.63771
30 2 2.54517 1.01569 5.10574
31 2 4.96872 2.54843 5.05419
32 2 5.13593 4.31813 2.6606
33 2 2.53171 2.71206 2.37207
34 2 5.06222 1.41795 2.66826
35 2 7.47687 4.1456 4.97548
ITEM: TIMESTEP
14600
ITEM: NUMBER OF ATOMS
35
ITEM: BOX BOUNDS xy xz yz pp pp pp
0.0000000000000000e+00 7.6685730000000003e+00 2.5561910000000001e+00
0.0000000000000000e+00 4.4274529999999999e+00 0.0000000000000000e+00
0.0000000000000000e+00 3.7699264999999997e+01 0.0000000000000000e+00
ITEM: ATOMS id type x y z
1 1 6.20886 2.28752 0.0282096
2 1 3.90455 2.32023 37.7016
3 1 4.50366 0.0231869 0.361498
4 1 1.80535 0.348113 0.217393
5 1 3.00572 1.56686 35.4
6 1 5.43735 1.33705 35.6569
7 1 2.45132 3.78007 31.5749
8 1 4.52104 3.88298 35.6272
9 1 6.12779 2.28745 33.7698
10 1 1.20794 1.47636 31.7142
11 1 4.19935 1.17924 33.4563
12 1 6.89133 3.74057 35.8933
13 1 4.11683 2.39228 31.3385
14 1 3.31026 3.45383 33.7554
15 1 5.35466 4.01286 31.9867
16 2 4.44943 0.757812 14.8325
17 2 4.4963 3.52341 14.7498
18 2 1.21402 0.505109 16.8561
19 2 1.83447 1.6477 14.4414
20 2 4.63105 0.997109 9.8473
21 2 6.62257 3.06397 16.9337
22 2 2.90645 0.442033 12.2009
23 2 3.00572 3.99583 12.6628
24 2 0.982414 1.49907 7.43326
25 2 5.90203 4.37638 7.35486
26 2 4.54154 4.12066 9.67771
27 2 5.46738 2.21009 12.2706
28 2 1.79836 2.56254 9.84258
29 2 3.74587 2.71797 7.59733
30 2 2.46971 1.24665 4.72275
31 2 4.97113 2.67477 4.99572
32 2 5.37191 4.21633 2.28514
33 2 2.65788 2.62331 2.24735
34 2 5.12301 1.49852 2.52086
35 2 2.45329 3.93704 4.8171
ITEM: TIMESTEP
14700
ITEM: NUMBER OF ATOMS
35
ITEM: BOX BOUNDS xy xz yz pp pp pp
0.0000000000000000e+00 7.6685730000000003e+00 2.5561910000000001e+00
0.0000000000000000e+00 4.4274529999999999e+00 0.0000000000000000e+00
0.0000000000000000e+00 3.7699264999999997e+01 0.0000000000000000e+00
ITEM: ATOMS id type x y z
1 1 6.37795 2.92006 37.8354
2 1 3.68205 2.33044 -0.04964
3 1 5.42839 0.497377 0.344969
4 1 2.60358 0.45267 0.187884
5 1 3.06969 1.57004 35.5456
6 1 5.83162 1.5126 36.0563
7 1 7.4204 4.32142 31.0556
8 1 4.49208 3.36974 35.5369
9 1 5.50667 2.55912 33.677
10 1 1.47467 1.99469 31.3998
11 1 3.88154 0.978204 33.2409
12 1 7.02752 4.02474 35.5958
13 1 3.76248 1.71545 30.7625
14 1 3.29123 3.49704 33.3254
15 1 4.73881 4.20599 31.8123
16 2 4.40652 0.569599 15.1107
17 2 4.46559 3.26111 15.1561
18 2 1.08417 0.516379 17.1292
19 2 2.1762 2.07795 14.5999
20 2 4.33001 1.29341 9.65249
21 2 6.53204 3.24886 16.7598
22 2 3.1349 0.45117 12.1695
23 2 3.0141 3.43471 12.2592
24 2 0.944554 1.16176 7.38777
25 2 3.63049 0.0785245 6.97289
26 2 4.4013 3.94096 9.78518
27 2 5.22616 1.9586 12.4554
28 2 2.04199 2.51821 10.3384
29 2 3.0305 2.86468 7.27035
30 2 2.4036 1.26917 4.59711
31 2 4.98656 2.73908 4.81539
32 2 5.2759 3.99607 2.61399
33 2 2.78537 2.85371 2.44277
34 2 5.49888 1.12429 2.70725
35 2 2.56839 4.17707 4.82318
ITEM: TIMESTEP
14800
ITEM: NUMBER OF ATOMS
35
ITEM: BOX BOUNDS xy xz yz pp pp pp
0.0000000000000000e+00 7.6685730000000003e+00 2.5561910000000001e+00
0.0000000000000000e+00 4.4274529999999999e+00 0.0000000000000000e+00
0.0000000000000000e+00 3.7699264999999997e+01 0.0000000000000000e+00
ITEM: ATOMS id type x y z
1 1 6.61165 2.2596 0.349058
2 1 4.70136 3.30439 37.7038
3 1 0.22313 0.401044 0.11491
4 1 3.19946 1.09939 0.23143
5 1 3.35173 1.56807 35.3727
6 1 0.498331 1.7638 35.3125
7 1 2.96726 4.46942 30.9271
8 1 4.39873 4.02197 35.0165
9 1 5.07952 2.49768 33.2202
10 1 1.13578 2.28224 31.031
11 1 3.32811 0.46985 32.915
12 1 6.85301 3.62518 35.9799
13 1 3.56534 2.29737 30.7143
14 1 2.36044 2.94369 33.4121
15 1 5.30932 4.34348 30.2345
16 2 4.67899 0.521174 14.8621
17 2 4.59198 3.34633 15.2628
18 2 1.27763 0.647016 17.0889
19 2 1.96387 2.13347 14.455
20 2 4.22952 0.846264 9.68412
21 2 6.3959 3.17239 17.3189
22 2 2.87315 0.264926 12.4465
23 2 3.23225 3.48243 12.4503
24 2 0.774843 1.30171 7.45482
25 2 3.02771 0.00275266 7.23754
26 2 4.38586 4.00305 9.85127
27 2 5.50553 1.73111 12.4978
28 2 1.46989 2.35331 9.70264
29 2 3.14164 2.86972 7.28702
30 2 2.55408 1.42917 4.99969
31 2 5.10817 2.60603 5.40855
32 2 5.44267 4.01394 2.47015
33 2 2.96309 2.69591 2.58291
34 2 5.57157 1.26379 2.43828
35 2 2.63239 4.36001 4.87896
ITEM: TIMESTEP
14900
ITEM: NUMBER OF ATOMS
35
ITEM: BOX BOUNDS xy xz yz pp pp pp
0.0000000000000000e+00 7.6685730000000003e+00 2.5561910000000001e+00
0.0000000000000000e+00 4.4274529999999999e+00 0.0000000000000000e+00
0.0000000000000000e+00 3.7699264999999997e+01 0.0000000000000000e+00
ITEM: ATOMS id type x y z
1 1 1.6943 2.13833 0.3225
2 1 5.23645 3.78453 37.5395
3 1 2.9238 4.19966 37.6314
4 1 4.09629 1.56655 0.284795
5 1 3.02006 1.88326 35.5496
6 1 5.63903 1.65583 35.025
7 1 0.1084 0.171066 31.9965
8 1 4.46842 4.2404 34.4286
9 1 4.48788 2.03299 33.1615
10 1 6.61664 2.6496 30.5897
11 1 2.4675 0.0544525 31.8424
12 1 6.7127 4.02435 35.2495
13 1 3.9616 2.44746 30.5286
14 1 1.60375 2.62665 32.9586
15 1 3.17408 0.445428 29.7379
16 2 4.69916 0.337172 14.8402
17 2 4.80202 3.33328 15.0635
18 2 1.32359 0.789963 16.9824
19 2 1.92661 1.93834 14.8261
20 2 4.2091 0.608012 10.1663
21 2 6.559 3.53162 17.2763
22 2 3.14902 0.0440444 12.7067
23 2 2.775 3.15834 12.3352
24 2 5.21753 1.27324 7.44302
25 2 5.40774 4.4003 7.83419
26 2 3.98006 3.73082 10.1818
27 2 5.67419 1.81404 11.923
28 2 6.55782 2.46712 9.74676
29 2 3.14661 2.79102 7.83713
30 2 2.68161 1.3424 5.00701
31 2 5.2101 2.92908 4.98052
32 2 5.55268 4.41153 2.5846
33 2 3.3246 2.62467 2.57662
34 2 5.61352 1.34632 2.42535
35 2 2.76664 4.24918 4.83147
ITEM: TIMESTEP
15000
ITEM: NUMBER OF ATOMS
35
ITEM: BOX BOUNDS xy xz yz pp pp pp
0.0000000000000000e+00 7.6685730000000003e+00 2.5561910000000001e+00
0.0000000000000000e+00 4.4274529999999999e+00 0.0000000000000000e+00
0.0000000000000000e+00 3.7699264999999997e+01 0.0000000000000000e+00
ITEM: ATOMS id type x y z
1 1 1.85493 1.41855 0.311251
2 1 5.89924 4.21403 37.2416
3 1 3.11901 4.00635 -0.00866914
4 1 4.72726 2.19498 0.116464
5 1 2.97572 2.31806 35.6395
6 1 5.74807 1.90386 35.8279
7 1 7.47467 4.37069 32.2308
8 1 4.21724 3.99376 34.2096
9 1 3.08109 1.95141 32.9891
10 1 1.80703 2.8661 30.5052
11 1 4.84928 4.47619 31.8717
12 1 4.30648 0.0260737 34.5232
13 1 4.40203 2.78787 30.2642
14 1 6.0717 2.08561 33.0106
15 1 3.43368 0.602595 29.7597
16 2 4.78185 0.448914 14.749
17 2 4.67041 3.03065 15.0025
18 2 1.24111 0.879704 17.1635
19 2 2.32271 1.81426 14.9399
20 2 3.7409 0.868173 10.2331
21 2 6.67891 3.81243 16.9482
22 2 2.86271 0.0303988 12.6889
23 2 3.00459 2.75301 12.6103
24 2 5.30869 1.21473 7.26229
25 2 5.30378 4.27824 7.63438
26 2 4.0949 3.73275 10.2251
27 2 5.41364 1.58988 12.5888
28 2 1.42226 2.13504 9.86705
29 2 2.83122 2.91872 7.47476
30 2 2.77128 1.3132 5.31093
31 2 5.39779 2.95294 4.71724
32 2 5.80261 4.33515 2.24447
33 2 3.14084 3.13374 2.3923
34 2 0.772975 1.28841 2.73087
35 2 2.75778 4.2853 5.01441
ITEM: TIMESTEP
15100
ITEM: NUMBER OF ATOMS
35
ITEM: BOX BOUNDS xy xz yz pp pp pp
0.0000000000000000e+00 7.6685730000000003e+00 2.5561910000000001e+00
0.0000000000000000e+00 4.4274529999999999e+00 0.0000000000000000e+00
0.0000000000000000e+00 3.7699264999999997e+01 0.0000000000000000e+00
ITEM: ATOMS id type x y z
1 1 2.41734 1.98387 0.262436
2 1 5.98507 4.39616 36.7421
3 1 3.54979 4.28731 37.4644
4 1 4.84434 2.06845 0.843405
5 1 3.26672 2.18605 35.5911
6 1 5.76809 1.97348 35.4913
7 1 7.52474 4.5377 31.7549
8 1 4.37861 4.54375 34.6248
9 1 2.55905 2.65561 32.9151
10 1 1.88908 2.0484 30.6319
11 1 2.16724 -0.081242 32.3899
12 1 6.74688 4.33386 34.3407
13 1 4.74893 2.74748 30.69
14 1 4.74483 2.07307 33.4425
15 1 3.58243 0.613745 30.2157
16 2 5.01334 0.0264138 14.8236
17 2 4.62499 3.25575 15.5483
18 2 1.01551 0.917975 17.2884
19 2 2.54695 1.45617 15.1108
20 2 3.91523 0.901442 9.6436
21 2 6.54949 3.74142 17.0327
22 2 5.16825 4.33419 12.5047
23 2 2.93629 2.8501 12.5227
24 2 5.54223 1.54231 7.64785
25 2 5.21737 4.1464 7.35143
26 2 3.88409 3.72641 9.89655
27 2 5.5036 1.50926 12.3228
28 2 1.15645 2.17303 10.1988
29 2 2.64779 2.9015 7.38335
30 2 2.95866 1.3813 4.81092
31 2 5.36142 2.94704 5.02184
32 2 5.9957 4.37638 1.8604
33 2 3.12783 2.92422 2.62228
34 2 0.911064 1.42133 2.81304
35 2 2.72863 4.30603 4.9694
ITEM: TIMESTEP
15200
ITEM: NUMBER OF ATOMS
35
ITEM: BOX BOUNDS xy xz yz pp pp pp
0.0000000000000000e+00 7.6685730000000003e+00 2.5561910000000001e+00
0.0000000000000000e+00 4.4274529999999999e+00 0.0000000000000000e+00
0.0000000000000000e+00 3.7699264999999997e+01 0.0000000000000000e+00
ITEM: ATOMS id type x y z
1 1 2.41906 2.67451 0.0923188
2 1 6.32218 4.54981 36.9715
3 1 1.13727 0.223245 37.887
4 1 4.74293 2.28706 0.110152
5 1 3.33743 2.32807 35.3415
6 1 5.84302 2.50772 35.741
7 1 5.09565 0.326706 32.0051
8 1 1.5979 0.0358492 35.4166
9 1 1.63415 2.0347 33.2652
10 1 1.83991 1.57702 30.7568
11 1 5.38786 4.53567 32.5955
12 1 6.97432 4.68449 34.4948
13 1 4.29575 2.83236 31.2136
14 1 4.46407 2.49436 33.4368
15 1 3.48607 -0.0948457 30.047
16 2 7.49703 4.24353 14.6493
17 2 4.75197 2.79143 15.6341
18 2 0.866798 0.935375 17.3858
19 2 2.52877 1.35175 14.8479
20 2 3.70088 0.761815 9.73252
21 2 6.61602 3.5527 17.5607
22 2 5.38691 4.41399 12.3363
23 2 2.59694 2.74751 12.2891
24 2 5.35027 1.40567 7.43963
25 2 5.30378 4.65125 7.21983
26 2 3.85893 3.7374 9.84243
27 2 5.0383 1.38728 12.5397
28 2 6.56179 2.71408 9.79573
29 2 2.80297 2.8607 7.40368
30 2 3.02814 1.1018 4.59917
31 2 5.33137 2.89404 4.96959
32 2 6.04274 4.43981 2.03718
33 2 3.66124 3.07439 2.57705
34 2 0.942178 1.31238 2.70743
35 2 2.77614 4.3681 5.11279
ITEM: TIMESTEP
15300
ITEM: NUMBER OF ATOMS
35
ITEM: BOX BOUNDS xy xz yz pp pp pp
0.0000000000000000e+00 7.6685730000000003e+00 2.5561910000000001e+00
0.0000000000000000e+00 4.4274529999999999e+00 0.0000000000000000e+00
0.0000000000000000e+00 3.7699264999999997e+01 0.0000000000000000e+00
ITEM: ATOMS id type x y z
1 1 2.10924 2.79526 0.706646
2 1 4.06998 0.654703 37.4795
3 1 1.3578 0.42217 0.207185
4 1 5.15049 3.00358 -0.0110103
5 1 2.75748 2.34689 36.0454
6 1 5.31116 2.6738 35.4225
7 1 0.690797 0.353321 32.4135
8 1 1.94436 0.256892 35.777
9 1 1.61778 2.1019 33.0865
10 1 1.87098 1.24233 30.937
11 1 5.44502 4.36525 32.9893
12 1 4.60915 0.328959 34.757
13 1 3.77444 2.93394 30.636
14 1 3.6871 2.751 33.6583
15 1 6.19284 3.43519 30.7822
16 2 7.45172 4.04601 14.8853
17 2 4.93605 2.49522 15.3179
18 2 1.20923 0.59361 17.0278
19 2 2.18054 1.15803 14.8682
20 2 3.8427 1.34813 10.3298
21 2 6.57485 3.47949 17.0857
22 2 4.91808 4.07213 12.6388
23 2 2.3765 2.89482 11.9993
24 2 5.1623 1.50871 7.2331
25 2 2.74675 0.0604789 7.33053
26 2 4.08493 4.08086 10.0669
27 2 4.99851 1.54367 12.5809
28 2 6.27989 2.21045 9.4192
29 2 2.88911 2.93367 7.21114
30 2 2.75258 1.27776 4.65351
31 2 5.50171 2.63866 4.84131
32 2 3.90567 0.118638 2.34472
33 2 3.9552 3.18208 2.4421
34 2 0.866475 1.64761 2.49022
35 2 3.01049 4.21519 4.78567
ITEM: TIMESTEP
15400
ITEM: NUMBER OF ATOMS
35
ITEM: BOX BOUNDS xy xz yz pp pp pp
0.0000000000000000e+00 7.6685730000000003e+00 2.5561910000000001e+00
0.0000000000000000e+00 4.4274529999999999e+00 0.0000000000000000e+00
0.0000000000000000e+00 3.7699264999999997e+01 0.0000000000000000e+00
ITEM: ATOMS id type x y z
1 1 2.69618 2.90927 0.515904
2 1 3.80504 1.02211 -0.037277
3 1 1.4997 0.811656 0.0731628
4 1 5.40549 3.05724 37.7717
5 1 3.03484 2.90908 35.9739
6 1 5.64056 2.45308 35.5038
7 1 4.94523 0.348374 32.5962
8 1 1.95975 0.7467 35.3273
9 1 1.22862 2.25875 33.402
10 1 2.31101 0.540606 30.7401
11 1 2.39131 0.136817 33.0003
12 1 4.38695 0.229655 35.1136
13 1 3.75336 2.63948 31.0623
14 1 3.73713 2.35284 33.519
15 1 6.37829 3.25085 31.0435
16 2 2.39892 3.88769 14.3296
17 2 4.66895 2.41811 15.0976
18 2 1.46925 -0.0542107 17.0681
19 2 2.53452 1.29424 14.7317
20 2 3.87293 1.30753 10.1066
21 2 6.37813 3.53962 16.858
22 2 4.60297 3.96761 12.6625
23 2 1.92042 2.9783 11.8896
24 2 5.22831 1.16426 7.1379
25 2 5.23313 4.1661 7.61614
26 2 3.79186 4.2204 10.0186
27 2 5.17334 1.2161 12.6185
28 2 6.40492 2.60646 9.54182
29 2 2.77298 2.86857 7.41334
30 2 2.90522 1.44367 4.89197
31 2 5.40733 2.92756 4.98968
32 2 3.81033 0.427357 2.58133
33 2 4.14881 3.24025 2.55894
34 2 1.51967 1.8651 2.46448
35 2 2.83504 4.29739 4.72346
ITEM: TIMESTEP
15500
ITEM: NUMBER OF ATOMS
35
ITEM: BOX BOUNDS xy xz yz pp pp pp
0.0000000000000000e+00 7.6685730000000003e+00 2.5561910000000001e+00
0.0000000000000000e+00 4.4274529999999999e+00 0.0000000000000000e+00
0.0000000000000000e+00 3.7699264999999997e+01 0.0000000000000000e+00
ITEM: ATOMS id type x y z
1 1 2.68859 3.31367 0.494462
2 1 3.97264 1.13067 37.4581
3 1 1.467 1.11471 38.0252
4 1 5.28935 3.15949 0.497404
5 1 3.30102 2.79778 36.0623
6 1 6.31881 3.13737 36.0011
7 1 4.54425 0.1145 32.2639
8 1 1.43068 0.516931 35.2864
9 1 6.3601 2.42174 33.4211
10 1 2.18848 0.590855 30.2478
11 1 2.2188 -0.118521 32.8418
12 1 4.53904 0.407562 34.6862
13 1 3.95801 2.28214 31.1541
14 1 3.51366 2.44001 33.6241
15 1 6.3137 2.75286 31.0585
16 2 2.27437 3.8804 14.389
17 2 5.01232 2.20202 15.229
18 2 3.78084 4.33187 16.6802
19 2 2.32887 0.987311 14.7828
20 2 3.56075 1.1749 9.85107
21 2 6.69711 3.47133 16.8078
22 2 4.84449 3.9729 12.1554
23 2 2.21942 2.49284 12.0812
24 2 5.30326 1.04758 7.57866
25 2 5.1681 4.34732 7.51214
26 2 3.54692 4.41376 9.91233
27 2 4.65314 1.28363 12.2327
28 2 6.23373 2.9252 9.49681
29 2 2.82289 2.60568 7.36656
30 2 2.85171 1.32371 5.17617
31 2 5.31882 3.09969 5.23876
32 2 4.20295 0.624208 2.33728
33 2 4.33399 3.39458 2.823
34 2 1.79092 2.11725 2.73626
35 2 2.75242 4.37456 4.97674
ITEM: TIMESTEP
15600
ITEM: NUMBER OF ATOMS
35
ITEM: BOX BOUNDS xy xz yz pp pp pp
0.0000000000000000e+00 7.6685730000000003e+00 2.5561910000000001e+00
0.0000000000000000e+00 4.4274529999999999e+00 0.0000000000000000e+00
0.0000000000000000e+00 3.7699264999999997e+01 0.0000000000000000e+00
ITEM: ATOMS id type x y z
1 1 2.86471 3.271 0.863138
2 1 4.2411 0.650935 37.3085
3 1 1.54455 1.00515 38.239
4 1 5.28202 3.29605 0.688385
5 1 3.79446 3.10737 35.7245
6 1 6.04984 3.09397 35.8362
7 1 5.03186 0.327584 31.6033
8 1 2.39221 1.04272 35.44
9 1 5.71213 2.33347 33.6387
10 1 2.15293 -0.0971406 30.7401
11 1 2.08816 0.448219 32.8797
12 1 4.32395 0.292785 34.1372
13 1 3.51603 2.2625 30.9239
14 1 3.44492 2.58587 33.303
15 1 6.35854 2.25201 31.1355
16 2 2.44502 3.77949 14.3431
17 2 4.88016 2.06271 14.8877
18 2 4.03646 4.62169 16.8291
19 2 2.47044 0.851841 14.3746
20 2 3.20956 1.55444 9.73162
21 2 6.3589 3.17735 16.8976
22 2 4.97277 3.80236 12.2138
23 2 2.21741 2.28023 12.1472
24 2 5.12536 1.35586 7.56163
25 2 5.2218 4.40669 7.3226
26 2 3.37077 4.35773 9.99136
27 2 4.95593 0.973528 12.2201
28 2 5.82738 2.89729 9.85376
29 2 2.8423 2.97257 7.51766
30 2 2.90368 1.2168 4.90876
31 2 5.51148 2.44245 5.33124
32 2 4.62745 0.919271 2.38421
33 2 4.26236 3.71207 3.02897
34 2 1.53797 2.35604 2.94752
35 2 2.67636 4.39684 5.10356
ITEM: TIMESTEP
15700
ITEM: NUMBER OF ATOMS
35
ITEM: BOX BOUNDS xy xz yz pp pp pp
0.0000000000000000e+00 7.6685730000000003e+00 2.5561910000000001e+00
0.0000000000000000e+00 4.4274529999999999e+00 0.0000000000000000e+00
0.0000000000000000e+00 3.7699264999999997e+01 0.0000000000000000e+00
ITEM: ATOMS id type x y z
1 1 3.27751 2.74422 0.109229
2 1 4.96742 0.78071 36.7262
3 1 1.78518 0.652773 0.391914
4 1 5.54291 3.17443 0.393631
5 1 3.76608 3.98352 35.3928
6 1 6.23131 2.83326 35.9243
7 1 7.42353 4.29482 31.2965
8 1 2.87754 1.0817 35.7907
9 1 5.16567 2.63874 33.6527
10 1 5.05662 4.18425 31.196
11 1 2.05103 0.562575 33.5968
12 1 4.33398 0.353351 33.8914
13 1 3.66075 1.83372 30.8658
14 1 2.91126 2.83516 32.9139
15 1 6.21431 2.05727 31.4446
16 2 2.67028 3.52103 14.7738
17 2 4.92401 2.26245 14.4816
18 2 1.38818 0.357687 16.8396
19 2 2.57006 0.693261 14.6377
20 2 3.04428 1.40439 9.8929
21 2 6.18954 3.00037 16.588
22 2 4.71175 3.4769 12.4084
23 2 2.29704 2.37267 12.2428
24 2 5.18499 1.52265 7.80068
25 2 2.61221 0.0644672 7.34466
26 2 3.1911 4.33692 9.82668
27 2 5.06745 0.596222 12.4003
28 2 5.62465 3.07646 9.7667
29 2 2.64013 3.04426 7.63214
30 2 3.11249 1.22167 4.91373
31 2 5.54799 2.53079 5.13575
32 2 4.04116 1.20143 2.41003
33 2 4.3789 4.17732 3.04362
34 2 1.85888 2.80635 2.80619
35 2 2.81012 3.86678 5.06381
ITEM: TIMESTEP
15800
ITEM: NUMBER OF ATOMS
35
ITEM: BOX BOUNDS xy xz yz pp pp pp
0.0000000000000000e+00 7.6685730000000003e+00 2.5561910000000001e+00
0.0000000000000000e+00 4.4274529999999999e+00 0.0000000000000000e+00
0.0000000000000000e+00 3.7699264999999997e+01 0.0000000000000000e+00
ITEM: ATOMS id type x y z
1 1 3.47456 2.89014 0.114044
2 1 5.1581 1.1038 37.0234
3 1 2.0123 0.82341 0.421561
4 1 6.26691 3.14844 0.210989
5 1 3.64385 3.52535 35.5442
6 1 6.62115 3.02964 35.4688
7 1 7.35944 3.67852 31.1255
8 1 2.96596 1.0434 35.645
9 1 5.31338 3.06385 33.4281
10 1 4.94182 3.8674 31.5565
11 1 1.25979 0.873484 33.9597
12 1 4.21606 0.485802 33.6133
13 1 3.81731 1.91065 30.9707
14 1 2.86603 2.72042 33.3322
15 1 6.07139 1.83845 31.4844
16 2 2.77809 3.60675 14.8055
17 2 5.39045 1.92416 14.7688
18 2 0.958317 0.257442 16.9951
19 2 2.74577 0.55047 14.7181
20 2 3.10452 1.2885 10.069
21 2 5.92718 3.09206 17.0901
22 2 4.63919 3.81366 11.9972
23 2 2.21123 1.96888 12.5111
24 2 5.03285 1.45049 7.40825
25 2 2.54224 -0.0419439 7.37501
26 2 3.06311 4.48647 9.95954
27 2 4.43939 0.5479 12.2952
28 2 5.82599 2.91528 9.9354
29 2 2.50763 2.57974 7.6533
30 2 3.2217 1.08793 4.95796
31 2 5.5742 2.55315 4.90131
32 2 4.34809 1.4901 2.04173
33 2 4.26022 4.60844 2.78548
34 2 2.03424 3.24236 2.42965
35 2 3.00691 4.11495 5.20169
ITEM: TIMESTEP
15900
ITEM: NUMBER OF ATOMS
35
ITEM: BOX BOUNDS xy xz yz pp pp pp
0.0000000000000000e+00 7.6685730000000003e+00 2.5561910000000001e+00
0.0000000000000000e+00 4.4274529999999999e+00 0.0000000000000000e+00
0.0000000000000000e+00 3.7699264999999997e+01 0.0000000000000000e+00
ITEM: ATOMS id type x y z
1 1 3.53815 3.89052 0.633059
2 1 5.05964 0.938298 37.0287
3 1 2.59021 1.77958 0.236118
4 1 5.98159 3.33282 0.121779
5 1 4.47017 2.93529 35.9133
6 1 1.83142 3.01758 35.3047
7 1 7.40668 4.04625 31.2635
8 1 3.18991 0.948984 35.2672
9 1 5.01419 2.80954 33.2841
10 1 4.77164 3.60342 30.8035
11 1 0.812239 0.660557 34.3436
12 1 3.58698 0.665398 33.0827
13 1 3.43737 1.87596 30.9619
14 1 2.73979 3.05504 33.2969
15 1 0.889387 1.49911 31.9338
16 2 2.98428 3.27212 14.7268
17 2 5.55958 1.90702 14.9878
18 2 0.572476 0.214717 17.1622
19 2 3.0209 0.292209 15.2944
20 2 3.39733 1.62694 9.82142
21 2 5.68918 3.35074 17.2659
22 2 4.25428 3.48516 12.3908
23 2 1.54647 2.20708 12.5117
24 2 4.70195 1.31682 7.16872
25 2 5.11356 3.83133 7.48081
26 2 3.18587 4.26691 9.76385
27 2 4.35964 0.648016 12.3947
28 2 5.90177 2.54061 10.0004
29 2 2.2836 2.60231 7.34723
30 2 3.15767 1.13558 4.74163
31 2 5.83675 2.60548 4.61435
32 2 5.06748 1.82848 1.93445
33 2 2.03101 0.432888 2.59069
34 2 6.9694 3.50066 2.55841
35 2 3.24643 4.10102 5.29174
ITEM: TIMESTEP
16000
ITEM: NUMBER OF ATOMS
35
ITEM: BOX BOUNDS xy xz yz pp pp pp
0.0000000000000000e+00 7.6685730000000003e+00 2.5561910000000001e+00
0.0000000000000000e+00 4.4274529999999999e+00 0.0000000000000000e+00
0.0000000000000000e+00 3.7699264999999997e+01 0.0000000000000000e+00
ITEM: ATOMS id type x y z
1 1 3.8736 4.1898 0.267258
2 1 5.1054 1.21438 36.811
3 1 2.85699 1.79929 0.141155
4 1 6.32329 4.12684 0.0894081
5 1 4.51726 3.37354 35.8568
6 1 1.952 2.978 35.9313
7 1 7.40705 4.40923 30.4817
8 1 3.14266 0.742303 35.5012
9 1 4.48817 3.15547 33.542
10 1 5.07692 3.34474 30.8785
11 1 0.582676 0.518447 34.6013
12 1 3.46651 0.816125 32.6378
13 1 2.81007 1.5811 30.546
14 1 2.10223 3.01975 32.9628
15 1 1.02328 0.947422 32.0428
16 2 3.14034 3.00308 15.3082
17 2 5.60347 1.68761 14.9622
18 2 0.167915 0.224051 17.1492
19 2 3.13637 0.353743 14.9887
20 2 3.42842 1.26233 9.75176
21 2 5.46747 3.19254 17.4682
22 2 4.01269 3.49687 12.6317
23 2 1.61528 2.14688 12.4325
24 2 4.6706 1.03033 7.32447
25 2 4.80269 4.0902 7.61061
26 2 3.21227 4.18747 9.62938
27 2 4.13378 0.633522 12.5793
28 2 5.8378 3.02523 9.94456
29 2 2.02348 2.24476 7.12401
30 2 3.46941 1.308 4.81211
31 2 5.85402 2.50137 4.78741
32 2 4.67586 2.04053 2.02838
33 2 2.53074 0.606586 2.47172
34 2 7.63327 3.76259 2.5709
35 2 3.67136 3.96172 4.88863
ITEM: TIMESTEP
16100
ITEM: NUMBER OF ATOMS
35
ITEM: BOX BOUNDS xy xz yz pp pp pp
0.0000000000000000e+00 7.6685730000000003e+00 2.5561910000000001e+00
0.0000000000000000e+00 4.4274529999999999e+00 0.0000000000000000e+00
0.0000000000000000e+00 3.7699264999999997e+01 0.0000000000000000e+00
ITEM: ATOMS id type x y z
1 1 4.16764 4.07335 0.310607
2 1 5.41645 2.17626 37.2352
3 1 2.54468 1.86921 0.133319
4 1 6.56248 4.18748 0.544182
5 1 3.83359 3.60664 35.5905
6 1 6.62428 3.2095 34.9786
7 1 0.288565 0.291901 29.7846
8 1 3.23053 1.12767 34.8931
9 1 4.43687 3.0161 33.6301
10 1 4.77017 2.81095 31.1253
11 1 5.55715 1.18877 34.6189
12 1 3.37407 1.02159 32.4334
13 1 2.15292 1.55771 30.5262
14 1 6.69269 2.88965 32.84
15 1 0.89047 0.185427 32.1167
16 2 3.02641 2.67817 15.679
17 2 5.75698 1.4814 14.7001
18 2 4.87974 0.560039 17.3008
19 2 5.39063 4.21237 14.8583
20 2 2.97044 1.54308 10.1234
21 2 5.27465 2.99155 16.9575
22 2 4.17942 3.71085 12.5382
23 2 1.89643 2.01977 12.3946
24 2 4.78396 0.666528 7.49125
25 2 4.65618 3.67742 7.24334
26 2 0.555751 0.0721998 10.204
27 2 4.1964 0.484991 12.3481
28 2 5.6879 2.94375 9.85941
29 2 2.10856 2.39276 7.36784
30 2 3.84803 1.03034 5.02854
31 2 6.35114 2.57024 4.49285
32 2 5.19192 2.37371 2.16735
33 2 2.50262 0.768358 2.55945
34 2 2.69622 3.7273 2.67124
35 2 3.78499 4.35476 5.0158
ITEM: TIMESTEP
16200
ITEM: NUMBER OF ATOMS
35
ITEM: BOX BOUNDS xy xz yz pp pp pp
0.0000000000000000e+00 7.6685730000000003e+00 2.5561910000000001e+00
0.0000000000000000e+00 4.4274529999999999e+00 0.0000000000000000e+00
0.0000000000000000e+00 3.7699264999999997e+01 0.0000000000000000e+00
ITEM: ATOMS id type x y z
1 1 1.45572 0.257151 0.760143
2 1 5.4882 2.02958 37.0285
3 1 2.93311 2.33476 0.180903
4 1 4.08055 0.0687113 37.6146
5 1 3.34633 3.79949 36.0645
6 1 6.28756 4.15092 34.8101
7 1 0.138681 -0.108548 29.8618
8 1 2.62975 1.98313 34.6968
9 1 4.21271 2.98923 33.2275
10 1 4.48472 2.15416 30.6355
11 1 5.34239 1.52102 34.6558
12 1 3.18632 0.365071 32.3018
13 1 2.20202 1.86425 29.8269
14 1 1.62852 2.73089 32.5392
15 1 0.399642 0.527731 32.3368
16 2 2.7314 2.36435 15.4705
17 2 5.31119 0.901194 14.6399
18 2 4.53872 0.317157 16.8969
19 2 5.61472 4.16642 14.5613
20 2 2.9461 1.83988 9.95619
21 2 5.18967 3.15758 17.1932
22 2 4.49028 3.31724 12.2877
23 2 1.81277 2.33578 12.7222
24 2 4.62181 0.558768 8.03181
25 2 4.94503 3.10929 7.39329
26 2 0.726655 0.0631021 10.044
27 2 4.32272 0.611208 12.2718
28 2 5.36267 2.86621 9.93495
29 2 2.40675 2.23878 7.51247
30 2 4.00213 1.38263 5.11753
31 2 6.49594 2.92325 5.05564
32 2 5.55886 2.19931 2.18129
33 2 2.84103 0.882837 2.68897
34 2 2.74846 3.83026 2.60631
35 2 3.94997 4.38301 5.10945
ITEM: TIMESTEP
16300
ITEM: NUMBER OF ATOMS
35
ITEM: BOX BOUNDS xy xz yz pp pp pp
0.0000000000000000e+00 7.6685730000000003e+00 2.5561910000000001e+00
0.0000000000000000e+00 4.4274529999999999e+00 0.0000000000000000e+00
0.0000000000000000e+00 3.7699264999999997e+01 0.0000000000000000e+00
ITEM: ATOMS id type x y z
1 1 1.7064 0.461208 0.402674
2 1 5.70534 2.38498 36.6792
3 1 3.35477 2.8631 0.404216
4 1 6.62819 4.51692 37.3876
5 1 3.82554 4.46383 35.7419
6 1 5.57093 4.34917 34.6088
7 1 2.31946 3.76883 30.7648
8 1 2.19253 2.28192 35.0304
9 1 3.97555 3.22518 32.7822
10 1 4.22329 2.01305 30.5776
11 1 4.75515 1.87299 34.6059
12 1 2.66833 0.61055 31.8813
13 1 2.28966 1.36582 29.3258
14 1 1.59061 2.89432 32.4621
15 1 5.12193 0.714386 32.5142
16 2 2.76718 2.26504 15.3234
17 2 0.536774 0.758047 14.4319
18 2 4.54326 0.0446053 17.0253
19 2 5.32039 3.84506 14.7394
20 2 3.14236 1.59699 9.96833
21 2 4.51485 3.04952 16.8959
22 2 4.12312 3.49216 12.5709
23 2 1.90098 2.12998 12.7039
24 2 4.66672 0.114649 7.67781
25 2 4.72152 3.41151 7.61812
26 2 1.00273 0.105558 10.0718
27 2 4.17855 0.563741 11.9489
28 2 6.13629 2.97822 10.0502
29 2 2.27454 1.50362 7.3743
30 2 4.1262 1.96956 5.18624
31 2 6.68734 3.40078 5.28375
32 2 5.36745 2.29276 2.35677
33 2 3.2445 0.76104 2.93333
34 2 2.94181 3.69634 2.82027
35 2 1.49389 0.246625 5.17656
ITEM: TIMESTEP
16400
ITEM: NUMBER OF ATOMS
35
ITEM: BOX BOUNDS xy xz yz pp pp pp
0.0000000000000000e+00 7.6685730000000003e+00 2.5561910000000001e+00
0.0000000000000000e+00 4.4274529999999999e+00 0.0000000000000000e+00
0.0000000000000000e+00 3.7699264999999997e+01 0.0000000000000000e+00
ITEM: ATOMS id type x y z
1 1 1.68979 1.0394 0.757762
2 1 5.69117 3.01794 37.2921
3 1 3.24585 2.52015 0.408265
4 1 4.59352 0.368925 0.479886
5 1 0.63045 0.305741 35.5813
6 1 3.13441 0.224786 34.3397
7 1 2.2345 3.73653 30.3494
8 1 1.99261 2.61301 35.1086
9 1 3.40595 3.40915 32.7714
10 1 4.80494 1.97606 30.2945
11 1 4.38121 2.26163 35.3599
12 1 2.60114 1.00078 32.005
13 1 1.70109 0.462621 29.7294
14 1 6.19565 2.50481 32.665
15 1 4.70914 0.715787 32.5351
16 2 2.57149 1.95114 14.9688
17 2 5.2621 0.833629 14.8253
18 2 7.03102 4.31806 16.9762
19 2 5.74782 3.68746 14.7269
20 2 3.90996 1.36576 9.60056
21 2 4.30998 2.8676 17.1868
22 2 4.08371 3.41317 12.4677
23 2 1.68132 1.79386 12.2537
24 2 7.38567 4.35192 7.39477
25 2 4.60247 2.97219 7.96826
26 2 1.17767 0.225522 10.1592
27 2 4.05444 0.267744 12.4188
28 2 6.53236 3.13286 9.95983
29 2 1.83557 1.61213 7.39247
30 2 4.42182 2.3152 5.37704
31 2 6.66903 3.70762 4.95888
32 2 5.74079 2.50555 2.4648
33 2 3.0262 0.683053 2.75097
34 2 3.18845 3.52645 2.80332
35 2 1.51216 0.969166 4.72738
ITEM: TIMESTEP
16500
ITEM: NUMBER OF ATOMS
35
ITEM: BOX BOUNDS xy xz yz pp pp pp
0.0000000000000000e+00 7.6685730000000003e+00 2.5561910000000001e+00
0.0000000000000000e+00 4.4274529999999999e+00 0.0000000000000000e+00
0.0000000000000000e+00 3.7699264999999997e+01 0.0000000000000000e+00
ITEM: ATOMS id type x y z
1 1 1.82492 0.75622 -0.183219
2 1 5.82411 3.3277 37.5311
3 1 3.31616 2.69655 0.0248761
4 1 4.85562 0.77461 0.601175
5 1 0.223914 0.403201 35.3553
6 1 2.79023 0.651184 35.0679
7 1 6.97976 3.26362 30.7556
8 1 6.52752 2.70012 35.0137
9 1 3.66422 2.74538 32.8486
10 1 5.0424 2.23231 30.636
11 1 4.22022 2.66371 35.5674
12 1 1.9827 0.713073 32.3653
13 1 1.50749 -0.149818 30.3601
14 1 5.8778 3.36694 32.9074
15 1 4.88767 0.666743 32.6376
16 2 2.93984 2.02499 14.7512
17 2 5.43365 0.842289 15.04
18 2 6.66954 4.0679 17.2037
19 2 5.26649 3.48007 14.7813
20 2 4.06946 1.4046 10.1174
21 2 4.31599 2.79523 17.0152
22 2 4.0773 2.76329 12.3614
23 2 1.39924 1.52878 12.3894
24 2 4.68035 0.177147 7.28104
25 2 4.93246 3.37507 7.70142
26 2 1.66162 0.124283 9.85692
27 2 3.99354 0.154398 12.4644
28 2 6.79179 2.87414 9.93707
29 2 2.09237 1.57733 7.39335
30 2 3.89783 2.58098 5.25884
31 2 6.42183 4.00644 4.79113
32 2 5.8441 2.34347 2.29945
33 2 3.40525 0.988214 2.72071
34 2 3.39846 3.56733 2.63812
35 2 1.49777 1.16691 4.74344
ITEM: TIMESTEP
16600
ITEM: NUMBER OF ATOMS
35
ITEM: BOX BOUNDS xy xz yz pp pp pp
0.0000000000000000e+00 7.6685730000000003e+00 2.5561910000000001e+00
0.0000000000000000e+00 4.4274529999999999e+00 0.0000000000000000e+00
0.0000000000000000e+00 3.7699264999999997e+01 0.0000000000000000e+00
ITEM: ATOMS id type x y z
1 1 2.19795 0.681435 37.4499
2 1 5.99395 3.25734 37.5782
3 1 3.50309 3.10375 0.337943
4 1 4.6637 0.921867 -0.24895
5 1 5.28038 0.484824 35.3481
6 1 2.80391 0.40741 34.8138
7 1 1.9155 2.89694 31.2673
8 1 6.67179 2.52675 35.4634
9 1 3.43599 3.12794 32.9201
10 1 4.37279 1.3902 31.1831
11 1 4.01316 3.07437 35.1955
12 1 1.80547 1.09825 32.935
13 1 4.18916 4.41844 31.0548
14 1 5.58328 3.16448 33.0884
15 1 4.66707 0.730491 33.181
16 2 2.73223 2.14729 14.8337
17 2 0.500346 0.437894 15.2357
18 2 6.42271 3.90283 16.8567
19 2 5.44333 3.74597 14.5439
20 2 4.38044 1.58889 9.82426
21 2 3.99542 2.59633 17.1534
22 2 3.96778 2.95672 12.3753
23 2 1.33407 1.15693 12.6215
24 2 5.13593 0.631947 7.45961
25 2 4.84033 3.25064 7.22922
26 2 4.38608 4.30665 10.0839
27 2 6.70566 3.92746 12.4021
28 2 1.7514 2.80313 10.0149
29 2 2.63089 1.85022 7.28841
30 2 3.52304 2.6972 4.85214
31 2 6.11929 3.96438 5.00242
32 2 6.06138 2.36191 2.28711
33 2 3.47806 1.07952 2.42669
34 2 3.69288 4.2102 2.47595
35 2 0.920686 1.06569 4.94302
ITEM: TIMESTEP
16700
ITEM: NUMBER OF ATOMS
35
ITEM: BOX BOUNDS xy xz yz pp pp pp
0.0000000000000000e+00 7.6685730000000003e+00 2.5561910000000001e+00
0.0000000000000000e+00 4.4274529999999999e+00 0.0000000000000000e+00
0.0000000000000000e+00 3.7699264999999997e+01 0.0000000000000000e+00
ITEM: ATOMS id type x y z
1 1 1.92724 1.25348 0.310761
2 1 5.88485 3.37549 0.11135
3 1 3.2656 3.22602 0.221411
4 1 4.78968 0.890522 37.6491
5 1 0.697808 0.330709 35.4525
6 1 2.9602 0.141327 36.0684
7 1 6.57944 2.65603 30.682
8 1 1.94448 2.76654 35.3582
9 1 2.88449 3.57092 33.27
10 1 3.77013 1.148 30.8893
11 1 4.39588 2.18109 35.7857
12 1 1.93595 1.21415 33.4758
13 1 4.5266 4.16478 30.9826
14 1 5.25995 3.16282 33.2137
15 1 4.21369 1.03381 33.2962
16 2 2.78281 1.91628 14.8886
17 2 0.422344 0.663176 15.3691
18 2 6.03398 3.75395 17.0209
19 2 5.49223 3.52463 14.4292
20 2 4.50395 1.31484 9.90812
21 2 3.75324 2.3722 17.1264
22 2 4.13376 2.40571 12.4267
23 2 1.40015 1.19072 12.5337
24 2 0.453707 0.247963 7.55735
25 2 5.21003 3.33784 7.24742
26 2 1.83041 0.0441525 10.0544
27 2 6.77324 4.23529 12
28 2 1.69419 2.89144 9.58317
29 2 2.59074 2.03704 7.30582
30 2 3.28915 2.53215 4.33471
31 2 6.00118 4.17121 4.78451
32 2 6.27348 2.95897 2.67456
33 2 3.84329 1.15357 2.20188
34 2 3.70001 4.39475 2.48623
35 2 5.61707 1.16773 4.95912
ITEM: TIMESTEP
16800
ITEM: NUMBER OF ATOMS
35
ITEM: BOX BOUNDS xy xz yz pp pp pp
0.0000000000000000e+00 7.6685730000000003e+00 2.5561910000000001e+00
0.0000000000000000e+00 4.4274529999999999e+00 0.0000000000000000e+00
0.0000000000000000e+00 3.7699264999999997e+01 0.0000000000000000e+00
ITEM: ATOMS id type x y z
1 1 2.02688 1.21641 0.635532
2 1 5.31083 3.21437 0.249014
3 1 2.98242 3.25957 0.188966
4 1 4.91613 0.99957 37.4816
5 1 0.876827 -0.113825 35.4257
6 1 3.37653 0.543565 35.8365
7 1 6.26101 2.31722 31.4196
8 1 1.74193 2.39419 35.8649
9 1 2.54782 3.15947 32.8715
10 1 3.8282 1.37815 31.0563
11 1 4.71525 2.40122 35.2547
12 1 1.40327 1.28331 33.2814
13 1 3.99737 3.65145 31.4258
14 1 5.61077 3.93443 33.6045
15 1 4.12668 1.44305 33.1319
16 2 2.92998 1.82577 14.555
17 2 0.292304 0.675928 15.4056
18 2 5.77373 3.73831 16.9474
19 2 5.24348 3.32196 14.5578
20 2 4.17163 1.51047 9.59242
21 2 3.57462 2.27081 17.1408
22 2 4.03445 2.51355 12.1779
23 2 1.70828 1.21689 12.2606
24 2 0.279744 0.0924475 7.34984
25 2 5.56631 3.262 7.49282
26 2 1.88652 -0.0389097 9.81706
27 2 6.80777 3.87899 12.341
28 2 1.88293 2.73542 9.73621
29 2 2.951 1.48875 6.89336
30 2 3.11217 2.80335 4.66873
31 2 5.68742 4.45632 5.02294
32 2 6.44306 2.98175 2.65954
33 2 4.19512 1.57927 2.17037
34 2 3.92751 4.52287 2.72762
35 2 5.7924 1.48942 5.03776
ITEM: TIMESTEP
16900
ITEM: NUMBER OF ATOMS
35
ITEM: BOX BOUNDS xy xz yz pp pp pp
0.0000000000000000e+00 7.6685730000000003e+00 2.5561910000000001e+00
0.0000000000000000e+00 4.4274529999999999e+00 0.0000000000000000e+00
0.0000000000000000e+00 3.7699264999999997e+01 0.0000000000000000e+00
ITEM: ATOMS id type x y z
1 1 2.09775 1.05034 0.683713
2 1 5.56929 3.69467 -0.561195
3 1 2.85135 3.42895 0.450468
4 1 4.63294 1.66899 37.6674
5 1 3.03554 4.22026 35.9468
6 1 3.46789 0.498378 35.128
7 1 5.38663 2.10986 31.3399
8 1 1.916 1.87546 35.9609
9 1 2.55054 3.56871 33.4221
10 1 3.68859 0.560967 30.7627
11 1 4.65875 2.60905 35.3801
12 1 1.37439 1.3787 33.706
13 1 4.15708 4.58271 31.4682
14 1 5.2852 3.5416 33.0624
15 1 3.91259 1.63905 33.0817
16 2 2.58158 1.73781 14.5425
17 2 5.50971 0.30576 15.4371
18 2 5.92326 3.91615 16.7145
19 2 4.8905 3.1888 14.2984
20 2 4.45939 1.17662 9.56794
21 2 3.17721 2.21819 16.8913
22 2 4.48489 2.75293 11.6954
23 2 1.44825 0.899687 12.0951
24 2 0.545524 -0.0732843 7.32964
25 2 5.64019 2.78798 7.46542
26 2 4.34003 4.16715 9.48499
27 2 6.9605 4.00217 12.7627
28 2 1.79885 2.81477 10.1615
29 2 3.04721 1.51213 7.32748
30 2 3.13308 3.33422 5.17478
31 2 3.15676 -0.0843433 4.86677
32 2 6.81217 3.10303 2.4958
33 2 4.21633 1.81018 2.51015
34 2 1.66541 0.256904 2.78644
35 2 5.62055 1.74868 5.02703
ITEM: TIMESTEP
17000
ITEM: NUMBER OF ATOMS
35
ITEM: BOX BOUNDS xy xz yz pp pp pp
0.0000000000000000e+00 7.6685730000000003e+00 2.5561910000000001e+00
0.0000000000000000e+00 4.4274529999999999e+00 0.0000000000000000e+00
0.0000000000000000e+00 3.7699264999999997e+01 0.0000000000000000e+00
ITEM: ATOMS id type x y z
1 1 2.01512 1.87213 0.46333
2 1 6.10027 4.03293 0.2207
3 1 3.86371 3.73445 0.567882
4 1 4.78212 1.44801 0.375228
5 1 0.56487 0.289844 35.9053
6 1 5.80665 4.33795 35.14
7 1 4.86165 2.73235 30.3875
8 1 1.87181 2.45305 35.7625
9 1 2.77143 3.96138 33.4964
10 1 6.6052 3.86941 30.8036
11 1 4.28478 2.25767 35.0305
12 1 1.36849 1.68571 33.5492
13 1 1.06105 0.324967 31.3404
14 1 4.93746 3.50978 32.8317
15 1 3.50755 1.43228 32.2652
16 2 2.29009 1.68723 14.2825
17 2 0.412492 0.463018 15.5677
18 2 5.78086 3.64546 16.315
19 2 4.68359 2.78975 14.2578
20 2 4.72434 0.769086 10.007
21 2 3.04273 2.25438 16.7349
22 2 4.28407 2.51309 11.8172
23 2 1.78183 0.952704 12.0388
24 2 0.322677 0.0178249 7.19564
25 2 5.72646 2.79524 7.49943
26 2 4.81784 4.13749 9.61048
27 2 6.89689 4.36972 13.1482
28 2 1.96769 2.60886 10.1825
29 2 3.03875 1.5585 7.47656
30 2 3.04323 2.87789 4.81718
31 2 3.2949 0.362585 5.12366
32 2 6.6264 3.48437 2.48395
33 2 4.25172 1.86899 2.80295
34 2 1.65175 0.330349 2.8797
35 2 5.72475 1.55723 4.97687
ITEM: TIMESTEP
17100
ITEM: NUMBER OF ATOMS
35
ITEM: BOX BOUNDS xy xz yz pp pp pp
0.0000000000000000e+00 7.6685730000000003e+00 2.5561910000000001e+00
0.0000000000000000e+00 4.4274529999999999e+00 0.0000000000000000e+00
0.0000000000000000e+00 3.7699264999999997e+01 0.0000000000000000e+00
ITEM: ATOMS id type x y z
1 1 2.61831 1.75303 0.836669
2 1 6.26979 4.15706 0.105095
3 1 3.62244 3.64759 -0.326339
4 1 5.51542 1.68328 -0.034464
5 1 0.503651 0.802717 35.4643
6 1 5.30899 4.45248 35.5591
7 1 3.51891 2.75898 29.8635
8 1 2.01517 2.81829 35.8228
9 1 2.14639 3.94103 33.4246
10 1 7.06386 3.12358 31.4017
11 1 4.13672 2.09295 34.4555
12 1 1.3862 1.35262 33.1983
13 1 1.32501 0.916551 30.794
14 1 4.97641 3.66321 32.7261
15 1 3.61417 1.53515 32.031
16 2 2.13645 1.7092 14.4934
17 2 5.32724 0.562294 16.0436
18 2 5.69742 3.66971 16.4615
19 2 4.59021 2.67139 14.102
20 2 4.96909 0.861335 9.88919
21 2 3.22628 2.17932 16.8185
22 2 3.7255 2.71997 11.7688
23 2 2.00016 0.74715 12.1517
24 2 2.87259 4.25247 7.29278
25 2 5.52786 3.03323 7.45573
26 2 5.0566 3.82689 9.69598
27 2 6.86512 4.13575 13.2376
28 2 2.24492 2.38789 9.62274
29 2 3.34701 1.59297 7.64602
30 2 3.19787 3.07909 4.87699
31 2 2.96966 -0.179756 5.29355
32 2 6.52701 3.61652 2.77853
33 2 4.33939 1.94244 2.40653
34 2 1.65676 0.700086 2.82593
35 2 5.88817 1.69759 5.34643
ITEM: TIMESTEP
17200
ITEM: NUMBER OF ATOMS
35
ITEM: BOX BOUNDS xy xz yz pp pp pp
0.0000000000000000e+00 7.6685730000000003e+00 2.5561910000000001e+00
0.0000000000000000e+00 4.4274529999999999e+00 0.0000000000000000e+00
0.0000000000000000e+00 3.7699264999999997e+01 0.0000000000000000e+00
ITEM: ATOMS id type x y z
1 1 2.72289 1.76166 0.0308479
2 1 6.64425 4.20561 0.364968
3 1 4.03918 4.1387 37.6018
4 1 5.1121 2.03483 37.6575
5 1 5.14708 0.901892 35.7191
6 1 2.59648 0.199924 35.0199
7 1 3.23858 2.82141 30.0034
8 1 1.90423 2.51134 35.7516
9 1 7.00989 3.95092 33.726
10 1 6.57177 3.11036 31.4576
11 1 3.68017 2.55686 34.1888
12 1 1.30392 1.74331 33.5075
13 1 1.16495 0.742032 30.4603
14 1 4.37452 3.76 31.9912
15 1 4.51059 1.10628 31.662
16 2 2.08358 1.50117 14.969
17 2 0.296024 0.332386 16.3634
18 2 5.48417 3.70135 16.7132
19 2 4.54152 2.78116 14.2457
20 2 5.02099 0.789778 10.2212
21 2 3.30739 2.17426 17.1271
22 2 3.64206 2.43659 11.6993
23 2 1.51084 1.00079 12.3388
24 2 3.38869 4.29407 7.75007
25 2 5.75436 2.86168 7.40105
26 2 4.98221 4.06469 10.1127
27 2 6.97451 4.14008 13.0427
28 2 2.16594 2.42071 9.43814
29 2 3.30471 1.1671 6.99977
30 2 3.27132 2.95423 4.93658
31 2 3.21003 0.252957 4.65851
32 2 7.02705 3.54014 2.74761
33 2 4.44535 2.39964 2.52086
34 2 1.58611 0.65755 2.43193
35 2 5.64235 1.28774 5.04408
ITEM: TIMESTEP
17300
ITEM: NUMBER OF ATOMS
35
ITEM: BOX BOUNDS xy xz yz pp pp pp
0.0000000000000000e+00 7.6685730000000003e+00 2.5561910000000001e+00
0.0000000000000000e+00 4.4274529999999999e+00 0.0000000000000000e+00
0.0000000000000000e+00 3.7699264999999997e+01 0.0000000000000000e+00
ITEM: ATOMS id type x y z
1 1 3.12259 2.3251 0.166005
2 1 6.6435 4.43431 0.163507
3 1 4.11712 4.39242 37.1416
4 1 5.68846 2.36637 38.0349
5 1 4.58392 0.667755 35.6731
6 1 2.03294 0.153227 35.0842
7 1 3.21956 2.49957 30.1485
8 1 1.27873 2.90264 35.5401
9 1 6.63039 4.43395 33.4813
10 1 6.06842 3.00966 31.2905
11 1 3.93507 2.39712 34.2405
12 1 1.03037 1.60768 33.2772
13 1 1.64318 0.964989 29.7892
14 1 3.77229 3.98051 32.4759
15 1 4.44835 1.16086 31.5091
16 2 2.45263 1.51132 14.9588
17 2 0.154574 0.228748 16.2713
18 2 5.49566 3.47454 16.7857
19 2 4.49645 2.95721 14.6154
20 2 4.98019 0.820559 9.91947
21 2 3.10254 1.95058 17.5502
22 2 3.72442 2.37527 12.2499
23 2 1.06256 1.35628 12.6324
24 2 3.61159 4.38013 7.75949
25 2 5.97125 2.58393 6.88446
26 2 5.09384 4.14031 10.4747
27 2 6.38846 4.14228 13.385
28 2 2.37514 2.35125 9.56086
29 2 3.4891 0.990127 7.26502
30 2 3.11818 2.92317 5.33232
31 2 3.11671 0.17245 4.08626
32 2 7.26542 3.402 2.3496
33 2 4.59638 2.2701 2.60751
34 2 1.90419 0.848929 1.92939
35 2 5.87406 1.26399 4.53963
ITEM: TIMESTEP
17400
ITEM: NUMBER OF ATOMS
35
ITEM: BOX BOUNDS xy xz yz pp pp pp
0.0000000000000000e+00 7.6685730000000003e+00 2.5561910000000001e+00
0.0000000000000000e+00 4.4274529999999999e+00 0.0000000000000000e+00
0.0000000000000000e+00 3.7699264999999997e+01 0.0000000000000000e+00
ITEM: ATOMS id type x y z
1 1 3.29659 2.77309 -0.190881
2 1 4.45362 0.510387 0.253743
3 1 4.33427 4.89741 36.5912
4 1 6.06288 2.58562 -0.149384
5 1 4.54627 0.741503 35.6271
6 1 1.55169 0.463154 34.4412
7 1 2.97413 3.09949 30.3058
8 1 5.86279 2.69734 35.0984
9 1 6.08671 4.46348 33.0916
10 1 5.60809 3.41743 30.8125
11 1 3.19106 2.46929 34.3845
12 1 1.48118 2.05269 32.5461
13 1 1.69268 0.750602 30.5506
14 1 3.59426 3.71963 32.3842
15 1 4.48282 1.01543 31.2047
16 2 2.14721 1.57583 15.2229
17 2 5.16592 0.478696 15.9055
18 2 5.78582 3.20924 17.3053
19 2 4.2269 3.02493 14.9643
20 2 5.22548 1.22141 9.81177
21 2 2.81344 1.66053 17.5663
22 2 3.20638 2.66791 12.275
23 2 0.936522 1.319 12.723
24 2 3.80058 3.91734 7.64213
25 2 6.02155 2.64052 7.03975
26 2 5.13332 3.66619 10.6318
27 2 6.42498 4.24028 13.6161
28 2 2.48902 2.56345 9.7288
29 2 3.98975 0.892486 7.34459
30 2 3.21485 3.01673 5.19634
31 2 3.23381 -0.332068 4.55364
32 2 2.24925 3.5575 2.26891
33 2 4.66744 2.05137 2.32333
34 2 1.99317 0.52521 1.55085
35 2 0.980614 1.26756 4.66888
ITEM: TIMESTEP
17500
ITEM: NUMBER OF ATOMS
35
ITEM: BOX BOUNDS xy xz yz pp pp pp
0.0000000000000000e+00 7.6685730000000003e+00 2.5561910000000001e+00
0.0000000000000000e+00 4.4274529999999999e+00 0.0000000000000000e+00
0.0000000000000000e+00 3.7699264999999997e+01 0.0000000000000000e+00
ITEM: ATOMS id type x y z
1 1 3.61494 2.88255 37.2067
2 1 5.23641 0.75536 37.4195
3 1 2.36688 0.914579 36.5677
4 1 5.8332 3.30083 0.112372
5 1 4.16396 0.28998 34.9813
6 1 1.04603 0.771398 33.9932
7 1 2.66312 3.38358 30.1213
8 1 4.8875 3.15868 34.3222
9 1 3.36196 0.872409 32.8032
10 1 5.40909 3.10747 30.0493
11 1 2.65767 2.71889 34.9586
12 1 6.46402 2.80368 32.6412
13 1 1.8802 0.748586 30.1502
14 1 3.86414 3.04326 32.1991
15 1 4.45521 1.22489 30.7496
16 2 1.73438 1.76335 14.992
17 2 4.58482 0.350403 16.2881
18 2 5.62785 3.15337 17.3223
19 2 4.35794 3.13294 15.0046
20 2 5.1292 1.1648 10.0336
21 2 2.869 1.57683 17.5898
22 2 2.99624 2.74625 12.2094
23 2 0.807793 1.06775 12.5666
24 2 4.21785 3.95887 7.84788
25 2 1.48652 2.33786 7.54856
26 2 5.59833 4.27372 10.6246
27 2 6.26844 4.4362 13.6963
28 2 2.61991 2.48803 9.62977
29 2 3.96168 0.800349 7.28767
30 2 3.61042 2.55698 4.70289
31 2 5.98247 3.99824 4.94213
32 2 2.2129 3.39229 2.62151
33 2 4.54344 1.89435 2.21671
34 2 2.13217 0.279897 1.91727
35 2 0.870166 1.10426 4.72831
ITEM: TIMESTEP
17600
ITEM: NUMBER OF ATOMS
35
ITEM: BOX BOUNDS xy xz yz pp pp pp
0.0000000000000000e+00 7.6685730000000003e+00 2.5561910000000001e+00
0.0000000000000000e+00 4.4274529999999999e+00 0.0000000000000000e+00
0.0000000000000000e+00 3.7699264999999997e+01 0.0000000000000000e+00
ITEM: ATOMS id type x y z
1 1 3.82681 2.9641 37.873
2 1 5.11824 1.21168 37.4536
3 1 2.33093 0.611966 36.9971
4 1 6.73182 3.32562 -0.0338711
5 1 3.71745 0.771385 34.9726
6 1 0.454423 1.22602 33.3784
7 1 3.31314 2.93723 29.6978
8 1 4.36498 3.29807 35.0399
9 1 2.71586 1.26792 32.469
10 1 5.54189 3.09832 29.6594
11 1 1.61555 2.36915 35.2781
12 1 6.96109 3.52545 31.9643
13 1 1.7295 1.21485 30.4481
14 1 4.39823 3.49733 31.8264
15 1 4.0847 0.910426 30.5
16 2 1.50937 1.87616 14.9993
17 2 4.9273 0.172258 16.3431
18 2 4.89206 2.78916 17.3703
19 2 3.95143 3.1856 14.7894
20 2 5.5658 1.30115 9.81722
21 2 2.46168 1.86771 17.261
22 2 3.40349 2.8174 12.3795
23 2 0.774033 1.36368 12.4956
24 2 4.32927 3.85646 7.86487
25 2 1.72393 2.0859 6.90799
26 2 5.4863 4.22836 10.8715
27 2 3.56165 0.183314 13.6415
28 2 2.94385 2.54764 9.70552
29 2 4.3178 0.893556 7.62213
30 2 3.74095 2.24594 4.87566
31 2 5.99064 3.99855 4.95294
32 2 1.87099 3.17079 2.47296
33 2 4.72859 1.50975 2.27676
34 2 2.18779 0.459716 2.53435
35 2 1.03946 0.704899 4.85211
ITEM: TIMESTEP
17700
ITEM: NUMBER OF ATOMS
35
ITEM: BOX BOUNDS xy xz yz pp pp pp
0.0000000000000000e+00 7.6685730000000003e+00 2.5561910000000001e+00
0.0000000000000000e+00 4.4274529999999999e+00 0.0000000000000000e+00
0.0000000000000000e+00 3.7699264999999997e+01 0.0000000000000000e+00
ITEM: ATOMS id type x y z
1 1 3.772 3.24653 0.845604
2 1 5.21822 0.663661 37.3558
3 1 2.94858 1.2145 0.275552
4 1 6.29616 3.13565 0.115852
5 1 3.48612 1.10368 35.2315
6 1 4.90304 1.36872 32.484
7 1 3.05634 3.08692 29.4903
8 1 3.91626 3.75471 35.7189
9 1 2.28298 1.73301 33.0987
10 1 5.92885 3.4978 29.8446
11 1 6.09992 2.0742 35.2451
12 1 2.33949 3.4604 31.6684
13 1 1.47884 1.05183 30.7523
14 1 4.96624 3.70859 32.1646
15 1 4.11637 1.2432 30.2654
16 2 6.19957 2.03855 14.7649
17 2 4.71517 0.195268 16.5876
18 2 4.58843 2.96996 17.2651
19 2 3.7913 3.05882 14.844
20 2 0.828742 1.38609 9.80849
21 2 1.98327 1.6442 17.288
22 2 3.45301 2.96827 12.0252
23 2 5.96162 1.6695 12.2282
24 2 4.72639 3.63064 7.5924
25 2 1.93178 2.26617 6.83719
26 2 5.81117 4.12213 10.9106
27 2 3.74187 0.23915 13.6481
28 2 3.00493 2.78213 9.54105
29 2 4.45132 0.531875 7.65848
30 2 3.8446 2.2709 4.91554
31 2 6.0506 3.81925 4.8667
32 2 2.00035 2.93983 2.53058
33 2 4.82011 1.33156 2.43963
34 2 2.3185 0.196964 2.51965
35 2 0.720107 0.454392 4.90881
ITEM: TIMESTEP
17800
ITEM: NUMBER OF ATOMS
35
ITEM: BOX BOUNDS xy xz yz pp pp pp
0.0000000000000000e+00 7.6685730000000003e+00 2.5561910000000001e+00
0.0000000000000000e+00 4.4274529999999999e+00 0.0000000000000000e+00
0.0000000000000000e+00 3.7699264999999997e+01 0.0000000000000000e+00
ITEM: ATOMS id type x y z
1 1 3.92228 3.42647 0.436041
2 1 4.88802 0.937551 0.137096
3 1 2.40834 1.00813 0.431221
4 1 6.41222 2.86012 0.002372
5 1 3.27265 1.08137 36.0392
6 1 4.54619 1.42432 32.7204
7 1 2.92179 4.41237 29.3169
8 1 3.72911 3.88713 35.4826
9 1 2.00591 1.58053 33.4527
10 1 5.33304 3.38267 30.3219
11 1 5.25919 1.98479 35.5153
12 1 2.96748 3.35847 31.8933
13 1 1.77177 1.15787 30.795
14 1 5.755 3.99978 32.8474
15 1 4.07865 1.4653 30.3145
16 2 6.14877 1.99776 14.8653
17 2 4.0686 0.319705 16.6792
18 2 4.60285 3.24426 17.3122
19 2 3.44907 3.19945 14.6665
20 2 0.803348 1.22828 9.45981
21 2 1.69649 1.27986 17.1614
22 2 3.36912 3.08991 11.9883
23 2 1.10688 1.63899 12.2961
24 2 4.87418 3.41988 7.34071
25 2 2.22485 1.85841 7.17209
26 2 3.70158 0.260718 10.3622
27 2 3.59202 0.291461 13.6442
28 2 3.34118 2.92949 9.2833
29 2 4.63702 0.487716 7.37529
30 2 3.57974 2.04139 4.74889
31 2 5.93475 3.67684 5.01362
32 2 2.32519 2.75228 2.72355
33 2 4.98092 1.28054 2.39926
34 2 4.87618 4.29528 2.60582
35 2 1.05778 0.653267 5.08182
ITEM: TIMESTEP
17900
ITEM: NUMBER OF ATOMS
35
ITEM: BOX BOUNDS xy xz yz pp pp pp
0.0000000000000000e+00 7.6685730000000003e+00 2.5561910000000001e+00
0.0000000000000000e+00 4.4274529999999999e+00 0.0000000000000000e+00
0.0000000000000000e+00 3.7699264999999997e+01 0.0000000000000000e+00
ITEM: ATOMS id type x y z
1 1 3.83347 3.01542 -0.0284492
2 1 4.66458 0.907722 37.7768
3 1 1.79077 0.824299 0.508812
4 1 6.06014 3.46938 37.0659
5 1 2.38265 0.752742 35.7167
6 1 4.60178 1.59893 33.4977
7 1 0.646027 0.533206 29.6365
8 1 3.07033 3.8654 34.4601
9 1 2.17479 1.45803 33.6684
10 1 5.62962 3.73466 31.1891
11 1 5.25426 2.27574 35.4843
12 1 3.43703 3.89844 32.1116
13 1 1.15493 1.75125 31.7222
14 1 6.16231 3.70358 33.6899
15 1 3.6673 1.53527 31.1561
16 2 5.85316 1.94474 14.7354
17 2 3.86473 0.32125 16.0706
18 2 4.13409 2.7654 17.1262
19 2 3.23169 3.59095 14.8562
20 2 1.23301 1.66103 9.6865
21 2 1.54763 1.62704 17.2724
22 2 3.72718 3.41243 12.0975
23 2 1.26567 1.65555 12.1509
24 2 4.87284 3.12937 7.33739
25 2 2.48626 1.41794 7.36373
26 2 3.35192 0.135407 10.1914
27 2 3.31074 0.332941 13.3867
28 2 3.55315 2.93773 9.63972
29 2 4.97502 0.405636 7.05458
30 2 3.6158 2.05679 4.93783
31 2 6.49482 3.33278 4.92063
32 2 2.40464 2.87851 2.2299
33 2 5.09021 1.27181 2.74664
34 2 4.91926 3.84783 2.71838
35 2 1.20616 0.593623 4.76133
ITEM: TIMESTEP
18000
ITEM: NUMBER OF ATOMS
35
ITEM: BOX BOUNDS xy xz yz pp pp pp
0.0000000000000000e+00 7.6685730000000003e+00 2.5561910000000001e+00
0.0000000000000000e+00 4.4274529999999999e+00 0.0000000000000000e+00
0.0000000000000000e+00 3.7699264999999997e+01 0.0000000000000000e+00
ITEM: ATOMS id type x y z
1 1 3.20676 3.17612 37.078
2 1 4.37248 1.0223 -0.0236013
3 1 1.95287 0.927851 0.600628
4 1 6.05105 3.06384 37.7933
5 1 2.0804 0.705259 35.9891
6 1 4.48813 1.20289 33.5466
7 1 1.02682 0.456387 30.3146
8 1 3.30036 3.28415 34.979
9 1 1.90857 1.64174 33.7977
10 1 5.63857 4.70382 31.4536
11 1 5.19349 1.83348 35.8858
12 1 2.86551 4.12586 32.5164
13 1 6.05975 2.57539 31.8801
14 1 5.33415 3.45603 33.9768
15 1 3.56325 2.33812 31.4007
16 2 5.50685 2.02931 14.6263
17 2 3.23534 0.222994 15.8001
18 2 3.78828 2.72382 17.1601
19 2 3.32999 3.6314 14.7206
20 2 0.767491 1.65874 9.47196
21 2 1.29375 1.7371 17.0288
22 2 3.82746 3.46671 12.304
23 2 1.22595 2.07152 12.236
24 2 5.21065 2.93655 7.27833
25 2 2.64202 1.36079 7.48593
26 2 6.28523 4.34633 10.4108
27 2 3.58994 0.575243 13.0227
28 2 3.6547 3.18612 9.69569
29 2 0.139269 -0.251221 7.47889
30 2 4.19648 1.97999 4.93437
31 2 6.62146 3.35143 4.7662
32 2 2.61242 2.88554 2.08665
33 2 4.80167 1.09533 2.47965
34 2 5.26675 3.98395 2.31335
35 2 1.49925 0.336948 4.74265
ITEM: TIMESTEP
18100
ITEM: NUMBER OF ATOMS
35
ITEM: BOX BOUNDS xy xz yz pp pp pp
0.0000000000000000e+00 7.6685730000000003e+00 2.5561910000000001e+00
0.0000000000000000e+00 4.4274529999999999e+00 0.0000000000000000e+00
0.0000000000000000e+00 3.7699264999999997e+01 0.0000000000000000e+00
ITEM: ATOMS id type x y z
1 1 2.85799 3.03162 37.9019
2 1 3.67065 0.632285 38.088
3 1 1.34333 0.828365 0.217326
4 1 5.44302 2.89777 0.0579561
5 1 2.93776 0.230424 35.8105
6 1 3.80692 1.42509 33.9007
7 1 0.609315 0.744436 30.6087
8 1 2.58889 3.39024 35.3718
9 1 1.11257 1.52232 33.4319
10 1 2.84035 0.896167 31.967
11 1 5.60922 1.83316 35.7187
12 1 2.92888 3.94054 32.9085
13 1 6.38196 2.74159 31.3401
14 1 5.24213 3.60115 33.6426
15 1 4.04061 2.83557 30.7193
16 2 5.4943 2.11596 14.3624
17 2 3.04271 0.321155 15.8475
18 2 3.70052 3.00921 17.2006
19 2 2.80548 3.47539 14.8156
20 2 5.9616 1.41137 9.42754
21 2 0.85063 1.489 16.9614
22 2 3.91401 3.73308 12.1711
23 2 1.42189 2.22208 11.8347
24 2 5.49835 2.71783 7.06657
25 2 3.0242 1.05256 7.46522
26 2 3.68841 0.32373 10.3622
27 2 3.69415 0.814775 13.1155
28 2 3.65295 2.99425 9.69451
29 2 2.69809 3.94544 7.26911
30 2 4.15966 1.7033 4.95969
31 2 6.79357 3.33675 4.78435
32 2 2.93874 2.67464 2.64507
33 2 5.31636 1.21573 2.40182
34 2 5.26828 4.11245 2.59528
35 2 1.76239 0.49663 4.88851
ITEM: TIMESTEP
18200
ITEM: NUMBER OF ATOMS
35
ITEM: BOX BOUNDS xy xz yz pp pp pp
0.0000000000000000e+00 7.6685730000000003e+00 2.5561910000000001e+00
0.0000000000000000e+00 4.4274529999999999e+00 0.0000000000000000e+00
0.0000000000000000e+00 3.7699264999999997e+01 0.0000000000000000e+00
ITEM: ATOMS id type x y z
1 1 1.84485 2.6517 0.368093
2 1 4.1733 0.612353 0.673163
3 1 1.17607 0.525333 -0.00986304
4 1 4.43398 2.7859 0.303418
5 1 2.66683 0.163764 35.8189
6 1 3.59888 1.76326 34.4711
7 1 5.15561 0.778992 31.1801
8 1 2.8962 3.68188 35.8727
9 1 1.11599 1.33501 32.9626
10 1 2.66704 1.00787 31.1339
11 1 5.99755 1.74394 35.4189
12 1 2.52199 3.34865 33.2093
13 1 6.52648 3.21434 30.4957
14 1 5.20125 4.14128 33.1825
15 1 4.19807 3.27707 31.1024
16 2 5.44645 2.10339 14.22
17 2 3.09722 0.457045 15.9451
18 2 3.52765 3.19932 17.0506
19 2 2.61791 3.32867 14.7617
20 2 1.30752 1.32009 9.17036
21 2 5.67932 1.45112 16.8953
22 2 3.75176 4.195 12.3098
23 2 1.43888 2.51489 11.6766
24 2 5.37719 2.41151 7.16367
25 2 3.19425 0.731202 7.51638
26 2 3.54321 0.161943 10.2649
27 2 3.43956 0.859336 13.1193
28 2 3.86834 2.89281 9.45197
29 2 3.13288 3.94127 7.22823
30 2 4.22375 1.77466 4.86304
31 2 6.82108 3.38115 5.01961
32 2 3.04156 2.50107 2.66649
33 2 5.89508 1.18338 2.62379
34 2 5.53509 4.07842 2.80762
35 2 1.57354 0.510273 5.15055
ITEM: TIMESTEP
18300
ITEM: NUMBER OF ATOMS
35
ITEM: BOX BOUNDS xy xz yz pp pp pp
0.0000000000000000e+00 7.6685730000000003e+00 2.5561910000000001e+00
0.0000000000000000e+00 4.4274529999999999e+00 0.0000000000000000e+00
0.0000000000000000e+00 3.7699264999999997e+01 0.0000000000000000e+00
ITEM: ATOMS id type x y z
1 1 1.60205 2.67039 -0.0335696
2 1 3.47298 0.51686 0.423324
3 1 1.21271 0.45024 0.40197
4 1 4.05186 2.51525 -0.171734
5 1 2.79196 -0.263887 35.8801
6 1 4.07601 1.57275 34.7556
7 1 4.60182 0.983696 31.1488
8 1 2.75541 3.76447 35.8036
9 1 0.953572 1.67781 32.915
10 1 2.46897 1.34145 30.8222
11 1 6.28806 2.10809 35.6075
12 1 2.84384 3.76865 33.5733
13 1 6.00187 3.16066 30.1251
14 1 5.38422 4.48261 33.1861
15 1 3.864 3.22452 31.7118
16 2 5.26297 2.11107 14.2698
17 2 2.96595 0.374448 15.9294
18 2 3.32338 3.16912 17.0627
19 2 2.96438 3.52334 14.4916
20 2 1.36318 1.31974 9.63802
21 2 5.75351 1.81131 16.6836
22 2 3.31593 4.2865 11.9586
23 2 6.27476 2.52102 12.1411
24 2 5.58876 2.41519 7.26229
25 2 3.28313 0.772858 7.36059
26 2 4.03924 -0.0724312 9.8324
27 2 3.16248 0.931353 12.8743
28 2 4.19856 2.80828 10.1652
29 2 2.90502 3.53334 7.61358
30 2 4.26237 1.95225 4.86534
31 2 6.92902 3.34668 5.05733
32 2 3.23287 2.82834 2.4197
33 2 0.598203 0.983532 2.6442
34 2 5.84861 3.72374 2.67277
35 2 1.8737 0.325987 4.97437
ITEM: TIMESTEP
18400
ITEM: NUMBER OF ATOMS
35
ITEM: BOX BOUNDS xy xz yz pp pp pp
0.0000000000000000e+00 7.6685730000000003e+00 2.5561910000000001e+00
0.0000000000000000e+00 4.4274529999999999e+00 0.0000000000000000e+00
0.0000000000000000e+00 3.7699264999999997e+01 0.0000000000000000e+00
ITEM: ATOMS id type x y z
1 1 1.77812 2.51249 0.231073
2 1 3.2104 0.774541 0.292408
3 1 0.816885 0.331344 0.565812
4 1 4.69744 2.24111 36.5788
5 1 5.42843 4.0931 35.5615
6 1 4.23996 1.92243 34.0933
7 1 4.7866 0.344738 31.4923
8 1 2.38962 4.43533 35.9134
9 1 5.97294 2.75253 32.9153
10 1 1.5979 1.1905 31.0704
11 1 1.61851 1.87182 34.8861
12 1 3.15074 4.06023 33.7321
13 1 5.61681 3.65012 30.722
14 1 2.88791 0.418283 33.0796
15 1 3.23061 2.80569 31.7769
16 2 5.08245 2.2184 14.5684
17 2 2.97511 0.437151 15.6293
18 2 3.13006 3.16587 16.9491
19 2 2.81929 3.87168 14.5375
20 2 2.00283 1.28114 9.95099
21 2 5.99165 2.01308 16.9424
22 2 2.99149 4.32044 12.0525
23 2 6.12462 2.91787 12.0339
24 2 5.63833 2.08623 7.55349
25 2 2.9862 0.912112 7.24941
26 2 6.78344 4.22811 9.53505
27 2 2.93929 0.841607 12.6392
28 2 4.13292 2.12006 10.532
29 2 3.38207 3.58828 7.66826
30 2 4.41189 1.77999 4.92903
31 2 2.09466 3.23494 4.91466
32 2 3.26798 2.34691 2.40453
33 2 5.53123 1.12096 2.75105
34 2 5.70283 3.92934 2.51257
35 2 2.04626 0.176477 4.89264
ITEM: TIMESTEP
18500
ITEM: NUMBER OF ATOMS
35
ITEM: BOX BOUNDS xy xz yz pp pp pp
0.0000000000000000e+00 7.6685730000000003e+00 2.5561910000000001e+00
0.0000000000000000e+00 4.4274529999999999e+00 0.0000000000000000e+00
0.0000000000000000e+00 3.7699264999999997e+01 0.0000000000000000e+00
ITEM: ATOMS id type x y z
1 1 1.51975 3.12116 0.0121509
2 1 2.77266 0.640146 -0.178039
3 1 0.983319 -0.627659 0.67482
4 1 4.51852 2.191 36.7893
5 1 5.29443 4.12644 35.042
6 1 4.40438 2.00946 34.0983
7 1 4.33966 0.775651 31.7304
8 1 5.65919 -0.159149 36.1794
9 1 6.28032 2.96655 32.7802
10 1 1.22266 1.25879 30.4519
11 1 2.16787 2.36808 35.3092
12 1 2.7166 4.43824 33.842
13 1 5.04047 3.51709 30.6914
14 1 2.174 0.876061 32.8173
15 1 3.35471 2.78709 31.5244
16 2 5.11388 2.41893 14.4
17 2 2.83713 0.86005 15.685
18 2 3.45224 3.33367 16.9785
19 2 2.40994 3.85685 14.6873
20 2 1.71122 0.667501 9.80399
21 2 5.80471 1.80256 16.929
22 2 3.30256 4.49166 12.0696
23 2 5.92395 2.91513 12.1128
24 2 5.80574 1.94656 7.65343
25 2 3.49875 0.783068 7.28796
26 2 6.73017 3.54044 9.43496
27 2 2.878 1.45136 13.1457
28 2 4.2319 2.46027 10.1585
29 2 3.60329 3.66471 7.44501
30 2 4.73358 1.56261 5.26309
31 2 1.9108 3.08216 5.05219
32 2 3.20977 2.25744 2.56754
33 2 5.94749 1.10405 2.66128
34 2 5.59134 3.8944 2.38991
35 2 1.87561 0.0364497 4.9229
ITEM: TIMESTEP
18600
ITEM: NUMBER OF ATOMS
35
ITEM: BOX BOUNDS xy xz yz pp pp pp
0.0000000000000000e+00 7.6685730000000003e+00 2.5561910000000001e+00
0.0000000000000000e+00 4.4274529999999999e+00 0.0000000000000000e+00
0.0000000000000000e+00 3.7699264999999997e+01 0.0000000000000000e+00
ITEM: ATOMS id type x y z
1 1 6.4264 3.05861 0.129583
2 1 2.7597 0.965009 37.9931
3 1 3.84999 3.40286 0.716958
4 1 4.44922 2.38788 36.5597
5 1 5.85423 4.34565 35.5599
6 1 4.11797 2.20347 34.3603
7 1 4.18353 1.5142 31.3783
8 1 2.92803 4.78751 36.3267
9 1 5.31756 2.86349 32.6105
10 1 1.26558 1.48223 30.2663
11 1 1.92182 2.02236 35.4584
12 1 2.86227 3.89226 33.8154
13 1 5.67513 3.86234 30.1206
14 1 1.97374 0.554893 32.4767
15 1 2.68242 3.57525 31.4566
16 2 5.04032 2.83582 14.5118
17 2 2.75672 0.914507 16.1065
18 2 3.66227 3.52605 17.1174
19 2 2.31185 3.93038 14.8615
20 2 1.59474 0.53608 9.76107
21 2 5.46147 1.83144 16.8335
22 2 0.67064 0.114613 12.466
23 2 5.90408 3.23829 11.8189
24 2 6.27075 2.0175 7.31671
25 2 3.624 0.589544 7.60724
26 2 6.95014 3.50209 9.68713
27 2 3.09572 1.65493 12.9916
28 2 4.022 1.86078 9.74705
29 2 3.40059 3.36622 7.21807
30 2 4.68901 1.42006 4.71522
31 2 1.94284 2.94333 5.08232
32 2 3.16684 2.19545 3.08173
33 2 0.601912 0.950612 2.18898
34 2 6.08041 3.70497 2.58781
35 2 2.11137 -0.0533059 5.03072
ITEM: TIMESTEP
18700
ITEM: NUMBER OF ATOMS
35
ITEM: BOX BOUNDS xy xz yz pp pp pp
0.0000000000000000e+00 7.6685730000000003e+00 2.5561910000000001e+00
0.0000000000000000e+00 4.4274529999999999e+00 0.0000000000000000e+00
0.0000000000000000e+00 3.7699264999999997e+01 0.0000000000000000e+00
ITEM: ATOMS id type x y z
1 1 6.61859 2.85935 0.139885
2 1 3.45403 0.769974 0.377501
3 1 4.30983 3.42957 0.843558
4 1 4.244 2.13293 36.3953
5 1 2.79687 0.0559283 35.6128
6 1 3.90962 1.36799 33.7145
7 1 3.75287 1.79094 31.0449
8 1 0.58743 0.0623175 36.5242
9 1 6.08803 3.16656 32.6906
10 1 1.35055 1.69353 30.4162
11 1 1.30039 2.11786 34.8422
12 1 2.77473 3.96014 33.8326
13 1 5.26984 3.98443 30.4022
14 1 2.01958 1.05137 32.9089
15 1 2.59233 4.31392 31.1455
16 2 4.86533 3.03239 14.4721
17 2 2.91285 0.981708 16.0359
18 2 3.09033 3.70033 17.4613
19 2 7.51867 4.1666 15.0105
20 2 1.68446 0.67008 9.9291
21 2 5.62258 2.04024 16.9448
22 2 0.482612 0.391825 12.4817
23 2 5.4895 3.31672 12.0219
24 2 6.01365 1.71767 7.38324
25 2 3.49333 0.255836 7.22447
26 2 2.12861 3.2255 9.6193
27 2 3.03612 1.51858 12.5516
28 2 4.33119 1.59259 10.2836
29 2 3.82404 3.39579 7.29832
30 2 5.05646 1.11594 4.88722
31 2 2.13137 2.87163 5.14681
32 2 3.02023 2.10429 2.74412
33 2 5.66694 0.985388 1.85298
34 2 5.91844 3.7553 2.73826
35 2 4.76994 4.42481 4.86826
ITEM: TIMESTEP
18800
ITEM: NUMBER OF ATOMS
35
ITEM: BOX BOUNDS xy xz yz pp pp pp
0.0000000000000000e+00 7.6685730000000003e+00 2.5561910000000001e+00
0.0000000000000000e+00 4.4274529999999999e+00 0.0000000000000000e+00
0.0000000000000000e+00 3.7699264999999997e+01 0.0000000000000000e+00
ITEM: ATOMS id type x y z
1 1 2.07005 2.13684 37.3506
2 1 3.63426 0.214179 37.5478
3 1 4.21622 2.7203 0.068077
4 1 3.93034 1.93178 35.7462
5 1 2.72189 0.294968 34.6601
6 1 4.70011 1.51386 33.0995
7 1 3.49966 2.19985 31.1823
8 1 0.517638 0.109305 36.5569
9 1 6.02443 3.59311 32.9111
10 1 6.37809 2.63045 30.6312
11 1 6.43101 2.46988 35.0087
12 1 3.27175 3.38941 34.3055
13 1 4.8362 4.53181 30.8462
14 1 1.57107 0.890935 32.8922
15 1 -0.279683 -0.119735 31.3981
16 2 4.69185 2.91191 14.6924
17 2 2.72549 1.17792 16.0068
18 2 2.6921 3.8265 17.3758
19 2 2.28158 4.20614 14.7924
20 2 2.22591 0.151764 10.0805
21 2 5.71525 2.61819 16.9496
22 2 0.290416 0.411042 12.3052
23 2 5.74824 3.36961 12.0804
24 2 6.04533 1.33136 7.84955
25 2 3.65212 0.35025 7.19116
26 2 2.13869 3.16623 9.69715
27 2 2.67348 1.89502 13.0327
28 2 4.55836 1.73548 9.95538
29 2 3.82213 3.04915 7.64687
30 2 4.82433 1.58058 4.72916
31 2 2.45968 2.51954 5.48911
32 2 3.16038 2.24056 2.60709
33 2 0.717477 0.862645 1.99065
34 2 5.83861 3.60679 2.43622
35 2 4.6062 4.19017 4.77965
ITEM: TIMESTEP
18900
ITEM: NUMBER OF ATOMS
35
ITEM: BOX BOUNDS xy xz yz pp pp pp
0.0000000000000000e+00 7.6685730000000003e+00 2.5561910000000001e+00
0.0000000000000000e+00 4.4274529999999999e+00 0.0000000000000000e+00
0.0000000000000000e+00 3.7699264999999997e+01 0.0000000000000000e+00
ITEM: ATOMS id type x y z
1 1 1.85263 1.64121 37.9887
2 1 6.15001 4.32205 -0.10204
3 1 4.66029 2.07282 0.544592
4 1 4.65978 1.91408 35.8893
5 1 2.61956 -0.0389 34.9218
6 1 4.03553 1.63217 33.661
7 1 3.53004 3.09498 31.2858
8 1 0.88179 -0.258401 36.2708
9 1 5.63708 3.34716 32.7395
10 1 5.53366 2.57183 30.6101
11 1 1.61282 2.58863 35.1866
12 1 3.16637 4.28456 33.0822
13 1 2.25423 0.470489 30.2107
14 1 2.13917 1.46808 32.5542
15 1 4.83932 0.481882 31.0073
16 2 4.74325 2.83367 14.5419
17 2 2.30886 1.37516 16.0592
18 2 3.11526 4.34406 16.9752
19 2 7.02164 4.57585 14.7594
20 2 2.34917 0.0903762 10.0547
21 2 5.10871 2.70987 17.1391
22 2 0.512683 0.514562 12.1097
23 2 5.72288 3.49792 12.3961
24 2 1.58227 1.33457 7.75672
25 2 3.78668 -0.147617 7.29679
26 2 2.17535 3.17455 10.0296
27 2 2.60719 1.69582 13.3924
28 2 4.57652 1.50398 9.94742
29 2 3.91763 2.85675 7.64122
30 2 4.73127 1.29077 4.58166
31 2 1.92688 2.66394 5.29842
32 2 3.25144 2.19987 2.48516
33 2 0.863012 0.288417 1.97993
34 2 6.03894 3.62557 2.63067
35 2 4.51073 4.3915 4.84232
ITEM: TIMESTEP
19000
ITEM: NUMBER OF ATOMS
35
ITEM: BOX BOUNDS xy xz yz pp pp pp
0.0000000000000000e+00 7.6685730000000003e+00 2.5561910000000001e+00
0.0000000000000000e+00 4.4274529999999999e+00 0.0000000000000000e+00
0.0000000000000000e+00 3.7699264999999997e+01 0.0000000000000000e+00
ITEM: ATOMS id type x y z
1 1 2.36355 1.85115 0.270533
2 1 5.93671 4.15974 37.2581
3 1 5.08226 2.25964 0.940243
4 1 5.30959 2.01862 36.0616
5 1 5.32257 4.34706 34.947
6 1 4.3347 2.04551 33.6481
7 1 3.53339 3.10164 30.791
8 1 3.35596 3.66055 37.0953
9 1 5.41347 3.72019 32.3866
10 1 6.30281 2.9838 29.8188
11 1 2.15909 2.42548 34.7224
12 1 0.333895 0.0757896 33.7842
13 1 1.87209 0.931385 29.8173
14 1 1.8758 1.92605 32.1546
15 1 4.17721 0.832535 31.166
16 2 4.65742 3.09823 14.7244
17 2 2.37124 1.907 16.0145
18 2 0.129097 0.0657805 17.1081
19 2 4.49864 0.101332 14.6928
20 2 1.94717 0.205144 9.82052
21 2 5.01786 2.72274 17.2777
22 2 0.46642 0.453051 12.4697
23 2 5.56027 3.45306 12.0406
24 2 1.50951 1.40336 7.44253
25 2 6.91353 4.17035 7.58167
26 2 2.44479 2.72808 10.4009
27 2 2.80565 1.76638 13.0125
28 2 4.6726 1.49559 10.001
29 2 4.21085 2.67573 7.09066
30 2 4.56899 1.04922 4.95613
31 2 1.73706 2.80198 4.99301
32 2 3.08938 1.68186 2.96102
33 2 0.863276 0.0292008 2.06683
34 2 5.92597 3.46972 2.633
35 2 4.46735 4.29992 4.97715
ITEM: TIMESTEP
19100
ITEM: NUMBER OF ATOMS
35
ITEM: BOX BOUNDS xy xz yz pp pp pp
0.0000000000000000e+00 7.6685730000000003e+00 2.5561910000000001e+00
0.0000000000000000e+00 4.4274529999999999e+00 0.0000000000000000e+00
0.0000000000000000e+00 3.7699264999999997e+01 0.0000000000000000e+00
ITEM: ATOMS id type x y z
1 1 1.93151 1.77536 0.597258
2 1 6.46236 3.77275 0.140836
3 1 4.20832 1.56735 0.400497
4 1 5.30201 1.46786 35.9494
5 1 5.44234 4.35056 34.7659
6 1 4.53493 2.43294 33.599
7 1 3.48902 3.05364 30.7436
8 1 3.87497 4.09258 37.083
9 1 5.25956 4.64909 31.9709
10 1 6.2894 4.0385 30.1379
11 1 2.10074 2.26059 34.5609
12 1 2.97337 4.45733 34.0136
13 1 1.46429 0.960092 29.8462
14 1 1.70278 2.14743 32.1741
15 1 5.01349 1.08966 31.3977
16 2 4.60505 3.5236 14.616
17 2 2.38669 1.71954 15.9417
18 2 4.75056 0.0938974 17.4999
19 2 4.47127 0.061516 14.9931
20 2 4.58718 4.15653 9.44668
21 2 5.18982 3.09077 17.0788
22 2 0.428088 0.518263 12.3696
23 2 5.30442 3.35431 11.9582
24 2 1.89482 1.27696 7.21699
25 2 7.09177 4.26818 7.85137
26 2 2.26107 2.78682 10.2194
27 2 3.12653 2.04013 12.8289
28 2 4.70425 1.33862 10.0051
29 2 4.32093 2.74078 7.48202
30 2 4.49399 1.06515 5.11602
31 2 1.9725 2.71674 5.06807
32 2 3.13856 1.58253 2.79374
33 2 3.14571 4.34956 2.34377
34 2 5.79767 3.24706 2.46983
35 2 4.36892 4.02785 4.88901
ITEM: TIMESTEP
19200
ITEM: NUMBER OF ATOMS
35
ITEM: BOX BOUNDS xy xz yz pp pp pp
0.0000000000000000e+00 7.6685730000000003e+00 2.5561910000000001e+00
0.0000000000000000e+00 4.4274529999999999e+00 0.0000000000000000e+00
0.0000000000000000e+00 3.7699264999999997e+01 0.0000000000000000e+00
ITEM: ATOMS id type x y z
1 1 1.35778 0.895079 0.562958
2 1 6.78464 3.77927 37.144
3 1 4.17217 1.83879 0.393423
4 1 4.76807 1.52806 35.7519
5 1 6.08741 4.17243 34.9424
6 1 4.31403 2.60225 33.4476
7 1 3.83414 2.69373 31.1129
8 1 4.25766 3.83688 36.3066
9 1 2.3694 0.861186 32.7553
10 1 6.16174 4.22612 30.1088
11 1 2.20164 2.04572 34.9503
12 1 0.62495 0.180441 33.9823
13 1 1.92529 1.80502 30.2009
14 1 6.54651 3.56185 32.536
15 1 5.20008 1.15199 31.6867
16 2 4.3624 3.66077 14.4142
17 2 2.05072 1.52518 16.0881
18 2 4.89846 0.234326 17.5866
19 2 4.69305 0.465064 14.9772
20 2 4.84023 4.35967 9.89645
21 2 4.99206 3.1408 16.8617
22 2 0.68768 0.74237 12.3198
23 2 5.67869 3.64377 12.2656
24 2 2.21997 1.13123 7.45979
25 2 7.04732 3.99331 7.25888
26 2 1.97396 2.6027 9.79578
27 2 2.92152 1.81126 12.9948
28 2 4.49871 1.20159 9.94351
29 2 4.62238 2.48106 7.45406
30 2 4.51228 1.07225 4.97045
31 2 1.89978 2.66757 4.97338
32 2 3.15558 1.50594 2.59972
33 2 2.82459 4.31806 2.61433
34 2 5.44071 2.78031 2.56652
35 2 4.52429 3.94804 4.86579
ITEM: TIMESTEP
19300
ITEM: NUMBER OF ATOMS
35
ITEM: BOX BOUNDS xy xz yz pp pp pp
0.0000000000000000e+00 7.6685730000000003e+00 2.5561910000000001e+00
0.0000000000000000e+00 4.4274529999999999e+00 0.0000000000000000e+00
0.0000000000000000e+00 3.7699264999999997e+01 0.0000000000000000e+00
ITEM: ATOMS id type x y z
1 1 1.72081 0.841416 0.0821891
2 1 7.0953 3.62355 37.7902
3 1 3.81057 1.93907 0.482219
4 1 5.14229 1.52859 35.8981
5 1 6.14427 3.8285 34.8661
6 1 4.5628 2.55383 33.6329
7 1 4.22281 3.6703 31.2465
8 1 4.03444 3.74946 36.2517
9 1 2.43638 1.74217 33.0953
10 1 5.99986 4.82127 30.4239
11 1 2.52008 1.78547 35.8394
12 1 0.545123 0.577368 33.4918
13 1 2.27272 2.46481 30.6147
14 1 6.27116 3.88384 32.4892
15 1 5.29686 0.947922 31.5068
16 2 4.27583 3.45554 14.4848
17 2 2.08724 2.03112 16.1531
18 2 5.17383 0.18202 17.1665
19 2 4.41419 0.683471 14.7929
20 2 4.31095 4.22187 10.1607
21 2 4.62589 3.08546 16.9847
22 2 0.549208 0.805298 12.2766
23 2 6.43648 3.5521 12.5187
24 2 1.98444 0.824959 7.48443
25 2 7.41479 3.87065 7.11634
26 2 1.94871 2.83724 9.85438
27 2 3.07224 1.81903 12.8367
28 2 4.55546 1.29672 9.78968
29 2 4.92966 2.4288 7.30883
30 2 4.52434 1.22071 4.90814
31 2 1.8982 2.17514 4.80558
32 2 2.46702 1.00911 2.56251
33 2 2.55853 4.05413 2.75958
34 2 5.44836 2.67591 2.17558
35 2 4.65277 4.08016 5.12453
ITEM: TIMESTEP
19400
ITEM: NUMBER OF ATOMS
35
ITEM: BOX BOUNDS xy xz yz pp pp pp
0.0000000000000000e+00 7.6685730000000003e+00 2.5561910000000001e+00
0.0000000000000000e+00 4.4274529999999999e+00 0.0000000000000000e+00
0.0000000000000000e+00 3.7699264999999997e+01 0.0000000000000000e+00
ITEM: ATOMS id type x y z
1 1 0.836984 0.771896 0.202531
2 1 6.60327 3.84944 0.39999
3 1 3.32963 1.73371 0.234886
4 1 5.49127 1.26438 35.6924
5 1 6.59516 3.62429 36.0472
6 1 5.04122 2.72165 34.3048
7 1 4.08279 4.10463 31.5583
8 1 4.05905 3.42784 36.3001
9 1 2.62611 2.016 33.2931
10 1 3.32798 1.52452 29.3014
11 1 2.84814 1.20841 35.5574
12 1 0.751464 0.143664 33.7261
13 1 1.97827 3.37116 30.9548
14 1 6.40254 4.41171 32.8594
15 1 5.46671 1.74214 30.9517
16 2 4.3519 3.78947 14.4977
17 2 2.09936 2.2512 15.4891
18 2 4.99953 0.336258 17.0925
19 2 4.08332 0.582272 14.8204
20 2 4.3448 3.79479 10.3827
21 2 4.98197 3.06376 17.0925
22 2 0.943149 0.912452 12.3825
23 2 5.93735 3.50312 12.426
24 2 2.42451 0.989111 7.72553
25 2 2.4668 3.75046 7.40756
26 2 1.67362 2.90375 9.93892
27 2 3.46458 1.81566 11.9931
28 2 4.34759 1.16564 9.77531
29 2 4.81884 2.55043 7.52957
30 2 4.41274 1.03828 4.77932
31 2 1.95358 2.46838 4.97308
32 2 2.42765 0.689187 2.64695
33 2 2.58497 3.80911 2.84653
34 2 5.10588 2.3811 2.16561
35 2 4.82127 3.6773 4.81743
ITEM: TIMESTEP
19500
ITEM: NUMBER OF ATOMS
35
ITEM: BOX BOUNDS xy xz yz pp pp pp
0.0000000000000000e+00 7.6685730000000003e+00 2.5561910000000001e+00
0.0000000000000000e+00 4.4274529999999999e+00 0.0000000000000000e+00
0.0000000000000000e+00 3.7699264999999997e+01 0.0000000000000000e+00
ITEM: ATOMS id type x y z
1 1 0.467801 0.353411 0.794572
2 1 5.57021 3.59627 0.938939
3 1 2.42467 1.90195 0.092189
4 1 5.15246 1.08405 36.122
5 1 2.36779 2.81783 35.4838
6 1 5.34068 2.70915 33.381
7 1 2.21391 0.358489 31.5847
8 1 4.65692 3.3341 36.7504
9 1 2.54629 2.89553 32.5487
10 1 3.05638 2.45308 30.0769
11 1 3.08118 0.554657 35.299
12 1 1.10501 -0.0953663 33.9646
13 1 6.79391 4.01852 30.7992
14 1 3.97061 1.10144 33.0278
15 1 4.9556 1.955 31.036
16 2 3.93589 3.75695 14.8558
17 2 1.64259 2.21653 14.6188
18 2 5.05178 0.411295 17.1145
19 2 4.1964 0.888176 14.5935
20 2 4.33286 4.17352 9.87309
21 2 5.44181 3.19894 16.6977
22 2 0.979251 0.645383 12.5593
23 2 6.09824 3.6896 12.5173
24 2 2.67006 0.960253 7.69321
25 2 2.43433 4.04578 7.48429
26 2 1.46801 2.19558 9.80687
27 2 3.38101 2.33986 12.0987
28 2 4.50576 0.634249 9.81243
29 2 5.05929 2.56998 7.33827
30 2 4.57056 0.75996 5.0142
31 2 2.15567 2.237 5.45324
32 2 2.59845 0.947134 2.76109
33 2 2.49003 3.41412 2.71302
34 2 4.92869 1.93742 2.61239
35 2 4.52214 3.75554 4.98358
ITEM: TIMESTEP
19600
ITEM: NUMBER OF ATOMS
35
ITEM: BOX BOUNDS xy xz yz pp pp pp
0.0000000000000000e+00 7.6685730000000003e+00 2.5561910000000001e+00
0.0000000000000000e+00 4.4274529999999999e+00 0.0000000000000000e+00
0.0000000000000000e+00 3.7699264999999997e+01 0.0000000000000000e+00
ITEM: ATOMS id type x y z
1 1 0.510424 0.00297361 0.427879
2 1 5.5674 3.64995 0.774476
3 1 2.21572 2.00824 0.479558
4 1 5.76231 0.998662 36.0254
5 1 2.54342 2.4417 34.8025
6 1 5.73587 3.15825 33.6769
7 1 1.36301 0.755638 31.8189
8 1 4.07227 2.91658 36.2511
9 1 2.93977 3.2199 32.5713
10 1 2.74111 2.46113 30.1568
11 1 3.40275 0.19998 35.4952
12 1 1.36892 0.643822 34.0718
13 1 3.82241 0.622192 30.3974
14 1 3.93817 0.876384 33.0454
15 1 5.57634 2.7255 31.1335
16 2 3.53901 3.66052 14.809
17 2 1.30075 2.22411 14.5345
18 2 5.4327 0.475387 16.8319
19 2 3.91905 1.13532 14.5327
20 2 4.42119 3.41168 9.66613
21 2 5.87271 3.29227 16.7721
22 2 1.0017 0.819937 12.1411
23 2 5.96597 3.86903 12.3959
24 2 2.63557 0.861978 7.50181
25 2 2.84066 4.11218 7.62866
26 2 1.6425 2.28113 9.84877
27 2 3.51855 2.46533 12.135
28 2 4.17286 0.594714 10.2901
29 2 5.27637 2.42247 7.35235
30 2 4.61944 0.6108 5.23626
31 2 2.10759 2.1091 5.11114
32 2 2.10928 0.517385 2.84627
33 2 2.35076 3.48672 3.04833
34 2 5.07852 1.98815 3.1003
35 2 4.51271 3.71204 5.09016
ITEM: TIMESTEP
19700
ITEM: NUMBER OF ATOMS
35
ITEM: BOX BOUNDS xy xz yz pp pp pp
0.0000000000000000e+00 7.6685730000000003e+00 2.5561910000000001e+00
0.0000000000000000e+00 4.4274529999999999e+00 0.0000000000000000e+00
0.0000000000000000e+00 3.7699264999999997e+01 0.0000000000000000e+00
ITEM: ATOMS id type x y z
1 1 0.294799 0.168027 0.596342
2 1 5.64581 3.47085 0.434053
3 1 2.88809 1.75989 0.617719
4 1 1.37853 1.58432 36.4249
5 1 2.55871 2.81972 34.514
6 1 5.07416 2.70663 33.9983
7 1 1.30962 1.22198 31.0516
8 1 4.11551 2.69695 36.5305
9 1 2.97176 3.2739 32.1612
10 1 2.34318 3.11581 30.139
11 1 4.03323 0.195725 36.1381
12 1 1.39106 0.377974 33.6245
13 1 4.17132 1.16045 30.4938
14 1 3.94262 0.561262 33.0135
15 1 5.21877 3.77437 31.5445
16 2 3.62685 3.9413 14.3549
17 2 6.10807 2.11031 14.5034
18 2 0.773105 0.873442 16.795
19 2 3.43018 0.69539 14.8954
20 2 4.43305 3.19808 9.94128
21 2 5.87683 3.58413 16.7633
22 2 1.0796 1.09525 11.973
23 2 5.85799 3.84235 12.5075
24 2 3.07867 1.00263 7.63137
25 2 2.86189 3.82515 7.86233
26 2 1.85759 2.05356 9.71974
27 2 3.45127 2.36463 12.3688
28 2 4.06509 0.362143 9.94993
29 2 5.60053 2.2344 7.50071
30 2 4.38773 0.447787 5.38745
31 2 2.05362 2.01624 5.15487
32 2 2.21659 0.390719 2.73269
33 2 2.04033 3.66261 2.73528
34 2 4.61569 2.11061 2.71085
35 2 4.59081 3.46447 5.33045
ITEM: TIMESTEP
19800
ITEM: NUMBER OF ATOMS
35
ITEM: BOX BOUNDS xy xz yz pp pp pp
0.0000000000000000e+00 7.6685730000000003e+00 2.5561910000000001e+00
0.0000000000000000e+00 4.4274529999999999e+00 0.0000000000000000e+00
0.0000000000000000e+00 3.7699264999999997e+01 0.0000000000000000e+00
ITEM: ATOMS id type x y z
1 1 0.596809 0.542224 0.404788
2 1 5.85205 3.09443 0.38952
3 1 3.065 1.58738 0.293251
4 1 1.88862 1.49244 36.065
5 1 2.68684 2.78481 34.3711
6 1 5.13318 2.43954 34.3988
7 1 1.40915 1.46075 30.7741
8 1 4.05169 3.32346 36.2934
9 1 2.49266 3.10817 32.1623
10 1 1.95237 4.22751 29.5449
11 1 4.51104 0.532284 35.8689
12 1 1.51139 0.762929 33.7999
13 1 3.97346 2.00324 30.5737
14 1 3.68045 0.559916 33.6251
15 1 4.98837 3.54713 31.7794
16 2 3.23504 3.80377 14.7484
17 2 5.7385 2.46337 14.5023
18 2 1.21379 0.918457 16.8234
19 2 3.31614 1.1144 14.8659
20 2 4.441 3.40684 10.1784
21 2 5.91996 3.64731 17.0721
22 2 0.634668 0.785194 12.2479
23 2 6.19929 3.88576 12.3297
24 2 3.28911 0.949136 7.47021
25 2 3.22442 3.80057 7.42558
26 2 1.91263 1.54801 9.95777
27 2 3.2178 2.08239 12.4155
28 2 4.67583 0.0644253 9.92836
29 2 5.72312 2.37 7.49562
30 2 4.58118 0.319242 5.01799
31 2 1.88487 1.83394 5.08829
32 2 1.90671 0.605441 2.87238
33 2 7.11519 3.44582 2.89129
34 2 4.38973 2.03131 2.70731
35 2 4.33878 3.29435 5.10923
ITEM: TIMESTEP
19900
ITEM: NUMBER OF ATOMS
35
ITEM: BOX BOUNDS xy xz yz pp pp pp
0.0000000000000000e+00 7.6685730000000003e+00 2.5561910000000001e+00
0.0000000000000000e+00 4.4274529999999999e+00 0.0000000000000000e+00
0.0000000000000000e+00 3.7699264999999997e+01 0.0000000000000000e+00
ITEM: ATOMS id type x y z
1 1 0.253993 0.30768 0.442004
2 1 6.27786 2.89418 0.11746
3 1 3.25172 1.24093 0.594288
4 1 1.65131 1.66479 35.5647
5 1 2.89228 3.02643 34.359
6 1 5.63446 3.18448 34.279
7 1 1.09512 1.06688 31.064
8 1 4.19005 3.54303 36.4939
9 1 2.30881 3.67468 31.8014
10 1 3.86484 0.0241757 29.9924
11 1 4.33853 0.744186 36.0006
12 1 1.07521 0.54704 33.1874
13 1 3.59056 2.28183 30.961
14 1 3.94701 1.18402 33.1616
15 1 5.12044 3.71753 31.9236
16 2 2.81222 3.77427 15.3161
17 2 5.41447 2.7837 14.8328
18 2 1.38908 1.06364 16.8453
19 2 3.24129 0.986076 14.9135
20 2 4.71193 2.6478 9.89857
21 2 6.11546 3.75452 17.0464
22 2 0.783366 0.713368 12.934
23 2 5.69393 3.53819 12.2038
24 2 3.3062 0.885972 7.46732
25 2 3.50304 4.02803 7.36905
26 2 2.25737 1.42242 9.94068
27 2 3.23693 2.37922 12.305
28 2 4.76844 0.206535 9.63364
29 2 5.88899 2.59895 7.57979
30 2 4.39473 0.391714 5.09659
31 2 1.87086 1.76312 5.23827
32 2 1.79629 0.440882 2.66358
33 2 1.86335 3.19046 2.42957
34 2 4.49217 1.82478 2.61666
35 2 4.60624 3.25156 4.95808
ITEM: TIMESTEP
20000
ITEM: NUMBER OF ATOMS
35
ITEM: BOX BOUNDS xy xz yz pp pp pp
0.0000000000000000e+00 7.6685730000000003e+00 2.5561910000000001e+00
0.0000000000000000e+00 4.4274529999999999e+00 0.0000000000000000e+00
0.0000000000000000e+00 3.7699264999999997e+01 0.0000000000000000e+00
ITEM: ATOMS id type x y z
1 1 0.337028 0.0517847 0.0505142
2 1 5.93941 2.76309 37.7333
3 1 2.76005 0.940986 0.054373
4 1 1.43851 1.0052 35.9137
5 1 3.13855 4.0236 34.6149
6 1 5.41161 3.87347 34.0524
7 1 1.34138 1.93405 31.0208
8 1 4.24871 2.89566 36.4376
9 1 7.20134 3.88968 32.4309
10 1 5.05318 3.91542 29.6549
11 1 4.00282 1.11782 35.4223
12 1 1.60028 1.96869 33.5705
13 1 3.9051 1.47242 30.5613
14 1 3.97188 1.77299 33.1109
15 1 4.38673 3.66263 32.0326
16 2 2.76764 3.6285 15.4014
17 2 5.09575 2.54292 14.8269
18 2 1.30826 1.3703 16.7653
19 2 3.02506 0.831359 14.7358
20 2 4.85017 2.7346 9.606
21 2 6.07554 4.22431 17.5754
22 2 0.933459 0.756215 13.1609
23 2 5.78567 3.75252 12.1543
24 2 3.56231 1.2527 7.46412
25 2 3.33135 4.10374 7.48361
26 2 2.12845 1.2742 9.99645
27 2 3.12953 2.45482 12.6054
28 2 7.32122 3.88689 10.2499
29 2 6.34761 2.4874 7.24231
30 2 4.58653 0.210611 4.91512
31 2 2.19857 1.88507 4.77662
32 2 2.11098 -0.0242882 2.63865
33 2 6.95977 3.19325 2.48447
34 2 4.53672 1.64628 2.41777
35 2 4.61165 3.24383 5.13259
