"Cu64 Ta64"
1.0
       10.2247638702         0.0000000000         0.0000000000
        0.0000000000        10.2247638702         0.0000000000
        0.0000000000         0.0000000000        27.8724994659
   Cu   Ta
   64   64
Direct
     0.125000000         0.125000000         0.287021250
     0.375000000         0.125000000         0.287021250
     0.625000000         0.125000000         0.287021250
     0.875000000         0.125000000         0.287021250
     0.125000000         0.375000000         0.287021250
     0.375000000         0.375000000         0.287021250
     0.625000000         0.375000000         0.287021250
     0.875000000         0.375000000         0.287021250
     0.125000000         0.625000000         0.287021250
     0.375000000         0.625000000         0.287021250
     0.625000000         0.625000000         0.287021250
     0.875000000         0.625000000         0.287021250
     0.125000000         0.875000000         0.287021250
     0.375000000         0.875000000         0.287021250
     0.625000000         0.875000000         0.287021250
     0.875000000         0.875000000         0.287021250
     0.000000000         0.000000000         0.351870120
     0.250000000         0.000000000         0.351870120
     0.500000000         0.000000000         0.351870120
     0.750000000         0.000000000         0.351870120
     0.000000000         0.250000000         0.351870120
     0.250000000         0.250000000         0.351870120
     0.500000000         0.250000000         0.351870120
     0.750000000         0.250000000         0.351870120
     0.000000000         0.500000000         0.351870120
     0.250000000         0.500000000         0.351870120
     0.500000000         0.500000000         0.351870120
     0.750000000         0.500000000         0.351870120
     0.000000000         0.750000000         0.351870120
     0.250000000         0.750000000         0.351870120
     0.500000000         0.750000000         0.351870120
     0.750000000         0.750000000         0.351870120
     0.125000000         0.125000000         0.416718990
     0.375000000         0.125000000         0.416718990
     0.625000000         0.125000000         0.416718990
     0.875000000         0.125000000         0.416718990
     0.125000000         0.375000000         0.416718990
     0.375000000         0.375000000         0.416718990
     0.625000000         0.375000000         0.416718990
     0.875000000         0.375000000         0.416718990
     0.125000000         0.625000000         0.416718990
     0.375000000         0.625000000         0.416718990
     0.625000000         0.625000000         0.416718990
     0.875000000         0.625000000         0.416718990
     0.125000000         0.875000000         0.416718990
     0.375000000         0.875000000         0.416718990
     0.625000000         0.875000000         0.416718990
     0.875000000         0.875000000         0.416718990
     0.000000000         0.000000000         0.481567860
     0.250000000         0.000000000         0.481567860
     0.500000000         0.000000000         0.481567860
     0.750000000         0.000000000         0.481567860
     0.000000000         0.250000000         0.481567860
     0.250000000         0.250000000         0.481567860
     0.500000000         0.250000000         0.481567860
     0.750000000         0.250000000         0.481567860
     0.000000000         0.500000000         0.481567860
     0.250000000         0.500000000         0.481567860
     0.500000000         0.500000000         0.481567860
     0.750000000         0.500000000         0.481567860
     0.000000000         0.750000000         0.481567860
     0.250000000         0.750000000         0.481567860
     0.500000000         0.750000000         0.481567860
     0.750000000         0.750000000         0.481567860
     0.125000000         0.125000000         0.535384357
     0.375000000         0.125000000         0.535384357
     0.625000000         0.125000000         0.535384357
     0.875000000         0.125000000         0.535384357
     0.125000000         0.375000000         0.535384357
     0.375000000         0.375000000         0.535384357
     0.625000000         0.375000000         0.535384357
     0.875000000         0.375000000         0.535384357
     0.125000000         0.625000000         0.535384357
     0.375000000         0.625000000         0.535384357
     0.625000000         0.625000000         0.535384357
     0.875000000         0.625000000         0.535384357
     0.125000000         0.875000000         0.535384357
     0.375000000         0.875000000         0.535384357
     0.625000000         0.875000000         0.535384357
     0.875000000         0.875000000         0.535384357
     0.000000000         0.000000000         0.594582498
     0.250000000         0.000000000         0.594582498
     0.500000000         0.000000000         0.594582498
     0.750000000         0.000000000         0.594582498
     0.000000000         0.250000000         0.594582498
     0.250000000         0.250000000         0.594582498
     0.500000000         0.250000000         0.594582498
     0.750000000         0.250000000         0.594582498
     0.000000000         0.500000000         0.594582498
     0.250000000         0.500000000         0.594582498
     0.500000000         0.500000000         0.594582498
     0.750000000         0.500000000         0.594582498
     0.000000000         0.750000000         0.594582498
     0.250000000         0.750000000         0.594582498
     0.500000000         0.750000000         0.594582498
     0.750000000         0.750000000         0.594582498
     0.125000000         0.125000000         0.653780580
     0.375000000         0.125000000         0.653780580
     0.625000000         0.125000000         0.653780580
     0.875000000         0.125000000         0.653780580
     0.125000000         0.375000000         0.653780580
     0.375000000         0.375000000         0.653780580
     0.625000000         0.375000000         0.653780580
     0.875000000         0.375000000         0.653780580
     0.125000000         0.625000000         0.653780580
     0.375000000         0.625000000         0.653780580
     0.625000000         0.625000000         0.653780580
     0.875000000         0.625000000         0.653780580
     0.125000000         0.875000000         0.653780580
     0.375000000         0.875000000         0.653780580
     0.625000000         0.875000000         0.653780580
     0.875000000         0.875000000         0.653780580
     0.000000000         0.000000000         0.712978721
     0.250000000         0.000000000         0.712978721
     0.500000000         0.000000000         0.712978721
     0.750000000         0.000000000         0.712978721
     0.000000000         0.250000000         0.712978721
     0.250000000         0.250000000         0.712978721
     0.500000000         0.250000000         0.712978721
     0.750000000         0.250000000         0.712978721
     0.000000000         0.500000000         0.712978721
     0.250000000         0.500000000         0.712978721
     0.500000000         0.500000000         0.712978721
     0.750000000         0.500000000         0.712978721
     0.000000000         0.750000000         0.712978721
     0.250000000         0.750000000         0.712978721
     0.500000000         0.750000000         0.712978721
     0.750000000         0.750000000         0.712978721
