Cu Ta
 1.0000000000000000
     2.5561910139893698    0.0000000000000000    0.0000000000000000
     1.2780955069946849    2.2137263550402970    0.0000000000000000
     0.0000000000000000    0.0000000000000000   29.2617208031083109
 Cu  Ta 
   4   4
Cartesian
  0.0000000000000000  0.0000000000000000  0.0000000000000000
  1.2780955069946849  0.7379087850134323  2.0871212231204974
 -0.0000000000000000  1.4758175700268645  4.1742424462409948
  0.0000000000000000  0.0000000000000000  6.2613636693614918
  0.0000000000000000  2.2137263550402970 14.2613636693614918
  0.0000000000000000  0.0000000000000000 16.5948160472770994
  0.0000000000000000  2.2137263550402970 18.9282684251927051
  0.0000000000000000  0.0000000000000000 21.2617208031083109
