(written by ASE)

8 atoms
2 atom types

0.0      2.5561910139893698  xlo xhi
0.0      2.5561910139893698  ylo yhi
0.0      26.372499999999999  zlo zhi

Atoms # atomic

     1   1      1.2780955069946849      1.2780955069946849                       0
     2   1                       0                       0      1.8075000000000001
     3   1      1.2780955069946849      1.2780955069946849      3.6150000000000002
     4   1                       0                       0      5.4225000000000003
     5   2      1.2780955069946849      1.2780955069946849      13.422499999999999
     6   2                       0                       0                 15.0725
     7   2      1.2780955069946849      1.2780955069946849                 16.7225
     8   2                       0                       0      18.372499999999999
