Cu Ta
 1.0000000000000000
     2.5561910139893698    0.0000000000000000    0.0000000000000000
     0.0000000000000000    2.5561910139893698    0.0000000000000000
     0.0000000000000000    0.0000000000000000   26.3724999999999987
 Cu  Ta 
   4   4
Cartesian
  1.2780955069946849  1.2780955069946849  0.0000000000000000
  0.0000000000000000  0.0000000000000000  1.8075000000000001
  1.2780955069946849  1.2780955069946849  3.6150000000000002
  0.0000000000000000  0.0000000000000000  5.4225000000000003
  1.2780955069946849  1.2780955069946849 13.4224999999999994
  0.0000000000000000  0.0000000000000000 15.0724999999999998
  1.2780955069946849  1.2780955069946849 16.7225000000000001
  0.0000000000000000  0.0000000000000000 18.3724999999999987
