(written by ASE)

8 atoms
2 atom types

0.0      2.5561910139893698  xlo xhi
0.0       2.213726355040297  ylo yhi
0.0      29.261720803108311  zlo zhi
     1.2780955069946849                       0                       0  xy xz yz

Atoms # atomic

     1   1                       0                       0                       0
     2   1      1.2780955069946849     0.73790878501343227      2.0871212231204974
     3   1 -1.0291601163676848e-17      1.4758175700268645      4.1742424462409948
     4   1                       0                       0      6.2613636693614918
     5   2                       0       2.213726355040297      14.261363669361492
     6   2                       0                       0      16.594816047277099
     7   2                       0       2.213726355040297      18.928268425192705
     8   2                       0                       0      21.261720803108311
