
     Program PWSCF v.7.5 starts on  4Dec2025 at 10: 6:20 

     This program is part of the open-source Quantum ESPRESSO suite
     for quantum simulation of materials; please cite
         "P. Giannozzi et al., J. Phys.:Condens. Matter 21 395502 (2009);
         "P. Giannozzi et al., J. Phys.:Condens. Matter 29 465901 (2017);
         "P. Giannozzi et al., J. Chem. Phys. 152 154105 (2020);
          URL http://www.quantum-espresso.org", 
     in publications or presentations arising from this work. More details at
     http://www.quantum-espresso.org/quote

     Parallel version (MPI & OpenMP), running on      16 processor cores
     Number of MPI processes:                 4
     Threads/MPI process:                     4

     MPI processes distributed on     1 nodes
     419042 MiB available memory on the printing compute node when the environment starts

     Reading input from qe/gap2/cu_ta_gap2.in
Warning: card &CELL ignored
Warning: card &FCP ignored
Warning: card &RISM ignored

     Current dimensions of program PWSCF are:
     Max number of different atomic species (ntypx) = 10
     Max number of k-points (npk) =  40000
     Max angular momentum in pseudopotentials (lmaxx) =  4
     file Cu.paw.z_11.ld1.psl.v1.0.0-low.upf: wavefunction(s)  4S 3D renormalized
     Message from routine setup:
     using ibrav=0 with symmetry is DISCOURAGED, use correct ibrav instead

     R & G space division:  proc/nbgrp/npool/nimage =       4
     Subspace diagonalization in iterative solution of the eigenvalue problem:
     a serial algorithm will be used


     Parallelization info
     --------------------
     sticks:   dense  smooth     PW     G-vecs:    dense   smooth      PW
     Min         480     289     73                40210    18707    2346
     Max         481     290     74                40217    18716    2350
     Sum        1921    1159    295               160853    74851    9391

     Using Slab Decomposition



     bravais-lattice index     =            0
     lattice parameter (alat)  =       9.6610  a.u.
     unit-cell volume          =    1832.9688 (a.u.)^3
     number of atoms/cell      =            7
     number of atomic types    =            2
     number of electrons       =        83.00
     number of Kohn-Sham states=           50
     kinetic-energy cutoff     =      45.0000  Ry
     charge density cutoff     =     300.0000  Ry
     scf convergence threshold =      1.0E-04
     mixing beta               =       0.3000
     number of iterations used =            8  plain     mixing
     Exchange-correlation= SLA  PW   PBX  PBC
                           (   1   4   3   4   0   0   0)

     celldm(1)=   9.661002  celldm(2)=   0.000000  celldm(3)=   0.000000
     celldm(4)=   0.000000  celldm(5)=   0.000000  celldm(6)=   0.000000

     crystal axes: (cart. coord. in units of alat)
               a(1) = (   1.000000   0.000000   0.000000 )  
               a(2) = (   0.500000   0.866025   0.000000 )  
               a(3) = (   0.000000   0.000000   2.347242 )  

     reciprocal axes: (cart. coord. in units 2 pi/alat)
               b(1) = (  1.000000 -0.577350  0.000000 )  
               b(2) = (  0.000000  1.154701  0.000000 )  
               b(3) = (  0.000000  0.000000  0.426032 )  


     PseudoPot. # 1 for Ta read from file:
     /apps/QE/pseudo/efficiency/Ta_pbe_v1.uspp.F.UPF
     MD5 check sum: f8bbe9446314a3b8ea5d9f3e3836c939
     Pseudo is Ultrasoft + core correction, Zval = 13.0
     Generated by new atomic code, or converted to UPF format
     Using radial grid of  921 points,  7 beta functions with: 
                l(1) =   0
                l(2) =   0
                l(3) =   1
                l(4) =   1
                l(5) =   2
                l(6) =   2
                l(7) =   3
     Q(r) pseudized with  6 coefficients,  rinner =    1.300   1.300   1.300
                                                       1.300   1.300   1.300
                                                       1.300

     PseudoPot. # 2 for Cu read from file:
     /apps/QE/pseudo/efficiency/Cu.paw.z_11.ld1.psl.v1.0.0-low.upf
     MD5 check sum: 619f40885d92a09a85a8b37550532d0c
     Pseudo is Projector augmented-wave + core cor, Zval = 11.0
     Generated using &quot;atomic&quot; code by A. Dal Corso  v.6.3MaX
     Shape of augmentation charge: PSQ
     Using radial grid of 1199 points,  6 beta functions with: 
                l(1) =   0
                l(2) =   0
                l(3) =   1
                l(4) =   1
                l(5) =   2
                l(6) =   2
     Q(r) pseudized with 0 coefficients 


     atomic species   valence    mass     pseudopotential
     Ta               13.00   180.94788     Ta( 1.00)
     Cu               11.00    63.54600     Cu( 1.00)

     12 Sym. Ops. (no inversion) found ( 6 have fractional translation)



   Cartesian axes

     site n.     atom                  positions (alat units)
         1        Ta     tau(   1) = (   0.0000000   0.0000000   1.3971681  )
         2        Ta     tau(   2) = (   0.5000000   0.2886751   1.3971681  )
         3        Ta     tau(   3) = (   1.0000000   0.5773503   1.3971681  )
         4        Cu     tau(   4) = (   0.7500000   0.1443376   1.0059610  )
         5        Cu     tau(   5) = (   0.2500000   0.1443376   1.0059610  )
         6        Cu     tau(   6) = (   1.0000000   0.5773503   1.0059610  )
         7        Cu     tau(   7) = (   0.5000000   0.5773503   1.0059610  )

     number of k points=     1  Methfessel-Paxton smearing, width (Ry)=  0.0200
                       cart. coord. in units 2pi/alat
        k(    1) = (   0.0000000   0.0000000   0.0000000), wk =   2.0000000

     Dense  grid:   160853 G-vectors     FFT dimensions: (  54,  54, 125)

     Smooth grid:    74851 G-vectors     FFT dimensions: (  45,  45, 100)

     Estimated max dynamical RAM per process >     254.85 MB

     Estimated total dynamical RAM >    1019.41 MB

     Check: negative core charge=   -0.000002

     Initial potential from superposition of free atoms

     starting charge      82.9958, renormalised to      83.0000

     negative rho (up, down):  2.876E-01 0.000E+00
     Starting wfcs are   75 randomized atomic wfcs
     Checking if some PAW data can be deallocated... 

     total cpu time spent up to now is        3.4 secs

     per-process dynamical memory:    75.4 Mb

     Self-consistent Calculation

     iteration #  1     ecut=    45.00 Ry     beta= 0.30
     Davidson diagonalization with overlap
     ethr =  1.00E-02,  avg # of iterations =  3.0

     negative rho (up, down):  2.924E-01 0.000E+00

     total cpu time spent up to now is        6.7 secs

     total energy              =   -1276.18809463 Ry
     estimated scf accuracy    <       1.67208224 Ry

     iteration #  2     ecut=    45.00 Ry     beta= 0.30
     Davidson diagonalization with overlap
     ethr =  2.01E-03,  avg # of iterations =  4.0

     negative rho (up, down):  2.929E-01 0.000E+00

     total cpu time spent up to now is       10.6 secs

     total energy              =   -1276.21201789 Ry
     estimated scf accuracy    <       8.03442719 Ry

     iteration #  3     ecut=    45.00 Ry     beta= 0.30
     Davidson diagonalization with overlap
     ethr =  2.01E-03,  avg # of iterations =  2.0

     negative rho (up, down):  2.945E-01 0.000E+00

     total cpu time spent up to now is       14.3 secs

     total energy              =   -1276.53108426 Ry
     estimated scf accuracy    <       1.54536970 Ry

     iteration #  4     ecut=    45.00 Ry     beta= 0.30
     Davidson diagonalization with overlap
     ethr =  1.86E-03,  avg # of iterations =  1.0

     negative rho (up, down):  2.966E-01 0.000E+00

     total cpu time spent up to now is       19.3 secs

     total energy              =   -1276.66992168 Ry
     estimated scf accuracy    <       0.94887438 Ry

     iteration #  5     ecut=    45.00 Ry     beta= 0.30
     Davidson diagonalization with overlap
     ethr =  1.14E-03,  avg # of iterations =  1.0

     negative rho (up, down):  2.974E-01 0.000E+00

     total cpu time spent up to now is       22.2 secs

     total energy              =   -1276.68607821 Ry
     estimated scf accuracy    <       0.12940513 Ry

     iteration #  6     ecut=    45.00 Ry     beta= 0.30
     Davidson diagonalization with overlap
     ethr =  1.56E-04,  avg # of iterations =  2.0

     negative rho (up, down):  2.995E-01 0.000E+00

     total cpu time spent up to now is       25.2 secs

     total energy              =   -1276.68810331 Ry
     estimated scf accuracy    <       0.04245668 Ry

     iteration #  7     ecut=    45.00 Ry     beta= 0.30
     Davidson diagonalization with overlap
     ethr =  5.12E-05,  avg # of iterations =  5.0

     negative rho (up, down):  3.010E-01 0.000E+00

     total cpu time spent up to now is       32.0 secs

     total energy              =   -1276.69180456 Ry
     estimated scf accuracy    <       0.05137454 Ry

     iteration #  8     ecut=    45.00 Ry     beta= 0.30
     Davidson diagonalization with overlap
     ethr =  5.12E-05,  avg # of iterations =  1.0

     negative rho (up, down):  3.022E-01 0.000E+00

     total cpu time spent up to now is       35.4 secs

     total energy              =   -1276.69388189 Ry
     estimated scf accuracy    <       0.00289241 Ry

     iteration #  9     ecut=    45.00 Ry     beta= 0.30
     Davidson diagonalization with overlap
     ethr =  3.48E-06,  avg # of iterations =  4.0

     negative rho (up, down):  3.032E-01 0.000E+00

     total cpu time spent up to now is       39.0 secs

     total energy              =   -1276.69391760 Ry
     estimated scf accuracy    <       0.00173099 Ry

     iteration # 10     ecut=    45.00 Ry     beta= 0.30
     Davidson diagonalization with overlap
     ethr =  2.09E-06,  avg # of iterations =  2.0

     negative rho (up, down):  3.032E-01 0.000E+00

     total cpu time spent up to now is       42.5 secs

     total energy              =   -1276.69400367 Ry
     estimated scf accuracy    <       0.00100320 Ry

     iteration # 11     ecut=    45.00 Ry     beta= 0.30
     Davidson diagonalization with overlap
     ethr =  1.21E-06,  avg # of iterations =  1.0

     negative rho (up, down):  3.033E-01 0.000E+00

     total cpu time spent up to now is       45.8 secs

     total energy              =   -1276.69405053 Ry
     estimated scf accuracy    <       0.00022757 Ry

     iteration # 12     ecut=    45.00 Ry     beta= 0.30
     Davidson diagonalization with overlap
     ethr =  2.74E-07,  avg # of iterations =  2.0

     negative rho (up, down):  3.033E-01 0.000E+00

     total cpu time spent up to now is       49.6 secs

     End of self-consistent calculation

          k = 0.0000 0.0000 0.0000 (  9391 PWs)   bands (ev):

   -64.4845 -64.4224 -64.3595 -31.3662 -31.1642 -31.1642 -31.0632 -31.0632
   -31.0599 -30.9778 -30.4929 -30.4929  -4.5786  -2.0525  -1.6893  -1.6893
    -1.4986  -1.4754  -1.4754  -1.0766  -0.7345  -0.1642  -0.1642   0.1041
     0.1041   0.1143   0.1143   0.5654   0.7067   0.7067   0.7197   1.3805
     1.3805   1.5725   1.9917   1.9917   2.8618   2.8945   2.8945   3.0103
     3.0363   3.0363   3.1368   3.1368   3.8094   4.1289   4.1289   4.7116
     6.9734   6.9736

     the Fermi energy is     3.0784 ev

!    total energy              =   -1276.69404151 Ry
     estimated scf accuracy    <       0.00002430 Ry
     smearing contrib. (-TS)   =      -0.02466932 Ry
     internal energy E=F+TS    =   -1276.66937219 Ry

     The total energy is F=E-TS. E is the sum of the following terms:
     one-electron contribution =   -2077.14528405 Ry
     hartree contribution      =    1086.40479060 Ry
     xc contribution           =    -305.03892070 Ry
     ewald contribution        =     378.54857359 Ry
     one-center paw contrib.   =    -359.43853164 Ry

     convergence has been achieved in  12 iterations

     Writing all to output data dir ./tmp/CuTa_gap2.save/ :
     XML data file, charge density, pseudopotentials, collected wavefunctions

     init_run     :      2.61s CPU      3.03s WALL (       1 calls)
     electrons    :     37.12s CPU     46.20s WALL (       1 calls)

     Called by init_run:
     wfcinit      :      0.52s CPU      0.63s WALL (       1 calls)
     potinit      :      1.08s CPU      1.20s WALL (       1 calls)
     hinit0       :      0.49s CPU      0.57s WALL (       1 calls)

     Called by electrons:
     c_bands      :     13.29s CPU     18.30s WALL (      12 calls)
     sum_band     :      8.31s CPU     10.28s WALL (      12 calls)
     v_of_rho     :      1.30s CPU      1.43s WALL (      13 calls)
     newd         :      5.60s CPU      6.82s WALL (      13 calls)
     PAW_pot      :      9.32s CPU      9.91s WALL (      13 calls)
     mix_rho      :      0.24s CPU      0.32s WALL (      12 calls)

     Called by c_bands:
     init_us_2    :      0.09s CPU      0.10s WALL (      25 calls)
     cegterg      :     13.08s CPU     18.05s WALL (      12 calls)

     Called by *egterg:
     cdiaghg      :      0.34s CPU      0.46s WALL (      40 calls)
     h_psi        :     11.82s CPU     16.12s WALL (      41 calls)
     s_psi        :      0.11s CPU      0.10s WALL (      41 calls)
     g_psi        :      0.01s CPU      0.01s WALL (      28 calls)

     Called by h_psi:
     h_psi:calbec :      0.29s CPU      0.36s WALL (      41 calls)
     vloc_psi     :     11.30s CPU     15.43s WALL (      41 calls)
                                        0.00s GPU  (      41 calls)
     add_vuspsi   :      0.16s CPU      0.18s WALL (      41 calls)

     General routines
     calbec       :      0.39s CPU      0.47s WALL (      53 calls)
     fft          :      1.71s CPU      2.38s WALL (     167 calls)
     ffts         :      0.39s CPU      0.54s WALL (      25 calls)
     fftw         :     13.58s CPU     18.20s WALL (    3310 calls)
     interpolate  :      0.47s CPU      0.75s WALL (      13 calls)

     Parallel routines

     PWSCF        :     40.12s CPU     49.64s WALL


   This run was terminated on:  10: 7: 9   4Dec2025            

=------------------------------------------------------------------------------=
   JOB DONE.
=------------------------------------------------------------------------------=
