ITEM: TIMESTEP
0
ITEM: NUMBER OF ATOMS
35
ITEM: BOX BOUNDS xy xz yz pp pp pp
0.0000000000000000e+00 7.6685730000000003e+00 2.5561910000000001e+00
0.0000000000000000e+00 4.4274529999999999e+00 0.0000000000000000e+00
0.0000000000000000e+00 3.6699264999999997e+01 0.0000000000000000e+00
ITEM: ATOMS id type x y z
1 1 2.55619 1.47582 33.2248
2 1 5.11238 2.95164 33.2248
3 1 0 0 33.2248
4 1 5.11238 1.47582 30.8871
5 1 2.55619 2.95164 30.8871
6 1 2.55619 0 30.8871
7 1 2.55619 1.47582 28.5494
8 1 5.11238 2.95164 28.5494
9 1 0 0 28.5494
10 1 5.11238 1.47582 26.2117
11 1 2.55619 2.95164 26.2117
12 1 2.55619 0 26.2117
13 1 2.55619 1.47582 23.874
14 1 5.11238 2.95164 23.874
15 1 0 0 23.874
16 2 1.2781 2.21373 14.874
17 2 0 0 14.874
18 2 3.83429 2.21373 14.874
19 2 2.55619 0 14.874
20 2 3.83429 3.68954 12.7869
21 2 2.55619 1.47582 12.7869
22 2 6.39048 3.68954 12.7869
23 2 5.11238 1.47582 12.7869
24 2 5.11238 2.95164 10.6998
25 2 3.83429 0.737909 10.6998
26 2 2.55619 2.95164 10.6998
27 2 1.2781 0.737909 10.6998
28 2 1.2781 2.21373 8.61267
29 2 0 0 8.61267
30 2 3.83429 2.21373 8.61267
31 2 2.55619 0 8.61267
32 2 3.83429 3.68954 6.52555
33 2 2.55619 1.47582 6.52555
34 2 6.39048 3.68954 6.52555
35 2 5.11238 1.47582 6.52555
ITEM: TIMESTEP
100
ITEM: NUMBER OF ATOMS
35
ITEM: BOX BOUNDS xy xz yz pp pp pp
0.0000000000000000e+00 7.6685730000000003e+00 2.5561910000000001e+00
0.0000000000000000e+00 4.4274529999999999e+00 0.0000000000000000e+00
0.0000000000000000e+00 3.6699264999999997e+01 0.0000000000000000e+00
ITEM: ATOMS id type x y z
1 1 2.9913 1.6711 32.5792
2 1 5.07226 3.15385 32.7689
3 1 5.11068 0.021708 32.6445
4 1 4.95324 1.52393 30.833
5 1 2.3709 2.89136 30.6478
6 1 4.5084 4.3827 30.7878
7 1 2.47572 1.56666 28.6191
8 1 5.11326 3.1302 28.842
9 1 7.44492 4.27286 29.017
10 1 5.46549 1.3726 27.3103
11 1 3.40773 2.37734 26.3154
12 1 4.71698 4.37589 26.257
13 1 2.6581 1.39623 24.3363
14 1 4.68132 2.96836 24.535
15 1 5.05016 0.797644 24.1453
16 2 1.26922 2.08255 15.4987
17 2 7.54343 4.33504 15.6658
18 2 3.85517 2.09684 16.0071
19 2 5.0669 4.36727 16.1388
20 2 3.64858 3.76576 13.2741
21 2 2.41957 1.5783 13.1558
22 2 6.17996 3.71001 13.1068
23 2 4.90879 1.52423 13.1371
24 2 5.21117 2.8829 10.7215
25 2 3.89716 0.647858 10.6451
26 2 2.64765 2.93264 10.6412
27 2 1.40403 0.700625 10.7026
28 2 1.27801 2.19215 8.25983
29 2 5.1452 0.0162772 8.20143
30 2 3.88961 2.21411 8.01719
31 2 5.13749 4.42871 8.11568
32 2 4.01484 3.78141 5.28317
33 2 2.69707 1.5757 5.46871
34 2 6.51728 3.67246 5.78046
35 2 5.22169 1.50341 5.684
ITEM: TIMESTEP
200
ITEM: NUMBER OF ATOMS
35
ITEM: BOX BOUNDS xy xz yz pp pp pp
0.0000000000000000e+00 7.6685730000000003e+00 2.5561910000000001e+00
0.0000000000000000e+00 4.4274529999999999e+00 0.0000000000000000e+00
0.0000000000000000e+00 3.6699264999999997e+01 0.0000000000000000e+00
ITEM: ATOMS id type x y z
1 1 3.24407 1.13886 32.3119
2 1 5.37938 3.10426 32.4149
3 1 2.70985 4.22772 32.3303
4 1 4.44152 1.91232 30.4969
5 1 1.7819 2.91697 30.8349
6 1 1.52317 0.193023 30.6702
7 1 2.82611 1.48363 28.8653
8 1 4.88971 3.25274 28.8572
9 1 7.17441 4.18602 28.744
10 1 5.72545 1.85356 26.8581
11 1 3.32666 2.33747 26.757
12 1 2.592 -0.062194 26.6903
13 1 2.33139 1.54338 24.7006
14 1 4.75128 3.50237 24.7117
15 1 5.33141 0.23946 25.4217
16 2 6.17746 2.13525 16.0839
17 2 2.49255 4.3064 16.4257
18 2 3.65153 2.02288 17.1034
19 2 5.05836 4.27796 17.3932
20 2 3.65941 3.63189 14.271
21 2 2.29107 1.50959 13.8645
22 2 6.17632 3.80592 13.4662
23 2 4.81889 1.64361 13.4444
24 2 5.30419 2.89323 10.7698
25 2 3.97839 0.664091 10.3848
26 2 2.61937 2.85348 10.5143
27 2 1.39672 0.617695 10.9153
28 2 1.28803 2.20904 7.96262
29 2 2.6533 4.46795 7.85626
30 2 3.92894 2.20898 7.06751
31 2 2.53693 0.0300352 7.18203
32 2 3.98134 3.69524 3.87712
33 2 2.79041 1.46507 4.30597
34 2 6.67277 3.8051 5.24925
35 2 5.47809 1.64031 5.00744
ITEM: TIMESTEP
300
ITEM: NUMBER OF ATOMS
35
ITEM: BOX BOUNDS xy xz yz pp pp pp
0.0000000000000000e+00 7.6685730000000003e+00 2.5561910000000001e+00
0.0000000000000000e+00 4.4274529999999999e+00 0.0000000000000000e+00
0.0000000000000000e+00 3.6699264999999997e+01 0.0000000000000000e+00
ITEM: ATOMS id type x y z
1 1 2.51289 1.08526 32.3977
2 1 5.06065 3.01916 32.3907
3 1 2.86757 4.12528 32.6586
4 1 4.59576 1.41993 30.5626
5 1 1.5483 2.98249 30.4533
6 1 1.32659 0.165703 30.5126
7 1 2.51884 1.42864 28.8077
8 1 4.90862 3.29239 28.7104
9 1 7.58429 4.41006 28.3358
10 1 6.12175 2.23284 27.0509
11 1 3.76368 2.55477 26.9509
12 1 5.46788 4.9362 26.9257
13 1 2.05729 1.73049 25.0135
14 1 4.91434 2.94677 24.7706
15 1 -0.00872067 0.181751 25.861
16 2 5.94976 2.33297 16.326
17 2 7.24878 4.46712 16.8716
18 2 3.39602 2.14424 17.6935
19 2 4.79004 4.18151 18.1921
20 2 3.9264 3.70575 15.0907
21 2 2.44707 1.54324 14.3692
22 2 6.30901 3.62769 13.0717
23 2 4.84279 1.46981 13.2274
24 2 5.31739 2.82282 10.8111
25 2 3.78111 0.638917 9.66968
26 2 2.74698 2.83494 10.7197
27 2 1.39328 0.641191 11.7397
28 2 1.30835 2.24699 8.41296
29 2 0.104679 0.0348875 7.7605
30 2 3.58395 2.32197 6.26683
31 2 2.39241 0.118186 6.32458
32 2 4.21972 3.71426 3.14514
33 2 3.03044 1.41637 3.42271
34 2 7.17262 3.59576 5.00804
35 2 5.63107 1.50821 4.76269
ITEM: TIMESTEP
400
ITEM: NUMBER OF ATOMS
35
ITEM: BOX BOUNDS xy xz yz pp pp pp
0.0000000000000000e+00 7.6685730000000003e+00 2.5561910000000001e+00
0.0000000000000000e+00 4.4274529999999999e+00 0.0000000000000000e+00
0.0000000000000000e+00 3.6699264999999997e+01 0.0000000000000000e+00
ITEM: ATOMS id type x y z
1 1 2.1029 1.5692 32.2101
2 1 4.91032 2.67765 32.2824
3 1 2.4011 4.21271 32.7655
4 1 4.26165 1.20767 30.6087
5 1 6.81651 3.27919 30.757
6 1 1.29868 -0.248413 30.673
7 1 2.37885 1.62051 29.2874
8 1 5.2246 3.18485 28.936
9 1 5.1544 0.385704 28.1123
10 1 6.49666 2.37426 27.2145
11 1 3.45667 2.60617 27.2174
12 1 2.65932 -0.0460683 26.5788
13 1 2.43181 1.88794 24.9012
14 1 5.25406 2.77634 24.8776
15 1 5.32343 0.36764 25.5549
16 2 5.78678 2.15631 16.4155
17 2 4.2088 0.205955 16.818
18 2 2.79525 2.37597 17.9389
19 2 4.50554 4.39385 18.4526
20 2 3.96246 3.83364 15.4575
21 2 2.68053 1.56497 15.1147
22 2 6.68115 3.49556 13.2911
23 2 4.53561 1.85609 13.2419
24 2 5.1463 2.5174 10.5578
25 2 3.32399 0.749382 9.38899
26 2 2.7133 3.13618 11.0041
27 2 2.00699 0.376951 12.3758
28 2 6.35421 2.23137 8.15144
29 2 0.228968 -0.0952916 7.27538
30 2 3.9608 2.00058 6.34666
31 2 2.51629 -0.0691821 5.69158
32 2 4.51042 3.60501 3.18927
33 2 3.4038 1.31898 3.02342
34 2 7.10011 3.70686 4.38568
35 2 5.79036 1.50907 4.56373
ITEM: TIMESTEP
500
ITEM: NUMBER OF ATOMS
35
ITEM: BOX BOUNDS xy xz yz pp pp pp
0.0000000000000000e+00 7.6685730000000003e+00 2.5561910000000001e+00
0.0000000000000000e+00 4.4274529999999999e+00 0.0000000000000000e+00
0.0000000000000000e+00 3.6699264999999997e+01 0.0000000000000000e+00
ITEM: ATOMS id type x y z
1 1 2.29622 1.48004 32.0531
2 1 4.82332 2.75631 32.6319
3 1 4.66313 0.339742 32.8512
4 1 4.40059 1.40912 30.4571
5 1 6.47958 3.33662 30.8438
6 1 3.81394 4.05762 30.7722
7 1 2.05616 1.32821 28.967
8 1 5.20294 3.30941 28.8253
9 1 4.9059 0.305148 28.3434
10 1 6.22086 2.0566 26.6969
11 1 3.67152 2.40574 27.386
12 1 2.74632 0.27316 26.8652
13 1 3.29643 2.08428 25.2398
14 1 5.26541 2.91059 24.6862
15 1 0.172087 -0.0256287 25.8542
16 2 5.24483 2.13033 16.5479
17 2 3.90978 -0.128044 16.8878
18 2 2.50616 2.64671 18.2611
19 2 1.7138 0.11161 18.116
20 2 3.72459 4.15694 15.5772
21 2 2.80617 1.62438 15.3543
22 2 6.95912 3.57065 14.0901
23 2 4.71389 1.98264 13.185
24 2 5.42514 1.81763 10.4209
25 2 2.78756 0.71227 8.93086
26 2 2.42263 3.75125 10.72
27 2 2.37126 0.476795 12.5871
28 2 6.23122 2.25818 7.47269
29 2 2.90642 4.14005 7.47319
30 2 3.86144 1.90456 6.31172
31 2 5.23624 4.20733 5.92582
32 2 4.83008 3.56645 3.14213
33 2 3.5466 1.28307 2.94717
34 2 2.45655 3.51238 4.0108
35 2 6.05697 1.51166 4.5478
ITEM: TIMESTEP
600
ITEM: NUMBER OF ATOMS
35
ITEM: BOX BOUNDS xy xz yz pp pp pp
0.0000000000000000e+00 7.6685730000000003e+00 2.5561910000000001e+00
0.0000000000000000e+00 4.4274529999999999e+00 0.0000000000000000e+00
0.0000000000000000e+00 3.6699264999999997e+01 0.0000000000000000e+00
ITEM: ATOMS id type x y z
1 1 2.46357 1.17442 31.731
2 1 4.73026 3.2093 32.805
3 1 4.86397 0.794244 32.2701
4 1 4.24334 1.77627 30.0978
5 1 6.30826 3.08938 31.0688
6 1 3.5628 4.00665 30.6999
7 1 1.84953 1.39976 29.4561
8 1 5.39181 3.46911 28.9698
9 1 7.57439 4.37242 28.6952
10 1 6.12113 1.98514 26.8507
11 1 3.61744 2.44078 27.6887
12 1 5.15882 4.42365 26.7605
13 1 3.24856 1.65287 25.0603
14 1 5.86563 3.60733 24.7329
15 1 2.52957 4.07666 26.0747
16 2 4.96591 2.13952 16.6607
17 2 6.57811 4.08676 17.0725
18 2 2.66088 2.30177 18.7345
19 2 1.32444 0.190616 18.1612
20 2 3.74338 4.30321 15.1929
21 2 2.86911 1.94228 15.0303
22 2 6.50061 3.93858 13.7248
23 2 5.03393 1.90345 13.1748
24 2 5.51245 1.97757 10.1822
25 2 2.68201 0.584552 9.14861
26 2 2.29219 3.51721 10.7033
27 2 2.31693 0.832771 11.9252
28 2 6.08865 2.29081 7.52991
29 2 3.02314 3.94948 7.98502
30 2 3.60258 1.98785 5.77649
31 2 5.30631 3.99072 5.75086
32 2 5.36906 3.29485 3.01179
33 2 3.7528 1.36885 3.19249
34 2 2.47973 3.69262 4.48129
35 2 1.1061 1.31158 4.89932
ITEM: TIMESTEP
700
ITEM: NUMBER OF ATOMS
35
ITEM: BOX BOUNDS xy xz yz pp pp pp
0.0000000000000000e+00 7.6685730000000003e+00 2.5561910000000001e+00
0.0000000000000000e+00 4.4274529999999999e+00 0.0000000000000000e+00
0.0000000000000000e+00 3.6699264999999997e+01 0.0000000000000000e+00
ITEM: ATOMS id type x y z
1 1 2.84419 1.11126 31.8718
2 1 4.03201 3.56522 32.8953
3 1 5.39169 1.28083 32.2194
4 1 4.2541 1.27366 30.0622
5 1 6.23623 3.25689 31.3302
6 1 3.35491 3.5585 30.6023
7 1 1.65994 1.88392 29.1121
8 1 5.45108 3.70155 29.2479
9 1 2.71229 4.31154 28.3451
10 1 5.83682 2.43473 26.8283
11 1 3.66154 1.8119 27.8387
12 1 2.197 -0.0281958 26.8528
13 1 3.38085 1.66957 25.4366
14 1 6.02861 3.44839 24.9215
15 1 2.6446 3.96219 25.9514
16 2 5.01064 2.13112 16.5297
17 2 6.52884 4.23624 16.8581
18 2 3.2098 1.8057 18.42
19 2 1.16148 0.143752 18.0229
20 2 1.19566 -0.0129586 14.516
21 2 2.49072 2.05355 14.8768
22 2 6.22314 4.1702 13.6484
23 2 5.13085 1.91145 12.7841
24 2 4.54748 2.4966 10.1544
25 2 3.28513 0.575847 8.99062
26 2 2.66899 3.57574 11.0637
27 2 2.19955 0.880914 11.6211
28 2 6.022 1.92055 7.96902
29 2 2.97633 3.73553 8.02017
30 2 3.88277 1.68926 6.49536
31 2 5.16408 3.87702 6.03415
32 2 5.62646 3.06706 2.9882
33 2 3.43277 1.4905 3.42611
34 2 2.66976 3.77285 4.57372
35 2 1.28702 1.58948 5.151
ITEM: TIMESTEP
800
ITEM: NUMBER OF ATOMS
35
ITEM: BOX BOUNDS xy xz yz pp pp pp
0.0000000000000000e+00 7.6685730000000003e+00 2.5561910000000001e+00
0.0000000000000000e+00 4.4274529999999999e+00 0.0000000000000000e+00
0.0000000000000000e+00 3.6699264999999997e+01 0.0000000000000000e+00
ITEM: ATOMS id type x y z
1 1 2.78525 1.44711 31.9652
2 1 3.37308 3.46127 32.9014
3 1 5.60489 1.28903 32.3414
4 1 4.72942 0.924459 30.1306
5 1 6.20119 3.72456 31.9482
6 1 3.41566 3.1378 30.4525
7 1 1.64894 1.857 29.6373
8 1 5.21494 4.20629 29.2004
9 1 2.54657 3.91591 27.9523
10 1 6.21249 2.27968 27.0879
11 1 3.99491 1.85053 27.9146
12 1 2.32253 0.384067 26.8469
13 1 3.8119 1.59515 25.5373
14 1 4.94986 3.24107 24.6055
15 1 2.69285 4.12679 25.5693
16 2 5.05079 2.0687 15.4566
17 2 6.34388 4.10464 16.2205
18 2 3.47164 1.82602 17.8152
19 2 1.26206 0.134653 17.3925
20 2 3.62104 4.23202 14.1991
21 2 2.4456 2.00158 15.1973
22 2 6.19732 4.35951 13.8995
23 2 4.77149 2.30543 12.6972
24 2 4.46224 2.68666 10.0486
25 2 3.32724 0.0413575 9.11996
26 2 7.11726 4.25751 11.5817
27 2 2.25155 0.779228 11.5935
28 2 1.3172 1.73038 8.64681
29 2 3.02548 3.53178 7.82256
30 2 4.11252 1.46312 6.6018
31 2 5.18163 3.84133 6.37368
32 2 5.60156 2.90081 3.36954
33 2 3.19473 1.21568 3.74455
34 2 3.24786 4.01801 4.5112
35 2 1.33026 1.9696 5.64987
ITEM: TIMESTEP
900
ITEM: NUMBER OF ATOMS
35
ITEM: BOX BOUNDS xy xz yz pp pp pp
0.0000000000000000e+00 7.6685730000000003e+00 2.5561910000000001e+00
0.0000000000000000e+00 4.4274529999999999e+00 0.0000000000000000e+00
0.0000000000000000e+00 3.6699264999999997e+01 0.0000000000000000e+00
ITEM: ATOMS id type x y z
1 1 2.57679 1.34353 31.8232
2 1 3.57605 3.54852 32.7018
3 1 4.95498 1.53645 32.4239
4 1 4.72212 0.581416 30.3531
5 1 6.22064 3.47473 31.8883
6 1 3.95087 3.2583 30.56
7 1 1.37809 2.1612 29.8692
8 1 5.53124 4.07346 29.0077
9 1 2.68289 4.14899 28.0121
10 1 6.23567 2.26896 26.5158
11 1 4.0491 2.0796 28.3026
12 1 4.68399 4.34032 27.0557
13 1 3.74633 1.62244 25.7567
14 1 5.03836 3.71774 24.8379
15 1 2.56042 3.88034 25.4684
16 2 4.90612 2.01235 15.1627
17 2 6.2883 3.74556 16.9994
18 2 3.74643 2.23556 17.5179
19 2 1.18803 0.221359 16.5286
20 2 3.48631 4.27541 14.0797
21 2 2.33965 1.98972 15.1694
22 2 3.55923 -0.0163694 13.6079
23 2 4.54624 2.51086 12.348
24 2 3.88711 2.51661 9.94877
25 2 6.16163 4.38829 9.08864
26 2 7.4411 3.91575 11.2349
27 2 1.67328 1.43963 11.6831
28 2 1.40132 1.42614 9.12096
29 2 2.96192 3.66644 7.70003
30 2 4.5825 1.55601 6.37451
31 2 5.21307 4.04685 6.70366
32 2 5.53171 2.51985 3.93656
33 2 3.31174 0.83976 4.00678
34 2 3.12311 4.15012 4.43943
35 2 2.03834 1.96918 6.12005
ITEM: TIMESTEP
1000
ITEM: NUMBER OF ATOMS
35
ITEM: BOX BOUNDS xy xz yz pp pp pp
0.0000000000000000e+00 7.6685730000000003e+00 2.5561910000000001e+00
0.0000000000000000e+00 4.4274529999999999e+00 0.0000000000000000e+00
0.0000000000000000e+00 3.6699264999999997e+01 0.0000000000000000e+00
ITEM: ATOMS id type x y z
1 1 2.20103 1.12596 31.5001
2 1 3.56057 4.0905 32.8874
3 1 4.46709 1.50152 32.784
4 1 5.19571 0.513918 30.5955
5 1 6.20952 3.35515 31.87
6 1 4.09911 2.79071 30.5553
7 1 1.64627 1.99318 29.0346
8 1 5.36745 4.48209 29.3256
9 1 2.4865 4.17698 28.079
10 1 5.95789 2.07264 26.5872
11 1 3.97215 2.11997 28.2584
12 1 4.78294 4.22601 26.9082
13 1 3.66778 1.76015 26.1236
14 1 5.55402 3.93117 24.7109
15 1 2.605 4.04348 25.7833
16 2 4.86678 2.38764 15.1104
17 2 6.24527 3.45396 17.3446
18 2 3.83972 2.06775 17.691
19 2 1.23406 0.489061 16.7188
20 2 3.33892 4.37852 13.6363
21 2 2.25323 2.33863 14.7074
22 2 3.29207 -0.123454 13.5843
23 2 4.34341 2.33309 12.0244
24 2 3.86159 2.33223 9.23771
25 2 5.778 4.27093 9.1939
26 2 7.38847 4.20648 11.1383
27 2 1.91909 1.57314 12.2182
28 2 1.09051 1.64495 9.20494
29 2 3.17014 3.91322 7.80266
30 2 4.91925 1.33996 6.64634
31 2 5.57892 3.94004 6.35303
32 2 5.5693 2.23695 4.17829
33 2 3.05783 0.725723 3.9269
34 2 3.18535 3.83198 4.65713
35 2 2.50245 2.01653 6.24638
ITEM: TIMESTEP
1100
ITEM: NUMBER OF ATOMS
35
ITEM: BOX BOUNDS xy xz yz pp pp pp
0.0000000000000000e+00 7.6685730000000003e+00 2.5561910000000001e+00
0.0000000000000000e+00 4.4274529999999999e+00 0.0000000000000000e+00
0.0000000000000000e+00 3.6699264999999997e+01 0.0000000000000000e+00
ITEM: ATOMS id type x y z
1 1 2.13323 1.23483 31.3936
2 1 3.29767 4.04701 32.6559
3 1 4.10594 1.59732 32.9997
4 1 5.18167 0.256572 30.4819
5 1 6.11401 3.33274 31.8148
6 1 4.00821 2.70131 30.7093
7 1 1.57764 2.06988 28.9559
8 1 2.87838 -0.346895 29.6985
9 1 2.64582 4.48098 28.2077
10 1 6.1415 2.00295 26.1447
11 1 4.04146 2.13124 28.5087
12 1 5.14526 4.48621 27.3582
13 1 3.18098 1.76398 25.6609
14 1 5.63177 3.85527 25.1181
15 1 2.99233 4.29705 25.7424
16 2 4.64708 2.30225 15.2648
17 2 6.46336 3.38658 17.1468
18 2 3.60601 1.72606 17.5473
19 2 1.31403 0.381046 16.8006
20 2 3.15451 4.83273 13.7128
21 2 2.22989 2.18549 15.0344
22 2 5.73425 4.37132 13.9994
23 2 5.01963 2.81791 11.9361
24 2 3.95774 1.64613 9.44409
25 2 4.92634 3.96754 9.3806
26 2 7.43837 4.38027 10.9211
27 2 2.28803 1.83857 11.8062
28 2 1.31256 2.04392 9.49665
29 2 3.10512 4.15661 7.85512
30 2 4.76116 1.64666 6.45941
31 2 5.89697 3.78798 6.04609
32 2 5.61266 2.02272 3.78755
33 2 3.01305 0.808424 3.64205
34 2 3.35914 3.74993 4.59081
35 2 2.20016 1.67839 6.59221
ITEM: TIMESTEP
1200
ITEM: NUMBER OF ATOMS
35
ITEM: BOX BOUNDS xy xz yz pp pp pp
0.0000000000000000e+00 7.6685730000000003e+00 2.5561910000000001e+00
0.0000000000000000e+00 4.4274529999999999e+00 0.0000000000000000e+00
0.0000000000000000e+00 3.6699264999999997e+01 0.0000000000000000e+00
ITEM: ATOMS id type x y z
1 1 1.92804 1.2101 31.8228
2 1 3.13857 3.79332 32.784
3 1 4.17353 1.35227 32.6568
4 1 5.06218 0.578001 30.4495
5 1 5.68322 3.45556 32.379
6 1 3.71872 2.63166 30.5763
7 1 1.63069 1.8272 29.4516
8 1 5.50487 3.96126 29.6829
9 1 0.204546 -0.0174988 27.8629
10 1 6.08847 1.96655 26.7754
11 1 4.11976 2.51806 27.8749
12 1 2.8119 0.397894 27.4009
13 1 4.06741 1.75437 25.6408
14 1 5.36846 4.13258 25.2127
15 1 2.86269 4.09333 25.3767
16 2 4.63278 2.14656 15.4183
17 2 6.43019 3.53444 17.1796
18 2 3.35555 1.52192 17.66
19 2 1.16765 -0.0821771 16.6599
20 2 0.594571 0.4191 13.5086
21 2 2.13359 2.37746 14.7336
22 2 5.91072 4.53474 14.7581
23 2 5.55254 3.45873 12.1481
24 2 3.96248 1.1826 9.05036
25 2 4.435 4.08847 9.4957
26 2 7.9549 4.1518 11.2896
27 2 3.15987 1.6017 12.3047
28 2 1.49776 2.41844 9.12838
29 2 2.51606 3.84791 7.60914
30 2 4.26961 2.31258 6.27433
31 2 6.01537 3.9422 5.72567
32 2 5.83201 1.99375 3.44436
33 2 3.31129 0.971629 3.64949
34 2 3.20238 3.67506 4.50784
35 2 1.60456 1.14586 6.74395
ITEM: TIMESTEP
1300
ITEM: NUMBER OF ATOMS
35
ITEM: BOX BOUNDS xy xz yz pp pp pp
0.0000000000000000e+00 7.6685730000000003e+00 2.5561910000000001e+00
0.0000000000000000e+00 4.4274529999999999e+00 0.0000000000000000e+00
0.0000000000000000e+00 3.6699264999999997e+01 0.0000000000000000e+00
ITEM: ATOMS id type x y z
1 1 1.73896 1.3815 32.0221
2 1 2.8151 3.26936 32.6379
3 1 4.39539 1.22061 32.5165
4 1 5.03068 0.562274 30.436
5 1 5.4146 3.48127 32.1653
6 1 3.44523 2.61699 30.4526
7 1 1.51097 1.67394 29.2407
8 1 5.49123 4.09152 29.9907
9 1 5.06488 0.107431 28.2165
10 1 1.89843 2.65839 26.9506
11 1 4.29954 2.63193 27.9832
12 1 2.70198 0.477998 27.4564
13 1 4.57909 1.87078 25.6411
14 1 5.14395 4.05986 25.2573
15 1 2.6835 3.71469 25.4545
16 2 4.8733 2.33345 15.3086
17 2 5.99675 2.89979 17.7622
18 2 3.26806 1.79341 17.7762
19 2 0.786958 0.207334 16.6405
20 2 0.990392 0.260684 13.8167
21 2 2.25391 2.57273 14.2899
22 2 3.22785 0.213886 15.4723
23 2 5.79054 2.97707 12.2931
24 2 4.00373 1.37901 9.01595
25 2 4.58776 3.94341 8.93472
26 2 2.78441 4.17785 10.9801
27 2 3.8151 1.59817 12.2045
28 2 1.327 2.12164 9.94671
29 2 2.09561 3.6704 7.67055
30 2 4.08166 2.1292 6.48497
31 2 6.04408 3.91346 5.49948
32 2 5.9988 2.23386 3.71915
33 2 3.40215 1.24487 3.46005
34 2 3.20852 3.96391 3.81511
35 2 1.38622 1.12365 6.03227
ITEM: TIMESTEP
1400
ITEM: NUMBER OF ATOMS
35
ITEM: BOX BOUNDS xy xz yz pp pp pp
0.0000000000000000e+00 7.6685730000000003e+00 2.5561910000000001e+00
0.0000000000000000e+00 4.4274529999999999e+00 0.0000000000000000e+00
0.0000000000000000e+00 3.6699264999999997e+01 0.0000000000000000e+00
ITEM: ATOMS id type x y z
1 1 1.78326 1.15434 31.7722
2 1 2.80401 3.55433 32.5314
3 1 3.87092 1.3282 32.9306
4 1 4.87835 0.121895 30.4884
5 1 5.37103 3.32432 32.0816
6 1 3.71372 2.39723 30.5196
7 1 1.49504 2.31677 29.592
8 1 5.27176 4.2154 29.7971
9 1 0.247263 0.0402392 27.7088
10 1 6.44106 2.62956 26.957
11 1 4.14573 2.49522 28.2752
12 1 2.74556 0.400981 27.5842
13 1 4.60739 1.51865 26.0399
14 1 3.04236 0.0738707 25.2658
15 1 3.10638 3.96643 25.3011
16 2 4.94806 2.42255 15.0755
17 2 5.64747 2.81438 18.0182
18 2 3.24418 1.93187 17.5785
19 2 0.534705 0.209156 17.0322
20 2 1.32836 0.168865 13.3381
21 2 2.38381 2.65925 14.8975
22 2 3.3101 0.260011 15.4916
23 2 5.92548 3.13924 12.6317
24 2 4.05197 1.60553 9.34963
25 2 4.46362 4.28858 8.19466
26 2 3.04669 3.89455 10.8576
27 2 3.39848 1.3551 12.1442
28 2 1.51919 1.70579 10.3924
29 2 1.87969 3.02752 8.21234
30 2 3.90705 2.25886 6.21343
31 2 6.25521 4.05198 5.55653
32 2 5.8378 2.53909 3.29178
33 2 3.40861 1.25802 3.29421
34 2 3.53938 4.06001 3.45718
35 2 1.33984 1.05604 5.94698
ITEM: TIMESTEP
1500
ITEM: NUMBER OF ATOMS
35
ITEM: BOX BOUNDS xy xz yz pp pp pp
0.0000000000000000e+00 7.6685730000000003e+00 2.5561910000000001e+00
0.0000000000000000e+00 4.4274529999999999e+00 0.0000000000000000e+00
0.0000000000000000e+00 3.6699264999999997e+01 0.0000000000000000e+00
ITEM: ATOMS id type x y z
1 1 1.55892 1.12161 32.0504
2 1 2.86919 3.83986 32.5937
3 1 3.95097 1.23075 32.9626
4 1 4.91645 0.12755 30.169
5 1 5.68802 3.2857 32.2517
6 1 3.75305 1.98652 30.6848
7 1 1.12878 2.32469 29.4674
8 1 4.75247 4.49363 29.7853
9 1 0.303222 0.216454 27.9023
10 1 6.55631 2.68877 26.9397
11 1 4.2413 2.29484 28.3731
12 1 2.71519 0.531053 27.4096
13 1 4.44493 1.89592 25.8347
14 1 3.20851 -0.287083 25.0501
15 1 3.30694 3.92916 25.7815
16 2 4.95895 1.87504 15.08
17 2 5.77026 3.49072 17.6181
18 2 2.88646 1.66716 17.8685
19 2 0.922748 0.20927 17.0875
20 2 0.694178 0.255509 13.4197
21 2 2.45665 2.77497 15.4998
22 2 3.05245 0.227075 15.1679
23 2 6.08366 3.1418 12.7436
24 2 4.47096 1.55504 9.10774
25 2 4.14105 4.64568 8.03522
26 2 3.43521 3.3148 10.8193
27 2 3.72409 1.44907 12.6769
28 2 1.32933 1.50062 10.8319
29 2 1.88237 2.77215 8.08064
30 2 3.85091 2.81129 5.92086
31 2 6.56682 3.79583 5.54471
32 2 5.90772 2.74648 3.03792
33 2 3.39119 1.12522 3.54032
34 2 3.58158 4.10401 3.40836
35 2 0.908606 1.1948 5.34115
ITEM: TIMESTEP
1600
ITEM: NUMBER OF ATOMS
35
ITEM: BOX BOUNDS xy xz yz pp pp pp
0.0000000000000000e+00 7.6685730000000003e+00 2.5561910000000001e+00
0.0000000000000000e+00 4.4274529999999999e+00 0.0000000000000000e+00
0.0000000000000000e+00 3.6699264999999997e+01 0.0000000000000000e+00
ITEM: ATOMS id type x y z
1 1 1.48804 1.54298 32.016
2 1 2.97514 3.19962 32.811
3 1 4.41529 1.27085 32.7144
4 1 7.30352 4.4495 30.7201
5 1 5.20583 3.7203 31.8822
6 1 3.53692 2.27948 30.3556
7 1 6.35298 2.06432 29.7518
8 1 4.96477 4.35799 29.6451
9 1 5.17247 0.52788 28.3429
10 1 1.70824 2.54575 27.2733
11 1 3.75202 2.89105 27.9059
12 1 2.78618 0.321067 27.3573
13 1 4.39575 1.77888 25.9316
14 1 5.93502 3.52198 25.3273
15 1 3.49069 4.21189 25.6532
16 2 4.80575 1.96706 15.6929
17 2 6.01461 3.49733 17.4109
18 2 3.41255 1.78688 18.2491
19 2 0.806036 0.30597 17.3627
20 2 0.71173 -0.205288 13.3337
21 2 2.46543 2.81339 15.4674
22 2 2.58073 0.132488 15.1016
23 2 6.06617 3.20756 12.8714
24 2 4.30178 1.15825 8.22811
25 2 1.70697 -0.184868 8.06737
26 2 3.75335 3.04873 10.4084
27 2 3.65374 1.81685 12.9712
28 2 1.45147 1.25159 10.9175
29 2 1.54293 3.08377 8.12163
30 2 3.93331 2.88102 5.85736
31 2 6.38219 4.32672 5.73876
32 2 6.09631 2.74036 2.89625
33 2 3.40831 1.37065 3.73795
34 2 3.31902 3.82999 2.96519
35 2 1.09442 1.34821 5.27895
ITEM: TIMESTEP
1700
ITEM: NUMBER OF ATOMS
35
ITEM: BOX BOUNDS xy xz yz pp pp pp
0.0000000000000000e+00 7.6685730000000003e+00 2.5561910000000001e+00
0.0000000000000000e+00 4.4274529999999999e+00 0.0000000000000000e+00
0.0000000000000000e+00 3.6699264999999997e+01 0.0000000000000000e+00
ITEM: ATOMS id type x y z
1 1 1.96807 1.73347 32.0596
2 1 2.85801 3.5455 33.2999
3 1 3.98357 1.29392 32.6608
4 1 2.74502 4.01799 30.6511
5 1 4.92753 3.61971 32.0269
6 1 3.71774 2.0317 30.1534
7 1 6.42782 2.53777 29.7801
8 1 2.49466 0.240893 29.7061
9 1 4.75092 0.609944 28.3326
10 1 6.11566 2.21733 27.4765
11 1 3.6469 3.21989 27.9279
12 1 2.7123 0.378168 27.127
13 1 4.26574 1.60057 25.8679
14 1 6.52013 3.12413 25.3717
15 1 3.63192 4.26122 25.756
16 2 4.92876 1.6993 15.6355
17 2 6.22663 3.45669 18.2014
18 2 3.94939 2.06821 18.0501
19 2 1.14188 0.233152 18.1556
20 2 0.608181 0.376159 12.705
21 2 2.01753 3.064 15.4176
22 2 2.62009 0.175518 15.553
23 2 5.64591 3.09351 12.5331
24 2 4.11847 1.43429 7.92365
25 2 4.16367 4.365 8.04498
26 2 4.03337 2.4845 10.2417
27 2 3.32549 1.49406 13.0127
28 2 1.67385 1.18015 10.5146
29 2 6.48762 2.34824 8.43152
30 2 3.73978 2.99567 5.57027
31 2 3.98379 -0.0260774 5.54752
32 2 5.74783 2.73139 3.19898
33 2 3.35789 1.26793 3.03881
34 2 3.31889 4.36359 3.0037
35 2 1.58662 1.30953 5.71968
ITEM: TIMESTEP
1800
ITEM: NUMBER OF ATOMS
35
ITEM: BOX BOUNDS xy xz yz pp pp pp
0.0000000000000000e+00 7.6685730000000003e+00 2.5561910000000001e+00
0.0000000000000000e+00 4.4274529999999999e+00 0.0000000000000000e+00
0.0000000000000000e+00 3.6699264999999997e+01 0.0000000000000000e+00
ITEM: ATOMS id type x y z
1 1 1.54689 1.69884 31.9802
2 1 3.01046 3.80917 33.2756
3 1 3.95692 1.30337 32.7051
4 1 2.93422 4.37955 30.9547
5 1 5.33477 3.61346 32.2067
6 1 4.32428 1.96747 30.4299
7 1 6.39403 2.84609 29.8072
8 1 2.15538 0.275287 29.4448
9 1 4.63166 0.323757 28.5106
10 1 5.82557 2.25853 27.6609
11 1 3.28489 2.38148 28.09
12 1 2.60926 0.317469 27.0626
13 1 4.30714 1.95649 25.5935
14 1 6.74387 2.93736 25.5327
15 1 0.996929 0.104676 25.43
16 2 5.22796 1.58769 15.2669
17 2 6.56335 3.47306 18.475
18 2 3.89533 1.89142 17.7155
19 2 1.45112 0.723619 18.3453
20 2 0.426922 0.251633 12.8556
21 2 2.42698 3.37519 15.3653
22 2 4.63093 4.32489 15.9573
23 2 5.44558 3.28148 12.7182
24 2 3.89893 1.26064 7.86572
25 2 3.89723 3.96541 7.77466
26 2 4.33824 2.13618 10.6309
27 2 2.79144 1.47411 13.214
28 2 1.94901 0.747777 10.3238
29 2 6.71007 3.16377 8.00072
30 2 3.86513 2.63744 5.22201
31 2 6.70578 4.35982 5.31815
32 2 5.63665 2.8038 3.50528
33 2 3.19997 1.25103 2.63165
34 2 0.787539 0.261547 3.35288
35 2 1.43758 1.51269 5.78939
ITEM: TIMESTEP
1900
ITEM: NUMBER OF ATOMS
35
ITEM: BOX BOUNDS xy xz yz pp pp pp
0.0000000000000000e+00 7.6685730000000003e+00 2.5561910000000001e+00
0.0000000000000000e+00 4.4274529999999999e+00 0.0000000000000000e+00
0.0000000000000000e+00 3.6699264999999997e+01 0.0000000000000000e+00
ITEM: ATOMS id type x y z
1 1 1.53727 1.66192 32.1712
2 1 3.30587 3.77687 33.284
3 1 4.35779 1.44586 32.6952
4 1 2.83433 4.44458 31.2036
5 1 5.53209 3.96349 31.7828
6 1 3.92719 2.28401 30.3091
7 1 6.32535 2.4545 29.9711
8 1 2.15914 0.347123 29.3597
9 1 4.92576 -0.0517242 28.2302
10 1 5.61234 2.10258 27.8412
11 1 3.03665 2.29985 27.9911
12 1 2.96789 -0.0440387 26.8904
13 1 3.9308 2.38958 25.9211
14 1 6.77942 2.75537 25.8632
15 1 0.682892 0.498078 25.6193
16 2 4.95628 1.73342 15.098
17 2 6.75163 3.59352 17.946
18 2 3.91742 1.87515 17.415
19 2 1.28386 0.881584 18.0932
20 2 0.267417 -0.179547 12.7462
21 2 2.48023 3.21169 15.7218
22 2 5.36007 4.44994 16.0139
23 2 5.43112 3.39342 13.264
24 2 3.86864 1.50513 8.02021
25 2 4.16184 4.11442 7.59668
26 2 4.45672 2.09395 10.539
27 2 2.65837 1.72594 13.4409
28 2 2.08696 0.315247 10.2326
29 2 6.32383 2.69695 8.21179
30 2 3.75331 2.81193 5.33451
31 2 6.31356 4.29588 5.55384
32 2 6.11925 3.04701 2.85301
33 2 3.13264 1.54297 3.04604
34 2 0.752936 -0.101899 3.3835
35 2 1.25933 1.42203 5.66059
ITEM: TIMESTEP
2000
ITEM: NUMBER OF ATOMS
35
ITEM: BOX BOUNDS xy xz yz pp pp pp
0.0000000000000000e+00 7.6685730000000003e+00 2.5561910000000001e+00
0.0000000000000000e+00 4.4274529999999999e+00 0.0000000000000000e+00
0.0000000000000000e+00 3.6699264999999997e+01 0.0000000000000000e+00
ITEM: ATOMS id type x y z
1 1 2.31648 2.14697 32.6635
2 1 3.51566 4.0534 32.9139
3 1 4.58097 1.60584 32.6497
4 1 0.172435 0.163095 30.4573
5 1 5.33791 4.20514 31.801
6 1 3.5298 2.06444 30.6141
7 1 6.37275 2.19882 30.2247
8 1 2.46157 -0.352964 29.2033
9 1 7.27169 4.07204 28.3585
10 1 5.39073 2.43143 27.8994
11 1 2.98177 1.90377 28.2125
12 1 2.4784 0.2496 26.5707
13 1 4.3355 2.74305 25.6745
14 1 1.82208 2.61301 25.9249
15 1 0.0949949 0.383529 26.4085
16 2 5.25329 1.11103 15.1133
17 2 6.48017 3.72527 18.1224
18 2 4.16295 2.39 18.0252
19 2 1.24392 0.682044 17.527
20 2 2.86366 4.63277 12.3798
21 2 2.92425 3.04696 15.3564
22 2 2.54109 0.403762 15.3726
23 2 5.26301 3.28045 13.2456
24 2 3.76659 1.3994 8.00309
25 2 3.87166 4.20193 7.91629
26 2 4.44957 2.02899 10.8025
27 2 2.70414 1.62105 12.9537
28 2 2.38017 0.252063 10.494
29 2 6.44464 2.33758 8.7255
30 2 3.58483 2.9888 5.63654
31 2 6.07658 4.13251 5.54004
32 2 6.02687 3.15091 2.86779
33 2 3.47622 1.43446 3.54728
34 2 3.46578 4.55313 3.02378
35 2 0.961271 1.42933 5.3624
ITEM: TIMESTEP
2100
ITEM: NUMBER OF ATOMS
35
ITEM: BOX BOUNDS xy xz yz pp pp pp
0.0000000000000000e+00 7.6685730000000003e+00 2.5561910000000001e+00
0.0000000000000000e+00 4.4274529999999999e+00 0.0000000000000000e+00
0.0000000000000000e+00 3.6699264999999997e+01 0.0000000000000000e+00
ITEM: ATOMS id type x y z
1 1 2.11905 2.15629 32.7611
2 1 3.68673 4.19966 32.9357
3 1 4.84038 2.2503 32.667
4 1 0.0876837 -0.19758 30.5707
5 1 5.84543 4.36064 31.8833
6 1 3.91687 2.11539 30.4812
7 1 6.35508 2.27073 30.4503
8 1 1.89466 0.00837542 29.4499
9 1 6.86936 4.01937 28.448
10 1 5.46693 1.87453 28.014
11 1 3.09378 1.74917 28.2048
12 1 2.65687 0.08747 26.5419
13 1 4.09885 2.62228 25.6701
14 1 1.68332 2.6677 26.0515
15 1 -0.0782615 0.434918 25.8465
16 2 5.19526 1.37731 15.1635
17 2 6.44822 4.01359 17.6662
18 2 3.94417 2.6024 18.0134
19 2 1.42483 0.892804 17.5403
20 2 2.75385 4.53152 12.5325
21 2 2.82084 2.76763 15.2204
22 2 2.89795 -0.172148 15.1549
23 2 5.4203 2.888 12.9158
24 2 3.8232 0.980033 7.92995
25 2 3.62492 3.96155 8.3514
26 2 4.53158 2.25136 10.3782
27 2 2.63578 1.92281 12.6367
28 2 2.59331 0.258754 10.5456
29 2 6.55131 3.00477 8.90401
30 2 3.11328 2.84939 5.68097
31 2 6.03761 4.3187 5.73013
32 2 5.85917 2.95682 3.53216
33 2 3.72118 1.46507 3.34251
34 2 3.7072 4.64624 2.97786
35 2 0.880945 1.23734 5.65832
ITEM: TIMESTEP
2200
ITEM: NUMBER OF ATOMS
35
ITEM: BOX BOUNDS xy xz yz pp pp pp
0.0000000000000000e+00 7.6685730000000003e+00 2.5561910000000001e+00
0.0000000000000000e+00 4.4274529999999999e+00 0.0000000000000000e+00
0.0000000000000000e+00 3.6699264999999997e+01 0.0000000000000000e+00
ITEM: ATOMS id type x y z
1 1 2.37314 2.51064 32.4988
2 1 3.2656 4.71554 33.096
3 1 4.93136 2.15095 32.6234
4 1 2.76491 4.35829 30.8167
5 1 3.17796 0.0743814 31.9933
6 1 3.81886 2.01209 30.2404
7 1 6.37598 2.09726 30.4565
8 1 2.30558 -0.161861 29.2784
9 1 6.9579 4.07406 28.1331
10 1 5.58838 1.49877 28.204
11 1 3.16435 2.29564 28.1775
12 1 4.91136 4.58793 26.7566
13 1 3.8204 2.28029 26.0071
14 1 1.25774 2.3653 26.1262
15 1 5.38024 0.309677 25.9218
16 2 5.24743 1.42656 15.2845
17 2 6.74026 4.24714 17.297
18 2 3.92862 2.50192 17.4214
19 2 1.55817 1.27228 17.4822
20 2 2.73841 4.45208 12.8172
21 2 2.68515 2.87852 15.2671
22 2 5.18292 4.09597 14.9215
23 2 5.24374 3.0333 12.3986
24 2 3.75048 1.279 7.88502
25 2 3.99611 4.4132 8.22072
26 2 4.58724 1.93082 10.3136
27 2 2.83942 1.46895 13.0449
28 2 2.42901 0.622093 10.5952
29 2 6.69504 2.66278 8.50351
30 2 3.24481 2.76626 5.65957
31 2 5.51387 4.22105 5.93211
32 2 6.20474 2.7203 3.65477
33 2 3.49709 1.47295 3.2185
34 2 1.13327 -0.0577865 3.61489
35 2 0.808303 1.30361 6.21816
ITEM: TIMESTEP
2300
ITEM: NUMBER OF ATOMS
35
ITEM: BOX BOUNDS xy xz yz pp pp pp
0.0000000000000000e+00 7.6685730000000003e+00 2.5561910000000001e+00
0.0000000000000000e+00 4.4274529999999999e+00 0.0000000000000000e+00
0.0000000000000000e+00 3.6699264999999997e+01 0.0000000000000000e+00
ITEM: ATOMS id type x y z
1 1 2.21097 2.64604 32.5616
2 1 3.55823 4.87413 33.0317
3 1 4.79671 2.58006 32.6518
4 1 2.80226 4.31266 30.5262
5 1 2.90392 0.244618 31.8624
6 1 3.8542 1.73562 30.4476
7 1 6.62941 2.38453 30.3879
8 1 2.32503 -0.590575 29.5633
9 1 6.91317 4.11505 28.4448
10 1 5.87003 1.79386 28.2313
11 1 3.41637 2.22422 28.1282
12 1 4.73143 4.72266 27.0312
13 1 3.83814 1.88768 25.7842
14 1 0.899981 2.54878 25.9831
15 1 5.22867 -0.184087 26.0601
16 2 5.20626 1.42191 14.9102
17 2 6.74681 4.23807 17.3876
18 2 4.5431 2.84988 17.3596
19 2 1.69778 1.30193 17.4639
20 2 2.75324 4.39846 12.4846
21 2 2.28765 3.05782 14.9866
22 2 4.71901 4.15023 15.2842
23 2 5.52892 2.97324 12.7729
24 2 3.97352 1.42729 8.07238
25 2 3.99164 4.05203 8.36894
26 2 4.74101 1.58431 10.2599
27 2 3.20558 1.46986 12.9383
28 2 1.93195 0.830579 10.7958
29 2 6.69604 2.96213 8.31651
30 2 2.98248 2.56671 5.77333
31 2 5.72215 4.14155 5.81064
32 2 6.2299 2.66256 3.48655
33 2 3.65049 1.12111 3.57761
34 2 0.980015 -0.0842444 3.86793
35 2 0.477011 1.54122 5.70475
ITEM: TIMESTEP
2400
ITEM: NUMBER OF ATOMS
35
ITEM: BOX BOUNDS xy xz yz pp pp pp
0.0000000000000000e+00 7.6685730000000003e+00 2.5561910000000001e+00
0.0000000000000000e+00 4.4274529999999999e+00 0.0000000000000000e+00
0.0000000000000000e+00 3.6699264999999997e+01 0.0000000000000000e+00
ITEM: ATOMS id type x y z
1 1 2.14165 2.93139 32.9236
2 1 0.766181 0.697377 33.1471
3 1 4.36076 2.67048 32.9621
4 1 2.8782 4.10267 30.7672
5 1 3.41498 0.317213 31.9031
6 1 4.09027 1.90484 30.2364
7 1 1.47777 1.9625 30.6567
8 1 4.91856 4.42374 29.5101
9 1 7.13154 4.31223 28.5349
10 1 6.07741 1.91381 28.1586
11 1 3.27813 2.47163 27.7036
12 1 2.70657 -0.284941 27.1472
13 1 3.01257 1.39644 25.5224
14 1 5.85755 2.36971 25.8933
15 1 2.61623 4.25718 26.0661
16 2 4.56403 1.3831 15.1754
17 2 7.32882 4.4696 17.4987
18 2 4.58944 2.74894 17.8233
19 2 2.03925 1.50362 17.4978
20 2 3.08352 3.93508 11.9099
21 2 1.909 3.06143 15.2256
22 2 4.58907 4.53647 15.0772
23 2 5.86 2.90754 12.7169
24 2 3.94465 1.13584 7.87359
25 2 3.87053 4.17589 8.28198
26 2 4.64502 1.90018 10.7701
27 2 3.21708 1.60874 13.012
28 2 2.44914 0.791729 10.3787
29 2 6.32429 2.98109 8.75527
30 2 2.65394 2.649 6.00996
31 2 5.64454 4.22158 5.91019
32 2 6.08243 2.79695 2.99787
33 2 3.72976 1.08214 3.46876
34 2 3.80615 3.97674 3.31251
35 2 5.45085 1.17542 5.77297
ITEM: TIMESTEP
2500
ITEM: NUMBER OF ATOMS
35
ITEM: BOX BOUNDS xy xz yz pp pp pp
0.0000000000000000e+00 7.6685730000000003e+00 2.5561910000000001e+00
0.0000000000000000e+00 4.4274529999999999e+00 0.0000000000000000e+00
0.0000000000000000e+00 3.6699264999999997e+01 0.0000000000000000e+00
ITEM: ATOMS id type x y z
1 1 1.70655 3.08414 33.3237
2 1 0.862098 0.689304 33.1075
3 1 4.45055 2.9569 32.283
4 1 2.78016 3.9152 30.953
5 1 3.23146 0.714337 32.1447
6 1 4.48129 1.9259 30.0148
7 1 1.26566 1.88977 31.2346
8 1 2.5876 0.277402 29.6807
9 1 4.81668 0.101369 28.4843
10 1 6.33256 2.02502 28.3708
11 1 3.75392 2.13857 27.5806
12 1 5.06105 4.169 27.2056
13 1 2.81059 1.07989 25.3236
14 1 5.5152 2.01881 25.5963
15 1 2.37948 4.1837 26.265
16 2 4.22688 1.55688 15.8046
17 2 5.24887 0.0953758 17.8731
18 2 4.7679 3.03886 17.7809
19 2 2.34519 1.58699 17.671
20 2 3.13457 4.22597 11.4603
21 2 1.88895 2.99069 15.3984
22 2 1.23693 -0.0540545 14.6964
23 2 6.14508 2.89121 12.8446
24 2 3.7553 1.43196 7.97875
25 2 3.41603 4.40768 8.32228
26 2 4.72277 2.24586 10.5228
27 2 3.27731 1.18833 12.9959
28 2 2.87217 0.582099 10.408
29 2 6.74705 2.59533 8.89318
30 2 2.63695 2.83129 5.87942
31 2 4.95216 3.7135 5.71949
32 2 6.42925 2.45614 3.09382
33 2 3.62067 1.26469 3.27785
34 2 3.77111 3.90411 3.12552
35 2 5.52221 1.18038 5.5695
ITEM: TIMESTEP
2600
ITEM: NUMBER OF ATOMS
35
ITEM: BOX BOUNDS xy xz yz pp pp pp
0.0000000000000000e+00 7.6685730000000003e+00 2.5561910000000001e+00
0.0000000000000000e+00 4.4274529999999999e+00 0.0000000000000000e+00
0.0000000000000000e+00 3.6699264999999997e+01 0.0000000000000000e+00
ITEM: ATOMS id type x y z
1 1 6.75869 3.18824 33.2957
2 1 0.750229 0.638089 33.024
3 1 4.80728 3.16551 32.0701
4 1 7.29798 4.39851 30.9077
5 1 3.26374 1.0801 32.4565
6 1 4.05342 2.28329 29.8182
7 1 1.57453 2.01755 30.6679
8 1 2.61811 -0.125704 29.9837
9 1 2.86371 4.20435 28.7311
10 1 1.43751 2.22449 28.2166
11 1 3.71218 1.70371 27.6502
12 1 4.64689 4.19378 27.4587
13 1 2.92364 1.0542 25.5628
14 1 5.48152 2.24037 26.0663
15 1 2.27005 3.47449 26.0759
16 2 4.18948 1.55013 15.7755
17 2 0.0463521 -0.0343525 17.9543
18 2 5.45476 3.60388 17.702
19 2 2.28206 1.60176 17.8147
20 2 2.90343 4.31398 11.486
21 2 6.27114 2.94327 15.5304
22 2 3.64661 4.25401 14.5145
23 2 6.10802 2.47509 12.9787
24 2 4.01811 1.34007 7.49974
25 2 1.23254 0.153161 8.58516
26 2 4.6959 2.37549 10.2546
27 2 3.79634 1.29594 13.1826
28 2 3.00764 0.331884 10.5349
29 2 1.44649 2.86414 8.46907
30 2 2.40321 2.63603 5.69312
31 2 5.11526 4.02868 5.60496
32 2 1.29902 2.4854 3.31839
33 2 3.70908 0.828953 3.59957
34 2 3.66846 4.17872 3.2135
35 2 5.2449 0.856423 5.45732
ITEM: TIMESTEP
2700
ITEM: NUMBER OF ATOMS
35
ITEM: BOX BOUNDS xy xz yz pp pp pp
0.0000000000000000e+00 7.6685730000000003e+00 2.5561910000000001e+00
0.0000000000000000e+00 4.4274529999999999e+00 0.0000000000000000e+00
0.0000000000000000e+00 3.6699264999999997e+01 0.0000000000000000e+00
ITEM: ATOMS id type x y z
1 1 7.15071 3.29898 32.6872
2 1 0.854483 1.15438 32.9632
3 1 4.51051 3.49811 32.2957
4 1 7.50658 4.5045 30.9028
5 1 3.50991 1.22182 32.6957
6 1 3.62784 2.19201 30.3882
7 1 1.10249 2.11551 30.6857
8 1 2.75163 0.00516309 29.6046
9 1 2.77631 4.18877 28.7117
10 1 0.979164 2.25576 28.2733
11 1 3.65602 1.44885 27.9214
12 1 4.87342 3.89708 27.3135
13 1 2.80237 1.00509 25.5814
14 1 5.32778 1.65998 25.8296
15 1 2.89347 3.44487 26.5652
16 2 3.71998 1.3032 16.0969
17 2 0.367397 0.335138 17.3871
18 2 4.89998 3.26196 18.0431
19 2 2.23953 2.18454 17.7858
20 2 3.11666 3.71083 11.7158
21 2 6.48862 2.93938 15.0769
22 2 4.06354 4.27539 14.702
23 2 6.17767 2.32044 12.3494
24 2 3.97019 1.46918 8.05677
25 2 1.47368 0.106897 8.21484
26 2 4.8604 2.23377 10.1491
27 2 3.58447 1.39629 13.3917
28 2 2.74246 0.647257 10.811
29 2 1.30953 3.24894 8.00601
30 2 2.75634 2.40045 5.87999
31 2 5.27796 3.98849 5.9797
32 2 1.01779 2.63971 3.31749
33 2 3.44327 0.978036 3.34666
34 2 3.66672 3.8168 3.19619
35 2 5.41064 0.77333 5.51029
ITEM: TIMESTEP
2800
ITEM: NUMBER OF ATOMS
35
ITEM: BOX BOUNDS xy xz yz pp pp pp
0.0000000000000000e+00 7.6685730000000003e+00 2.5561910000000001e+00
0.0000000000000000e+00 4.4274529999999999e+00 0.0000000000000000e+00
0.0000000000000000e+00 3.6699264999999997e+01 0.0000000000000000e+00
ITEM: ATOMS id type x y z
1 1 2.42462 3.39969 32.9602
2 1 0.994095 1.69704 33.4314
3 1 4.69141 3.95438 32.4778
4 1 4.85997 0.215768 30.7164
5 1 3.62564 1.34222 32.4647
6 1 3.18551 2.31694 30.4218
7 1 5.9081 2.44642 31.0929
8 1 4.9455 4.31525 29.9046
9 1 2.93487 3.92881 28.1775
10 1 1.36187 1.54288 28.2932
11 1 3.95871 1.6826 28.0332
12 1 5.39323 3.62838 27.1637
13 1 2.61326 1.16906 25.738
14 1 5.26854 1.13889 26.1888
15 1 2.0073 3.277 25.831
16 2 3.2845 1.28781 15.9322
17 2 0.709485 0.657153 16.9111
18 2 4.71084 3.02272 17.6652
19 2 2.14659 2.78639 18.2125
20 2 3.2318 3.50653 11.8651
21 2 6.64425 2.8717 15.0708
22 2 4.03308 4.16126 14.6358
23 2 5.998 2.44909 12.9922
24 2 3.65981 1.71556 8.29687
25 2 1.24882 0.203667 8.08067
26 2 5.50097 2.2365 10.0889
27 2 3.80193 1.02589 13.251
28 2 2.54174 0.73108 10.7863
29 2 6.80327 3.07963 8.30905
30 2 2.95657 2.15542 5.66925
31 2 5.60979 3.65623 5.61028
32 2 6.0528 2.5473 3.38516
33 2 3.20779 1.0597 3.24324
34 2 3.4382 3.80099 3.4137
35 2 5.28406 1.01763 5.43021
ITEM: TIMESTEP
2900
ITEM: NUMBER OF ATOMS
35
ITEM: BOX BOUNDS xy xz yz pp pp pp
0.0000000000000000e+00 7.6685730000000003e+00 2.5561910000000001e+00
0.0000000000000000e+00 4.4274529999999999e+00 0.0000000000000000e+00
0.0000000000000000e+00 3.6699264999999997e+01 0.0000000000000000e+00
ITEM: ATOMS id type x y z
1 1 2.29467 4.048 32.8974
2 1 6.01368 1.70137 33.3636
3 1 4.97354 4.27083 32.4746
4 1 4.70436 0.293718 30.6177
5 1 3.80287 1.85556 32.5713
6 1 3.18718 2.57299 30.22
7 1 5.98598 2.35514 31.0617
8 1 4.67466 4.26512 30.1226
9 1 2.60977 3.48658 27.4671
10 1 1.81109 1.44822 28.3348
11 1 4.39948 1.16621 28.6716
12 1 5.13535 3.43787 28.0861
13 1 2.82392 0.639386 26.2666
14 1 5.41944 1.36345 26.2283
15 1 6.40058 3.32715 25.022
16 2 3.56893 1.15922 15.9641
17 2 0.90868 0.892213 16.8855
18 2 4.53121 3.18994 17.1372
19 2 2.11046 3.41517 18.4287
20 2 2.87884 3.66989 11.3312
21 2 6.78656 3.30035 16.099
22 2 3.61434 3.6621 13.988
23 2 5.96825 2.36444 13.0431
24 2 4.11891 1.54565 7.9674
25 2 1.56677 0.223084 8.127
26 2 5.46738 1.85577 10.7587
27 2 3.8312 0.530789 13.2062
28 2 3.11236 0.625898 10.4711
29 2 6.49405 3.38811 8.22958
30 2 2.76699 2.36382 5.65975
31 2 5.44652 3.96746 5.78558
32 2 5.89446 2.35815 2.86314
33 2 3.2131 0.582902 3.20246
34 2 3.17551 4.09684 3.53501
35 2 5.46626 0.718569 5.988
ITEM: TIMESTEP
3000
ITEM: NUMBER OF ATOMS
35
ITEM: BOX BOUNDS xy xz yz pp pp pp
0.0000000000000000e+00 7.6685730000000003e+00 2.5561910000000001e+00
0.0000000000000000e+00 4.4274529999999999e+00 0.0000000000000000e+00
0.0000000000000000e+00 3.6699264999999997e+01 0.0000000000000000e+00
ITEM: ATOMS id type x y z
1 1 7.46933 4.23009 33.2374
2 1 1.2625 2.02197 33.0271
3 1 4.93367 4.30568 32.8795
4 1 4.51205 0.190315 30.764
5 1 3.7042 2.31816 32.4717
6 1 3.36447 2.44583 29.9272
7 1 5.76933 2.3324 30.6731
8 1 1.95647 0.414494 30.5819
9 1 3.01524 3.21058 26.6997
10 1 1.69876 1.54419 28.4394
11 1 4.41395 0.367235 28.5384
12 1 5.01197 3.10175 28.3344
13 1 2.99306 0.707408 26.6248
14 1 5.30929 1.43956 26.2797
15 1 6.12159 3.33284 25.3852
16 2 3.4673 1.15259 15.5102
17 2 0.957018 1.32857 16.9563
18 2 4.35328 3.17054 17.5182
19 2 7.13001 3.9756 18.5976
20 2 2.97661 3.19002 10.4752
21 2 1.96078 3.39283 15.762
22 2 3.79085 3.6099 13.9817
23 2 6.46059 1.92609 13.5929
24 2 4.18581 2.10144 8.03557
25 2 1.67367 0.19225 8.56729
26 2 5.42471 1.96695 10.6081
27 2 3.38493 0.602171 13.0545
28 2 3.02276 0.411526 10.6501
29 2 6.85468 2.85276 8.31701
30 2 2.55982 2.49272 5.66311
31 2 5.2842 3.78672 5.61848
32 2 5.69978 2.12 3.18523
33 2 3.19954 0.853246 3.47985
34 2 3.08907 3.7194 3.31118
35 2 5.49613 1.00943 5.62481
ITEM: TIMESTEP
3100
ITEM: NUMBER OF ATOMS
35
ITEM: BOX BOUNDS xy xz yz pp pp pp
0.0000000000000000e+00 7.6685730000000003e+00 2.5561910000000001e+00
0.0000000000000000e+00 4.4274529999999999e+00 0.0000000000000000e+00
0.0000000000000000e+00 3.6699264999999997e+01 0.0000000000000000e+00
ITEM: ATOMS id type x y z
1 1 5.26587 0.410347 33.5575
2 1 6.49474 2.29867 32.497
3 1 5.15435 4.32854 33.1783
4 1 7.04869 4.2824 31.329
5 1 3.69217 1.99772 32.1083
6 1 3.17744 2.53413 29.9088
7 1 5.58482 2.75748 30.2903
8 1 1.75664 0.455577 30.8337
9 1 3.45832 3.11603 26.3999
10 1 1.51902 1.52837 28.5399
11 1 7.2704 4.10133 28.5623
12 1 5.05362 3.5594 28.0729
13 1 2.35997 0.945954 26.305
14 1 5.05888 0.955955 26.7577
15 1 6.18067 3.25928 25.9319
16 2 3.44114 1.52381 15.5991
17 2 1.23769 1.23725 16.9691
18 2 4.22393 3.14832 17.6608
19 2 4.00983 0.226664 17.9811
20 2 2.96655 2.90147 11.0644
21 2 7.11452 3.47081 15.7694
22 2 4.37206 3.54528 13.7928
23 2 1.12866 1.81333 13.8556
24 2 4.29496 1.51362 8.12984
25 2 1.42728 0.302234 7.98925
26 2 5.61644 2.04078 10.7561
27 2 4.33007 0.41711 12.8612
28 2 2.61453 0.186978 10.4025
29 2 6.66253 3.25273 8.03171
30 2 2.91586 2.46611 5.83141
31 2 5.24269 3.77664 5.77138
32 2 5.59324 2.38333 3.42722
33 2 3.01112 0.879736 3.60589
34 2 3.07142 3.5621 3.17088
35 2 5.18606 0.729375 5.69639
ITEM: TIMESTEP
3200
ITEM: NUMBER OF ATOMS
35
ITEM: BOX BOUNDS xy xz yz pp pp pp
0.0000000000000000e+00 7.6685730000000003e+00 2.5561910000000001e+00
0.0000000000000000e+00 4.4274529999999999e+00 0.0000000000000000e+00
0.0000000000000000e+00 3.6699264999999997e+01 0.0000000000000000e+00
ITEM: ATOMS id type x y z
1 1 5.30697 0.461916 33.4449
2 1 1.54143 2.4287 32.658
3 1 5.28529 4.41105 32.9403
4 1 7.12729 4.5205 31.1511
5 1 4.15958 2.38851 32.5016
6 1 3.3359 1.85115 29.7863
7 1 5.5848 2.61686 30.4051
8 1 1.82042 0.409562 30.856
9 1 3.60666 3.27103 26.0501
10 1 1.37869 1.63731 28.2741
11 1 7.3608 4.09514 28.8169
12 1 4.70907 3.71755 28.351
13 1 2.03788 0.770517 25.9205
14 1 4.28247 1.0688 26.7592
15 1 6.30387 3.0164 26.7446
16 2 3.93205 1.79039 15.1264
17 2 1.29397 1.4661 16.8487
18 2 4.09712 3.09801 17.4281
19 2 3.48003 0.525921 17.9857
20 2 3.08576 2.77233 11.2557
21 2 7.10146 3.85811 15.4772
22 2 4.56333 3.56601 13.5841
23 2 1.81829 1.70763 13.7911
24 2 3.91726 1.8226 8.59876
25 2 1.41323 0.167682 7.97265
26 2 5.53149 1.64786 11.0291
27 2 4.47067 0.18129 12.914
28 2 2.55848 0.0329363 10.4394
29 2 6.41388 3.10329 8.42496
30 2 2.88342 2.10342 5.80019
31 2 5.44115 3.67415 5.72527
32 2 5.56512 2.42864 3.53162
33 2 2.78168 0.727216 3.36962
34 2 2.91891 3.9796 3.38116
35 2 5.23615 0.677523 5.54628
ITEM: TIMESTEP
3300
ITEM: NUMBER OF ATOMS
35
ITEM: BOX BOUNDS xy xz yz pp pp pp
0.0000000000000000e+00 7.6685730000000003e+00 2.5561910000000001e+00
0.0000000000000000e+00 4.4274529999999999e+00 0.0000000000000000e+00
0.0000000000000000e+00 3.6699264999999997e+01 0.0000000000000000e+00
ITEM: ATOMS id type x y z
1 1 5.62321 0.188344 33.2066
2 1 1.87099 2.46099 32.7234
3 1 5.54498 4.89087 33.1015
4 1 6.91811 4.76057 31.0645
5 1 4.43885 2.69292 32.4917
6 1 3.4582 1.61609 29.3763
7 1 5.93488 2.36951 30.6816
8 1 1.72228 -0.0394337 30.748
9 1 3.32881 3.2217 26.471
10 1 1.14562 1.41524 28.472
11 1 7.08835 3.62152 28.7456
12 1 4.5959 3.49945 28.4094
13 1 1.89558 1.26589 26.1844
14 1 4.30335 1.31014 27.2752
15 1 5.84932 3.52563 26.0976
16 2 4.45501 2.03925 15.1497
17 2 1.0921 1.73287 16.8238
18 2 3.85891 3.49207 17.3034
19 2 3.86148 0.228857 17.8148
20 2 2.92388 2.64049 10.9922
21 2 7.00337 3.82647 15.5327
22 2 4.32965 3.51984 12.9245
23 2 2.01806 1.92937 13.3639
24 2 3.9903 1.96989 8.46355
25 2 1.11561 0.189391 8.45703
26 2 5.69043 1.33767 11.0253
27 2 4.4564 0.337933 12.9615
28 2 2.9653 -0.173574 10.8047
29 2 6.42635 2.70277 8.78545
30 2 2.68482 2.11746 5.81623
31 2 5.38972 3.59756 5.88851
32 2 5.36303 2.15531 3.27591
33 2 2.82639 1.01931 3.23693
34 2 2.67797 3.71339 3.42782
35 2 5.41777 0.907165 6.0455
ITEM: TIMESTEP
3400
ITEM: NUMBER OF ATOMS
35
ITEM: BOX BOUNDS xy xz yz pp pp pp
0.0000000000000000e+00 7.6685730000000003e+00 2.5561910000000001e+00
0.0000000000000000e+00 4.4274529999999999e+00 0.0000000000000000e+00
0.0000000000000000e+00 3.6699264999999997e+01 0.0000000000000000e+00
ITEM: ATOMS id type x y z
1 1 0.967576 0.499734 32.9371
2 1 2.18294 2.75704 32.8047
3 1 3.45839 0.417791 33.2694
4 1 4.42543 -0.0125399 30.9785
5 1 4.44969 2.33382 32.5116
6 1 3.32024 1.66535 29.7776
7 1 5.92698 2.33967 30.6351
8 1 4.29791 4.14759 30.8172
9 1 2.91643 3.85306 26.3514
10 1 0.670989 0.790434 28.8224
11 1 7.32869 3.35238 28.6452
12 1 5.0717 3.58953 28.4751
13 1 1.71463 1.73932 26.6634
14 1 3.96421 1.34213 26.7564
15 1 5.2286 3.69421 26.0019
16 2 4.28624 2.2456 15.4632
17 2 1.7896 1.80442 17.397
18 2 3.96831 3.42965 17.574
19 2 4.02587 0.382668 17.6756
20 2 2.94285 2.69548 10.4923
21 2 6.70489 3.75359 15.245
22 2 4.34788 3.33053 13.0093
23 2 1.55241 2.09222 13.2618
24 2 3.89903 1.1829 8.09989
25 2 1.34833 -0.265329 8.61305
26 2 5.71828 1.18429 10.6678
27 2 4.47045 0.72697 13.0119
28 2 5.82876 4.33854 10.6317
29 2 6.52353 3.13521 8.02006
30 2 2.78138 2.43197 5.98554
31 2 5.1123 3.93442 5.96875
32 2 5.13115 2.20308 3.52625
33 2 2.76333 0.667513 3.71101
34 2 2.59982 3.64597 3.75388
35 2 5.35239 0.742947 5.84556
ITEM: TIMESTEP
3500
ITEM: NUMBER OF ATOMS
35
ITEM: BOX BOUNDS xy xz yz pp pp pp
0.0000000000000000e+00 7.6685730000000003e+00 2.5561910000000001e+00
0.0000000000000000e+00 4.4274529999999999e+00 0.0000000000000000e+00
0.0000000000000000e+00 3.6699264999999997e+01 0.0000000000000000e+00
ITEM: ATOMS id type x y z
1 1 1.10035 0.535538 32.8998
2 1 2.25585 2.6822 32.8216
3 1 3.39465 0.00677373 33.1108
4 1 7.40866 4.16209 30.8869
5 1 4.63365 2.42636 32.704
6 1 3.54583 1.74861 30.3779
7 1 6.32047 1.90313 30.7305
8 1 4.8045 4.16837 30.7055
9 1 2.53923 4.25097 26.1818
10 1 5.39304 0.964597 28.7322
11 1 2.2682 2.99111 28.5846
12 1 4.63467 3.58145 28.3995
13 1 1.07471 1.76221 26.5709
14 1 3.69751 1.89433 27.0228
15 1 5.28518 3.99524 26.1117
16 2 4.03558 2.05633 15.4328
17 2 1.8803 2.177 17.5941
18 2 4.54165 3.45196 18.2283
19 2 4.32701 0.607395 17.8866
20 2 3.17183 2.59328 10.5356
21 2 6.42489 3.55564 15.5346
22 2 4.3 3.83366 13.01
23 2 1.7589 1.9925 12.9278
24 2 3.78516 1.26092 8.29833
25 2 4.1556 3.99121 8.30271
26 2 5.68519 1.56361 10.2848
27 2 4.01951 0.815923 12.967
28 2 5.64979 4.09182 10.6763
29 2 6.50698 2.41232 8.0291
30 2 2.98779 2.17176 5.59484
31 2 5.16367 3.80117 5.97081
32 2 5.17771 2.43993 3.73262
33 2 2.42984 0.692085 3.53393
34 2 2.52246 3.67812 3.32186
35 2 5.2227 0.855715 5.95327
ITEM: TIMESTEP
3600
ITEM: NUMBER OF ATOMS
35
ITEM: BOX BOUNDS xy xz yz pp pp pp
0.0000000000000000e+00 7.6685730000000003e+00 2.5561910000000001e+00
0.0000000000000000e+00 4.4274529999999999e+00 0.0000000000000000e+00
0.0000000000000000e+00 3.6699264999999997e+01 0.0000000000000000e+00
ITEM: ATOMS id type x y z
1 1 0.8146 0.0363206 33.0618
2 1 2.25739 2.18975 32.963
3 1 3.67467 0.446668 32.6624
4 1 2.7369 4.02344 30.7849
5 1 5.15189 2.4842 32.9346
6 1 3.95288 1.9672 30.7274
7 1 1.34507 1.54326 30.6697
8 1 5.46252 3.96897 30.6244
9 1 7.51141 3.99153 26.6045
10 1 4.92208 1.0122 28.6091
11 1 1.45404 2.7085 28.6006
12 1 4.63192 4.23938 28.4637
13 1 0.912753 2.17712 26.2478
14 1 3.52125 2.06373 27.2791
15 1 2.21543 -0.0718047 25.998
16 2 3.94976 2.00812 15.5166
17 2 1.86605 2.1048 17.8415
18 2 4.95121 3.7163 18.3379
19 2 4.80521 0.757691 18.0807
20 2 3.01658 2.95615 10.9261
21 2 6.23338 3.65079 15.3666
22 2 3.90772 3.75685 13.3283
23 2 1.42179 2.50992 13.0298
24 2 4.05812 1.09963 8.37214
25 2 3.63806 3.7703 8.395
26 2 5.64525 1.00611 10.8026
27 2 4.40983 0.759174 13.0082
28 2 5.5682 4.18941 10.4644
29 2 1.64012 2.23972 8.0178
30 2 2.80599 2.20406 5.32248
31 2 5.54991 3.66566 5.73955
32 2 5.1048 2.31487 3.22988
33 2 2.21689 1.01373 2.7635
34 2 2.44641 3.8804 3.09232
35 2 5.44216 0.391261 6.04269
ITEM: TIMESTEP
3700
ITEM: NUMBER OF ATOMS
35
ITEM: BOX BOUNDS xy xz yz pp pp pp
0.0000000000000000e+00 7.6685730000000003e+00 2.5561910000000001e+00
0.0000000000000000e+00 4.4274529999999999e+00 0.0000000000000000e+00
0.0000000000000000e+00 3.6699264999999997e+01 0.0000000000000000e+00
ITEM: ATOMS id type x y z
1 1 3.96293 4.68684 32.9905
2 1 2.73399 2.49252 33.0169
3 1 4.10375 0.16074 32.7
4 1 2.98584 3.5962 30.493
5 1 5.18515 2.41348 32.7336
6 1 4.18567 1.62126 30.8819
7 1 1.53131 1.38176 30.9798
8 1 5.46577 3.63646 30.586
9 1 6.94612 4.52497 26.6002
10 1 4.46121 0.553025 28.8068
11 1 6.44654 2.79388 28.6309
12 1 1.95099 0.428406 28.2696
13 1 5.53553 2.169 26.4959
14 1 3.25558 2.32983 27.4418
15 1 4.46982 4.55715 26.0025
16 2 4.02207 2.20751 16.0408
17 2 2.42195 2.16918 17.7596
18 2 4.86144 3.90097 17.7839
19 2 4.90957 0.684303 17.9411
20 2 2.8478 2.40911 10.8661
21 2 6.33223 3.92599 15.874
22 2 4.04557 3.84848 13.8635
23 2 6.34367 2.38539 13.3872
24 2 4.15483 0.747852 8.12262
25 2 4.02729 3.69972 8.24667
26 2 5.73753 1.14452 10.9639
27 2 3.5872 0.99813 13.2363
28 2 5.60414 4.22758 10.5788
29 2 1.28206 2.31212 7.94755
30 2 2.87708 1.8948 5.26576
31 2 5.58642 3.59488 5.46424
32 2 4.73672 2.39138 3.14274
33 2 2.36517 0.862981 2.68257
34 2 7.32332 4.06495 3.16392
35 2 0.767787 0.476789 5.20713
ITEM: TIMESTEP
3800
ITEM: NUMBER OF ATOMS
35
ITEM: BOX BOUNDS xy xz yz pp pp pp
0.0000000000000000e+00 7.6685730000000003e+00 2.5561910000000001e+00
0.0000000000000000e+00 4.4274529999999999e+00 0.0000000000000000e+00
0.0000000000000000e+00 3.6699264999999997e+01 0.0000000000000000e+00
ITEM: ATOMS id type x y z
1 1 2.18941 0.414307 32.9077
2 1 3.54968 2.6572 32.9859
3 1 6.99031 4.26334 33.0039
4 1 2.8367 3.49768 30.6421
5 1 5.70476 2.18093 32.9549
6 1 4.05561 1.33168 31.0316
7 1 1.64009 1.46009 30.4846
8 1 5.25013 3.63226 30.9813
9 1 6.42404 4.40696 26.2336
10 1 4.47682 0.884091 28.3982
11 1 5.79259 2.76162 28.8081
12 1 1.84173 0.0328983 28.5352
13 1 5.31598 2.28636 26.5187
14 1 3.13991 2.972 27.4901
15 1 1.31666 0.289618 26.0961
16 2 4.38783 2.31623 15.4667
17 2 2.21284 2.36136 18.1597
18 2 4.70691 3.949 17.7733
19 2 5.03808 0.816098 18.2424
20 2 3.23276 2.46438 10.6113
21 2 7.0285 4.02899 15.6926
22 2 3.29413 4.19231 13.7144
23 2 6.06833 2.51513 13.7457
24 2 4.03525 0.573757 7.65805
25 2 4.2299 3.83824 7.90405
26 2 5.51904 0.986688 10.8019
27 2 3.42929 1.00194 13.2955
28 2 5.56117 3.60519 11.1045
29 2 6.51173 2.02738 8.14981
30 2 3.57367 1.88627 5.5256
31 2 5.90069 3.36047 5.46104
32 2 4.44309 2.66819 3.05399
33 2 2.15176 0.926158 3.02906
34 2 6.99077 3.60615 2.87162
35 2 0.679565 0.768974 5.12168
ITEM: TIMESTEP
3900
ITEM: NUMBER OF ATOMS
35
ITEM: BOX BOUNDS xy xz yz pp pp pp
0.0000000000000000e+00 7.6685730000000003e+00 2.5561910000000001e+00
0.0000000000000000e+00 4.4274529999999999e+00 0.0000000000000000e+00
0.0000000000000000e+00 3.6699264999999997e+01 0.0000000000000000e+00
ITEM: ATOMS id type x y z
1 1 2.90042 0.00261291 33.2021
2 1 3.77935 2.27864 32.8786
3 1 5.23818 0.356451 33.1348
4 1 2.65587 3.60051 30.4164
5 1 6.55697 2.59777 33.1901
6 1 3.93211 1.29287 30.6695
7 1 1.64566 1.20984 31.0256
8 1 5.27281 3.38357 30.9625
9 1 3.54534 0.0656195 26.0892
10 1 4.28318 0.869509 28.4713
11 1 5.62705 2.88763 28.8848
12 1 1.71665 0.633936 28.6235
13 1 4.49406 2.48383 26.2853
14 1 2.5778 2.36475 27.4361
15 1 1.03506 0.354692 26.283
16 2 4.2008 2.25816 15.8228
17 2 2.10185 2.58642 18.1268
18 2 4.93134 3.84449 17.7418
19 2 4.53943 1.34742 18.4811
20 2 3.20732 2.24176 10.3349
21 2 7.44731 4.00462 16.1132
22 2 3.29236 4.03525 12.6823
23 2 6.01788 2.69312 13.4069
24 2 4.23009 0.526428 8.24525
25 2 3.9022 3.56875 7.8525
26 2 0.442706 0.479012 10.4016
27 2 3.41331 1.35815 12.8492
28 2 5.69804 3.53947 10.9882
29 2 1.74224 2.09192 8.30145
30 2 3.34971 2.28185 5.69593
31 2 6.25498 3.4408 5.58805
32 2 4.35475 2.42286 2.91657
33 2 1.90951 0.973726 3.19399
34 2 6.93532 3.79412 2.96548
35 2 0.852597 0.346264 5.5061
ITEM: TIMESTEP
4000
ITEM: NUMBER OF ATOMS
35
ITEM: BOX BOUNDS xy xz yz pp pp pp
0.0000000000000000e+00 7.6685730000000003e+00 2.5561910000000001e+00
0.0000000000000000e+00 4.4274529999999999e+00 0.0000000000000000e+00
0.0000000000000000e+00 3.6699264999999997e+01 0.0000000000000000e+00
ITEM: ATOMS id type x y z
1 1 2.89581 0.469338 33.533
2 1 4.49834 2.32517 32.8739
3 1 0.434105 0.147472 33.1295
4 1 2.70234 3.28971 30.0791
5 1 2.02268 2.61865 33.164
6 1 4.06635 1.10302 30.5931
7 1 1.38181 1.50515 31.0213
8 1 5.63063 3.59578 31.2496
9 1 3.12225 0.0951766 26.346
10 1 4.10792 0.359484 28.3512
11 1 5.00864 2.87595 28.4402
12 1 1.49007 0.651368 29.0454
13 1 4.62842 2.52388 26.1601
14 1 2.10513 2.60447 27.2687
15 1 0.790878 0.382381 26.7744
16 2 4.18542 2.23143 15.9382
17 2 1.89676 2.51341 18.1467
18 2 4.7766 4.50112 17.6905
19 2 4.46757 1.29695 18.4927
20 2 3.06482 1.93386 10.3368
21 2 7.42474 4.16831 15.9081
22 2 3.81643 4.0751 12.8224
23 2 6.10596 2.4458 13.24
24 2 3.81829 0.501084 8.04841
25 2 4.30217 3.29373 8.23351
26 2 0.968303 0.795131 10.3446
27 2 3.42447 1.12489 12.8502
28 2 5.74658 3.47482 10.29
29 2 1.39989 2.17441 7.82728
30 2 3.33167 1.64884 5.38046
31 2 5.66507 3.52497 5.59293
32 2 4.65941 2.41785 3.4028
33 2 1.89024 0.805745 3.27798
34 2 7.05789 4.23396 3.35481
35 2 0.874267 0.615333 5.86806
ITEM: TIMESTEP
4100
ITEM: NUMBER OF ATOMS
35
ITEM: BOX BOUNDS xy xz yz pp pp pp
0.0000000000000000e+00 7.6685730000000003e+00 2.5561910000000001e+00
0.0000000000000000e+00 4.4274529999999999e+00 0.0000000000000000e+00
0.0000000000000000e+00 3.6699264999999997e+01 0.0000000000000000e+00
ITEM: ATOMS id type x y z
1 1 3.33919 0.289213 33.2371
2 1 4.46817 2.67361 33.0993
3 1 0.710777 0.13382 32.9233
4 1 2.84063 3.21537 29.9926
5 1 1.98952 2.45157 33.3526
6 1 4.42502 1.75772 31.0218
7 1 1.71765 1.31944 31.1083
8 1 5.36312 3.90893 30.9536
9 1 3.08362 0.435477 26.3827
10 1 3.8158 0.238165 28.7546
11 1 4.69878 2.49505 28.5818
12 1 1.54764 0.828232 28.8119
13 1 4.33633 2.36659 26.2052
14 1 1.81774 2.55183 27.3915
15 1 0.600763 0.0251263 26.6276
16 2 4.46523 2.56113 15.7526
17 2 1.6403 3.08549 17.864
18 2 1.86143 0.108906 17.355
19 2 4.73908 1.16002 18.2604
20 2 3.47388 2.2937 10.7287
21 2 7.06806 4.06589 15.402
22 2 3.82769 3.89085 13.2455
23 2 6.23089 2.29407 13.0224
24 2 3.77049 0.540586 7.7773
25 2 3.83906 3.35194 8.11102
26 2 0.558518 0.642599 10.6116
27 2 4.0929 0.524177 13.1904
28 2 6.04453 3.61708 10.6777
29 2 1.64192 2.10629 7.84551
30 2 3.11367 1.95355 5.4436
31 2 5.4321 3.19139 5.76468
32 2 4.81628 2.79265 3.1152
33 2 1.97663 1.17099 3.26838
34 2 7.37161 3.78449 3.65806
35 2 0.401947 0.163186 5.80705
ITEM: TIMESTEP
4200
ITEM: NUMBER OF ATOMS
35
ITEM: BOX BOUNDS xy xz yz pp pp pp
0.0000000000000000e+00 7.6685730000000003e+00 2.5561910000000001e+00
0.0000000000000000e+00 4.4274529999999999e+00 0.0000000000000000e+00
0.0000000000000000e+00 3.6699264999999997e+01 0.0000000000000000e+00
ITEM: ATOMS id type x y z
1 1 3.3741 0.116664 32.8414
2 1 4.64016 2.56275 33.5582
3 1 0.743664 0.329243 32.527
4 1 3.08377 3.67263 30.4793
5 1 2.00337 2.47425 33.3773
6 1 4.27179 1.29127 30.9152
7 1 1.98772 1.6533 31.0428
8 1 5.47789 3.45273 30.7951
9 1 2.65413 0.219571 26.8685
10 1 3.8699 0.388667 28.77
11 1 4.67561 2.66164 28.8372
12 1 1.32563 0.648935 28.7987
13 1 4.42938 2.46429 26.2211
14 1 1.93635 2.49073 27.1311
15 1 0.163272 0.392848 26.6553
16 2 4.75507 2.12891 15.5577
17 2 1.90298 2.99738 17.7096
18 2 1.80691 0.371104 16.92
19 2 4.36791 1.65332 17.8587
20 2 3.51402 2.39574 11.0371
21 2 6.69315 4.01594 15.3075
22 2 4.16531 3.38615 13.507
23 2 6.61586 1.93955 13.016
24 2 4.03808 0.554715 8.41362
25 2 3.88988 3.68958 8.43259
26 2 0.841812 0.74188 10.6042
27 2 3.99561 0.780122 12.8964
28 2 5.8507 3.75911 10.6922
29 2 1.2872 2.01501 8.56918
30 2 2.94112 1.72522 5.63095
31 2 5.49372 3.12486 5.60939
32 2 4.56211 2.56341 2.95504
33 2 1.96267 0.991742 3.14095
34 2 7.21653 4.07287 3.07422
35 2 0.507039 0.346948 5.83736
ITEM: TIMESTEP
4300
ITEM: NUMBER OF ATOMS
35
ITEM: BOX BOUNDS xy xz yz pp pp pp
0.0000000000000000e+00 7.6685730000000003e+00 2.5561910000000001e+00
0.0000000000000000e+00 4.4274529999999999e+00 0.0000000000000000e+00
0.0000000000000000e+00 3.6699264999999997e+01 0.0000000000000000e+00
ITEM: ATOMS id type x y z
1 1 3.1941 0.377971 33.4434
2 1 4.70027 2.20415 32.9451
3 1 0.680185 0.0452791 33.4774
4 1 3.08366 3.48501 30.6323
5 1 2.15212 2.4729 32.8662
6 1 4.66905 1.45273 30.9634
7 1 2.06847 1.31431 30.9647
8 1 5.91708 3.62577 31.1764
9 1 2.61573 0.207765 26.4229
10 1 3.86783 0.030993 28.8466
11 1 4.53637 2.97984 28.3507
12 1 1.23618 0.990781 28.762
13 1 3.82404 2.45833 26.1323
14 1 1.91772 2.79742 27.5385
15 1 5.16833 0.505567 26.6706
16 2 4.68383 1.76557 15.4305
17 2 1.87133 3.02709 17.6084
18 2 1.90263 0.474385 16.0875
19 2 4.23425 1.74504 18.0852
20 2 3.09544 2.51952 10.5124
21 2 6.78707 3.5345 15.2769
22 2 4.18311 3.83883 13.4716
23 2 1.92411 1.95809 13.5261
24 2 3.88752 0.848374 8.62721
25 2 4.12495 3.6306 8.16708
26 2 1.11617 0.830494 11.1549
27 2 4.24445 0.4074 12.7676
28 2 5.77899 3.60287 10.8063
29 2 1.31328 2.30549 8.3371
30 2 3.14688 1.48365 6.09567
31 2 5.8141 3.35224 5.38799
32 2 4.25674 2.38776 3.48305
33 2 1.76901 0.785883 3.30328
34 2 6.71363 4.23115 2.94448
35 2 0.489235 0.479219 5.56483
ITEM: TIMESTEP
4400
ITEM: NUMBER OF ATOMS
35
ITEM: BOX BOUNDS xy xz yz pp pp pp
0.0000000000000000e+00 7.6685730000000003e+00 2.5561910000000001e+00
0.0000000000000000e+00 4.4274529999999999e+00 0.0000000000000000e+00
0.0000000000000000e+00 3.6699264999999997e+01 0.0000000000000000e+00
ITEM: ATOMS id type x y z
1 1 3.40304 0.256917 33.5484
2 1 4.57318 2.61977 33.0397
3 1 0.880665 0.395545 33.5403
4 1 3.40241 3.18437 30.6215
5 1 2.23266 2.48098 33.2009
6 1 4.95709 1.53129 30.7723
7 1 1.9922 0.970641 31.25
8 1 6.22066 3.38944 31.1363
9 1 2.8008 0.0862164 26.7043
10 1 3.21195 0.527613 28.7368
11 1 4.2796 2.63659 28.2293
12 1 0.913531 0.641366 28.743
13 1 3.48493 2.64014 25.9599
14 1 1.70587 2.69216 27.632
15 1 5.44629 1.03417 26.4785
16 2 4.18737 1.8626 15.3472
17 2 1.44776 3.34232 18.1139
18 2 1.89169 0.28676 16.0661
19 2 4.74555 1.41269 17.7065
20 2 3.20869 2.62376 10.5657
21 2 7.06117 3.70744 15.4483
22 2 4.40394 3.49452 13.36
23 2 2.18611 1.80925 13.2057
24 2 4.19303 0.595854 8.75454
25 2 4.12191 4.00387 7.69059
26 2 1.03303 0.775123 10.5453
27 2 4.37616 0.631734 12.9306
28 2 5.55252 3.36844 10.8081
29 2 1.41883 2.361 7.78419
30 2 3.38629 1.77158 6.27221
31 2 6.00432 3.32196 5.6167
32 2 3.65908 2.59392 4.06006
33 2 1.46232 1.23886 3.44878
34 2 6.53861 3.71076 3.092
35 2 0.502697 0.247116 5.68081
ITEM: TIMESTEP
4500
ITEM: NUMBER OF ATOMS
35
ITEM: BOX BOUNDS xy xz yz pp pp pp
0.0000000000000000e+00 7.6685730000000003e+00 2.5561910000000001e+00
0.0000000000000000e+00 4.4274529999999999e+00 0.0000000000000000e+00
0.0000000000000000e+00 3.6699264999999997e+01 0.0000000000000000e+00
ITEM: ATOMS id type x y z
1 1 3.70438 0.103488 32.9864
2 1 4.80707 2.95287 32.893
3 1 0.916499 0.590432 33.0503
4 1 3.66586 3.31835 30.8558
5 1 2.31122 2.66405 33.7272
6 1 4.86663 0.914169 30.9411
7 1 2.3847 1.22647 31.327
8 1 6.0283 3.12806 30.6603
9 1 5.32449 4.24038 26.4149
10 1 2.87817 0.70088 29.2442
11 1 4.51005 2.48754 28.3213
12 1 0.396348 0.19646 28.6632
13 1 3.03184 3.14259 26.2874
14 1 1.69735 2.84889 28.471
15 1 5.39109 1.1612 26.2164
16 2 4.07643 2.18059 15.2207
17 2 6.37772 3.40156 18.2092
18 2 1.98014 0.287948 16.7209
19 2 5.0248 1.32358 17.559
20 2 3.21981 2.20194 10.6281
21 2 6.83885 3.4857 15.5698
22 2 4.92303 3.51393 13.0258
23 2 1.63649 1.7226 12.6757
24 2 4.13777 0.529508 8.58781
25 2 4.44218 3.66387 8.32335
26 2 1.12411 0.770088 10.3237
27 2 4.67713 0.435633 12.5823
28 2 5.98159 3.65532 10.6961
29 2 6.53329 2.27579 8.26786
30 2 3.41974 1.6669 6.58324
31 2 5.49282 3.40554 5.52773
32 2 3.67013 2.71839 3.67366
33 2 1.32849 1.10459 3.34526
34 2 6.24859 4.29071 3.06751
35 2 0.524377 0.468762 5.74597
ITEM: TIMESTEP
4600
ITEM: NUMBER OF ATOMS
35
ITEM: BOX BOUNDS xy xz yz pp pp pp
0.0000000000000000e+00 7.6685730000000003e+00 2.5561910000000001e+00
0.0000000000000000e+00 4.4274529999999999e+00 0.0000000000000000e+00
0.0000000000000000e+00 3.6699264999999997e+01 0.0000000000000000e+00
ITEM: ATOMS id type x y z
1 1 3.83019 0.368797 33.0271
2 1 5.00555 2.3614 32.8418
3 1 1.32848 0.35239 33.2326
4 1 3.6018 3.68163 30.6795
5 1 2.50104 2.74847 33.4313
6 1 4.4593 0.7741 30.7353
7 1 2.54741 1.60124 31.3312
8 1 5.90106 3.31706 30.7199
9 1 5.39322 4.0803 26.69
10 1 3.26287 0.272251 28.9478
11 1 4.07989 2.59019 28.5424
12 1 0.360042 0.351669 28.5584
13 1 2.59121 3.33734 26.619
14 1 1.61264 2.29089 28.5721
15 1 5.28541 1.71676 26.6194
16 2 4.27142 1.88666 15.0363
17 2 6.83245 3.24206 18.0749
18 2 2.01275 0.391028 16.8371
19 2 4.48009 1.56985 17.609
20 2 3.95626 2.21484 10.7318
21 2 6.55841 3.16112 15.4245
22 2 4.43024 3.72886 13.214
23 2 2.29361 2.11537 13.3483
24 2 4.30888 0.584405 8.15247
25 2 4.04332 3.25753 8.18508
26 2 0.974738 0.618698 10.7501
27 2 4.55352 0.192958 13.0808
28 2 6.21977 3.42268 10.3304
29 2 1.74394 1.9475 8.27378
30 2 2.70834 1.99087 5.47741
31 2 5.61507 3.49852 5.57431
32 2 3.705 2.93471 3.36325
33 2 1.10186 1.2717 3.33371
34 2 3.79793 0.264404 3.32321
35 2 0.435343 0.322524 6.04166
ITEM: TIMESTEP
4700
ITEM: NUMBER OF ATOMS
35
ITEM: BOX BOUNDS xy xz yz pp pp pp
0.0000000000000000e+00 7.6685730000000003e+00 2.5561910000000001e+00
0.0000000000000000e+00 4.4274529999999999e+00 0.0000000000000000e+00
0.0000000000000000e+00 3.6699264999999997e+01 0.0000000000000000e+00
ITEM: ATOMS id type x y z
1 1 3.87551 0.291199 33.2289
2 1 5.23372 2.23885 33.4242
3 1 1.36355 0.188034 33.1611
4 1 3.3787 3.51735 31.0461
5 1 2.84605 2.26262 32.9823
6 1 4.72261 1.74329 30.8592
7 1 2.12762 1.20165 30.9399
8 1 6.29262 3.98297 30.9914
9 1 4.98516 4.674 26.5553
10 1 2.70253 0.0727738 28.8068
11 1 4.12401 2.22942 28.6913
12 1 0.357538 0.0529823 28.4666
13 1 2.80534 3.40711 26.3915
14 1 1.5663 2.42573 28.789
15 1 5.2425 1.70594 26.6467
16 2 4.44817 1.74881 15.6005
17 2 7.3869 3.02746 18.0389
18 2 1.4331 0.39196 16.3112
19 2 4.22349 1.73062 17.909
20 2 3.8597 1.96966 10.9944
21 2 6.77717 3.43698 15.7799
22 2 4.52494 3.6782 13.5215
23 2 2.01703 1.83329 13.2829
24 2 4.03631 0.513455 8.12085
25 2 3.97293 3.35374 8.01622
26 2 1.48598 0.420885 10.7313
27 2 4.4885 0.35636 12.9651
28 2 6.517 3.46275 10.4541
29 2 1.66199 1.54284 8.05081
30 2 2.94236 1.88939 5.16182
31 2 5.31964 3.37896 5.92042
32 2 3.96786 3.68791 2.96564
33 2 0.736581 1.89404 3.23378
34 2 3.87887 -0.113467 3.44136
35 2 0.412302 0.359944 5.51067
ITEM: TIMESTEP
4800
ITEM: NUMBER OF ATOMS
35
ITEM: BOX BOUNDS xy xz yz pp pp pp
0.0000000000000000e+00 7.6685730000000003e+00 2.5561910000000001e+00
0.0000000000000000e+00 4.4274529999999999e+00 0.0000000000000000e+00
0.0000000000000000e+00 3.6699264999999997e+01 0.0000000000000000e+00
ITEM: ATOMS id type x y z
1 1 4.23662 -0.148768 33.398
2 1 5.4327 2.51065 33.8371
3 1 1.63166 -0.00572403 33.0329
4 1 3.57866 3.46052 30.571
5 1 2.772 2.20927 32.9267
6 1 5.01367 1.99752 31.5066
7 1 2.15037 1.34691 30.5989
8 1 6.14974 3.98821 30.9982
9 1 2.47138 0.966705 26.5661
10 1 2.45624 -0.163473 28.658
11 1 3.73023 2.19271 28.6189
12 1 -0.00784346 0.250194 28.918
13 1 2.9228 3.19033 26.7206
14 1 1.30335 2.23637 28.4937
15 1 5.10122 1.67179 26.5313
16 2 4.06409 1.96486 15.7313
17 2 2.03829 3.19238 18.279
18 2 1.62416 0.377937 16.0022
19 2 4.93216 1.31547 18.4413
20 2 3.85686 2.01889 10.796
21 2 6.73769 3.60653 15.5577
22 2 4.55909 3.36653 13.4528
23 2 1.50295 1.89645 13.1715
24 2 4.02188 0.353722 8.21988
25 2 3.72903 3.13279 8.58478
26 2 1.71791 0.290339 10.5939
27 2 4.71083 0.168265 12.8363
28 2 6.61025 3.25118 10.5772
29 2 1.32415 1.75199 7.84095
30 2 3.2235 1.7783 5.43148
31 2 5.45396 3.27557 5.95015
32 2 3.76634 3.96097 2.80601
33 2 5.80876 2.05113 2.94368
34 2 6.33944 4.77362 3.28381
35 2 0.669499 0.416305 5.37145
ITEM: TIMESTEP
4900
ITEM: NUMBER OF ATOMS
35
ITEM: BOX BOUNDS xy xz yz pp pp pp
0.0000000000000000e+00 7.6685730000000003e+00 2.5561910000000001e+00
0.0000000000000000e+00 4.4274529999999999e+00 0.0000000000000000e+00
0.0000000000000000e+00 3.6699264999999997e+01 0.0000000000000000e+00
ITEM: ATOMS id type x y z
1 1 4.5095 0.0400589 33.5231
2 1 5.588 2.2453 34.1152
3 1 4.65149 4.46669 32.8173
4 1 3.70914 3.8188 30.5879
5 1 2.72681 2.38812 33.048
6 1 4.94757 1.35151 31.2267
7 1 2.39895 1.51048 30.7483
8 1 6.34252 3.45107 31.1344
9 1 2.55755 0.863816 26.4856
10 1 4.78011 4.17123 28.5908
11 1 3.3991 2.21676 28.5659
12 1 4.6131 -0.0379831 29.0337
13 1 3.00689 4.21024 26.9016
14 1 6.16252 2.06328 28.4426
15 1 4.75618 1.9418 26.5689
16 2 3.81457 1.98626 16.2238
17 2 2.07407 2.92591 17.7374
18 2 1.49713 0.577153 16.0122
19 2 5.54296 1.04638 17.9712
20 2 4.34874 1.64816 11.0847
21 2 6.61813 3.54408 15.4485
22 2 4.25573 3.4213 13.0422
23 2 2.14481 1.69406 13.247
24 2 3.90473 0.238205 8.19311
25 2 3.74433 3.10553 8.12543
26 2 1.49701 0.442618 10.5876
27 2 4.27918 0.282382 13.254
28 2 6.44417 3.0921 10.4572
29 2 1.1549 1.72996 8.07676
30 2 3.06306 2.10554 5.69101
31 2 5.95694 3.55615 5.44741
32 2 3.42492 3.3918 3.19025
33 2 6.30618 2.39451 3.23605
34 2 3.24765 0.960085 3.09802
35 2 0.861276 0.323363 5.60218
ITEM: TIMESTEP
5000
ITEM: NUMBER OF ATOMS
35
ITEM: BOX BOUNDS xy xz yz pp pp pp
0.0000000000000000e+00 7.6685730000000003e+00 2.5561910000000001e+00
0.0000000000000000e+00 4.4274529999999999e+00 0.0000000000000000e+00
0.0000000000000000e+00 3.6699264999999997e+01 0.0000000000000000e+00
ITEM: ATOMS id type x y z
1 1 4.52925 0.359164 33.4964
2 1 5.88402 2.28238 33.3985
3 1 1.98861 0.0457595 33.4624
4 1 3.61113 3.19029 31.0578
5 1 3.34719 2.35909 33.0665
6 1 5.12225 1.22775 30.6506
7 1 2.65838 0.955324 31.0381
8 1 6.21095 3.3262 31.6439
9 1 2.54763 1.15838 26.5193
10 1 4.48411 4.31308 28.6482
11 1 3.38845 2.14118 28.5254
12 1 6.95228 3.92011 28.9793
13 1 2.60539 4.34194 26.7471
14 1 5.80313 1.98812 28.4467
15 1 4.88063 3.2415 26.5414
16 2 4.31099 1.97082 15.9002
17 2 2.23835 2.83064 17.7745
18 2 1.27782 0.22576 15.0618
19 2 5.40181 0.85154 18.0387
20 2 4.1306 1.58329 10.639
21 2 6.24831 3.25269 15.5045
22 2 4.35636 3.24732 13.1157
23 2 1.73663 2.02527 13.1885
24 2 3.63627 0.249267 8.07125
25 2 4.02206 3.37094 8.07901
26 2 1.63592 -0.0368976 10.5863
27 2 4.45452 0.507337 13.3191
28 2 6.86805 3.32166 10.7005
29 2 1.03621 1.69299 8.2547
30 2 3.42643 1.9994 5.78941
31 2 6.01918 3.87764 5.66766
32 2 3.63644 3.82006 3.62334
33 2 5.71687 2.12654 3.28967
34 2 3.34836 0.54485 3.23543
35 2 0.727081 0.952073 5.73516
ITEM: TIMESTEP
5100
ITEM: NUMBER OF ATOMS
35
ITEM: BOX BOUNDS xy xz yz pp pp pp
0.0000000000000000e+00 7.6685730000000003e+00 2.5561910000000001e+00
0.0000000000000000e+00 4.4274529999999999e+00 0.0000000000000000e+00
0.0000000000000000e+00 3.6699264999999997e+01 0.0000000000000000e+00
ITEM: ATOMS id type x y z
1 1 7.13524 4.20838 33.0793
2 1 5.98483 2.31436 33.3696
3 1 4.57981 4.35326 33.3211
4 1 3.96127 3.06992 31.0401
5 1 3.51554 2.2181 33.4351
6 1 5.1014 1.2137 31.3298
7 1 2.47779 1.04288 31.1873
8 1 6.32952 3.11649 30.9911
9 1 2.65275 2.09334 26.7125
10 1 4.24245 4.35393 28.8816
11 1 3.37094 1.60893 29.1713
12 1 6.90314 4.03839 28.8192
13 1 4.69527 0.036158 26.7638
14 1 5.63621 1.89816 27.9685
15 1 4.9673 3.85257 26.5589
16 2 3.67726 1.52961 15.3069
17 2 2.69612 2.18868 17.7609
18 2 1.26493 0.203606 15.5804
19 2 5.1633 0.948027 17.61
20 2 4.14926 1.84244 10.3853
21 2 6.54804 3.31904 15.6097
22 2 4.19288 3.21969 12.8785
23 2 1.70057 2.02638 13.0818
24 2 3.81911 0.604368 8.24571
25 2 3.58998 3.42115 8.12497
26 2 2.04447 0.296378 10.7513
27 2 4.43755 0.381865 12.796
28 2 6.89121 3.15433 10.6175
29 2 1.30021 2.02238 8.56649
30 2 3.37566 2.2709 5.67036
31 2 5.89758 3.68071 5.92891
32 2 3.33984 3.76674 3.74392
33 2 5.67127 2.10233 3.27625
34 2 3.4782 0.412123 3.52243
35 2 1.03591 0.972976 5.97373
ITEM: TIMESTEP
5200
ITEM: NUMBER OF ATOMS
35
ITEM: BOX BOUNDS xy xz yz pp pp pp
0.0000000000000000e+00 7.6685730000000003e+00 2.5561910000000001e+00
0.0000000000000000e+00 4.4274529999999999e+00 0.0000000000000000e+00
0.0000000000000000e+00 3.6699264999999997e+01 0.0000000000000000e+00
ITEM: ATOMS id type x y z
1 1 7.36674 3.99191 33.3577
2 1 5.92072 1.67756 33.2358
3 1 4.85769 4.00972 33.5266
4 1 3.75818 3.40777 31.3443
5 1 3.36258 1.84581 33.516
6 1 4.95003 0.837971 30.6357
7 1 2.52841 1.1454 31.2468
8 1 6.2267 3.03764 30.9382
9 1 3.03447 2.51124 27.0699
10 1 4.3303 4.25043 29.1556
11 1 3.30496 1.94375 29.2907
12 1 6.90784 3.93129 28.5961
13 1 4.75207 0.698184 26.1412
14 1 5.49267 1.88755 28.2006
15 1 4.65161 4.36125 26.7183
16 2 3.75428 1.5607 14.9686
17 2 2.66821 1.84448 17.5719
18 2 1.53887 -0.139756 15.7778
19 2 5.13175 1.06163 17.4024
20 2 4.80578 2.1145 10.843
21 2 6.37114 3.12262 15.4737
22 2 4.14933 3.46894 13.2498
23 2 1.59636 1.51195 13.12
24 2 3.70475 0.758636 8.12875
25 2 3.58581 3.66514 8.31659
26 2 1.92655 0.762191 10.6137
27 2 4.18697 0.242886 12.9322
28 2 6.96844 3.59851 10.5471
29 2 1.17048 2.00741 8.09108
30 2 3.35229 2.08761 5.87506
31 2 6.04875 3.52074 5.93744
32 2 3.23105 3.62416 3.32231
33 2 6.12639 2.32125 3.65567
34 2 3.08174 0.765515 3.6979
35 2 0.91254 0.422855 5.78558
ITEM: TIMESTEP
5300
ITEM: NUMBER OF ATOMS
35
ITEM: BOX BOUNDS xy xz yz pp pp pp
0.0000000000000000e+00 7.6685730000000003e+00 2.5561910000000001e+00
0.0000000000000000e+00 4.4274529999999999e+00 0.0000000000000000e+00
0.0000000000000000e+00 3.6699264999999997e+01 0.0000000000000000e+00
ITEM: ATOMS id type x y z
1 1 7.17642 3.71572 33.2611
2 1 5.83173 1.36791 32.8196
3 1 4.83642 3.48956 33.7549
4 1 3.50079 2.87588 31.6325
5 1 3.56368 1.36347 33.6149
6 1 5.05324 0.950309 30.5386
7 1 2.61016 0.652131 31.5676
8 1 6.26273 3.23647 31.0215
9 1 3.1662 2.91412 26.7847
10 1 4.4824 4.1497 29.2833
11 1 2.78733 2.45831 29.237
12 1 6.68467 4.2824 28.1643
13 1 4.82189 1.06547 26.3053
14 1 5.8473 2.1261 28.2983
15 1 2.1589 0.57744 27.0224
16 2 4.20707 1.3954 15.3894
17 2 2.3929 2.06484 17.4564
18 2 4.05724 4.08285 15.8032
19 2 5.0126 0.932682 17.716
20 2 4.72301 2.51811 10.842
21 2 6.65862 2.96087 15.2572
22 2 4.03859 3.29499 13.1991
23 2 1.21738 1.82855 13.0157
24 2 3.54128 0.762929 8.48608
25 2 4.01807 3.48117 8.45284
26 2 2.09202 0.909272 10.5663
27 2 4.02505 -0.0144561 13.1021
28 2 7.33694 3.85928 10.4871
29 2 5.92882 1.88828 8.04192
30 2 3.64323 2.06048 5.94694
31 2 6.04958 3.62585 5.8972
32 2 3.45873 3.66154 3.11091
33 2 5.68395 2.23026 3.53177
34 2 3.31979 0.817036 3.3958
35 2 0.612007 0.349107 5.49579
ITEM: TIMESTEP
5400
ITEM: NUMBER OF ATOMS
35
ITEM: BOX BOUNDS xy xz yz pp pp pp
0.0000000000000000e+00 7.6685730000000003e+00 2.5561910000000001e+00
0.0000000000000000e+00 4.4274529999999999e+00 0.0000000000000000e+00
0.0000000000000000e+00 3.6699264999999997e+01 0.0000000000000000e+00
ITEM: ATOMS id type x y z
1 1 2.01273 3.07544 33.1812
2 1 5.67108 1.2376 32.9735
3 1 4.33399 3.58447 33.5021
4 1 4.09762 2.6999 31.3372
5 1 3.10636 1.01722 33.9375
6 1 5.10792 0.603016 30.6846
7 1 2.612 0.580566 31.55
8 1 6.40015 2.70405 30.8505
9 1 3.23078 3.58851 27.0323
10 1 4.42626 4.36885 29.3165
11 1 3.00301 2.05124 28.9228
12 1 4.27664 0.291528 28.5451
13 1 4.93949 1.5534 26.2917
14 1 5.43686 2.42042 28.4388
15 1 2.34324 1.14974 27.1142
16 2 4.24137 1.22564 15.3532
17 2 2.69496 2.25724 17.9285
18 2 4.22118 4.62008 15.8869
19 2 4.66818 0.453728 18.1952
20 2 4.85415 2.59362 10.4195
21 2 6.81949 2.9371 15.4802
22 2 3.33464 3.13734 13.2513
23 2 1.13084 1.38022 13.1599
24 2 3.74632 0.315251 8.28155
25 2 3.57003 3.41309 7.8563
26 2 2.5244 1.26419 10.7788
27 2 3.53968 0.396746 12.8034
28 2 2.4489 3.99767 10.6542
29 2 1.41922 1.66071 8.39712
30 2 3.34693 2.08941 5.62085
31 2 5.77474 3.77063 5.69587
32 2 3.29595 3.7233 3.29649
33 2 5.75284 2.19637 3.04396
34 2 3.44925 0.501969 3.24917
35 2 1.00022 0.729625 5.71057
ITEM: TIMESTEP
5500
ITEM: NUMBER OF ATOMS
35
ITEM: BOX BOUNDS xy xz yz pp pp pp
0.0000000000000000e+00 7.6685730000000003e+00 2.5561910000000001e+00
0.0000000000000000e+00 4.4274529999999999e+00 0.0000000000000000e+00
0.0000000000000000e+00 3.6699264999999997e+01 0.0000000000000000e+00
ITEM: ATOMS id type x y z
1 1 1.61139 3.21099 33.0423
2 1 5.30839 1.09631 33.3734
3 1 4.24821 3.21947 33.4746
4 1 4.2989 2.61823 31.3539
5 1 3.0129 1.10682 33.8502
6 1 5.2736 0.0354129 31.1342
7 1 2.73867 0.432704 31.4979
8 1 6.31083 2.32623 30.7689
9 1 3.69481 3.82461 26.8903
10 1 4.19488 5.0056 29.0945
11 1 3.27501 2.42199 29.0147
12 1 4.18291 0.228285 28.6873
13 1 4.86274 1.80447 26.5607
14 1 5.46342 2.35931 28.6475
15 1 2.39838 1.37039 26.6777
16 2 4.18814 1.65698 15.6578
17 2 3.07422 2.18402 18.0818
18 2 4.44513 4.60001 16.272
19 2 4.39511 0.109638 17.7515
20 2 5.32568 2.80146 10.4419
21 2 6.73033 3.08718 15.8692
22 2 3.13278 3.02567 13.2801
23 2 0.534836 1.53636 13.5196
24 2 3.70573 0.196646 7.82707
25 2 3.77814 3.18395 7.70905
26 2 2.81981 1.32459 10.4356
27 2 3.11895 -0.0174327 13.2279
28 2 2.82012 4.3355 10.5882
29 2 1.34825 1.77845 8.03591
30 2 3.30981 1.99345 5.22376
31 2 5.96652 3.51848 5.47038
32 2 3.20672 3.88025 3.48046
33 2 6.14765 2.00739 3.13529
34 2 3.17801 0.490543 3.1356
35 2 0.650582 0.923432 5.78286
ITEM: TIMESTEP
5600
ITEM: NUMBER OF ATOMS
35
ITEM: BOX BOUNDS xy xz yz pp pp pp
0.0000000000000000e+00 7.6685730000000003e+00 2.5561910000000001e+00
0.0000000000000000e+00 4.4274529999999999e+00 0.0000000000000000e+00
0.0000000000000000e+00 3.6699264999999997e+01 0.0000000000000000e+00
ITEM: ATOMS id type x y z
1 1 6.53848 3.49783 33.2861
2 1 5.30547 1.0596 33.322
3 1 3.98344 3.33274 33.8302
4 1 3.99487 2.03067 31.3575
5 1 2.79562 1.27529 33.382
6 1 0.249801 0.0194308 31.0628
7 1 2.83101 -0.357174 31.249
8 1 1.70863 2.17655 31.1271
9 1 3.85475 3.75584 26.7998
10 1 1.77016 0.295393 29.0416
11 1 2.75846 2.99085 29.0491
12 1 4.29332 0.714289 28.8217
13 1 4.86453 1.38451 26.5946
14 1 5.66523 2.73703 28.6037
15 1 2.46482 1.86071 26.9466
16 2 4.09727 1.99048 15.6948
17 2 3.24168 2.37407 18.3123
18 2 1.53839 0.103942 16.4488
19 2 4.49819 -0.0782689 17.9573
20 2 5.72568 3.11611 10.8755
21 2 6.73597 3.00063 15.3202
22 2 2.93656 2.89431 13.0566
23 2 5.48141 1.30764 13.1079
24 2 3.5596 0.547935 8.01934
25 2 4.10988 3.18003 7.87321
26 2 3.19832 1.47605 10.7267
27 2 5.25593 4.21266 13.5106
28 2 0.653767 0.206756 10.5424
29 2 1.24549 1.72994 7.88562
30 2 3.38755 1.90166 5.50049
31 2 5.69012 3.55988 5.27957
32 2 3.31603 3.67176 3.02719
33 2 5.88227 2.26042 3.23864
34 2 3.31487 0.628451 2.76063
35 2 0.608611 0.0554583 5.64576
ITEM: TIMESTEP
5700
ITEM: NUMBER OF ATOMS
35
ITEM: BOX BOUNDS xy xz yz pp pp pp
0.0000000000000000e+00 7.6685730000000003e+00 2.5561910000000001e+00
0.0000000000000000e+00 4.4274529999999999e+00 0.0000000000000000e+00
0.0000000000000000e+00 3.6699264999999997e+01 0.0000000000000000e+00
ITEM: ATOMS id type x y z
1 1 6.55648 3.45752 33.3761
2 1 5.33109 1.41382 33.4118
3 1 3.92654 3.55984 33.2899
4 1 4.02979 1.67677 31.1936
5 1 2.61578 0.988672 33.0816
6 1 0.26062 -0.508776 31.5879
7 1 5.48331 4.11845 30.9158
8 1 1.44099 1.94357 31.1107
9 1 4.38294 3.862 26.9712
10 1 1.57906 0.840208 29.1617
11 1 2.97601 3.11192 29.2614
12 1 4.26625 0.660401 29.0018
13 1 4.74071 1.06182 26.7686
14 1 5.84496 3.29926 28.7292
15 1 2.06531 1.86344 27.0408
16 2 4.09324 1.44291 15.5134
17 2 3.43948 2.31568 18.0674
18 2 1.46189 0.665927 16.3181
19 2 6.64555 4.4022 17.8324
20 2 6.02145 3.3811 11.0484
21 2 6.8249 3.10383 15.3652
22 2 2.66514 2.74489 12.8697
23 2 5.0935 0.951239 12.9205
24 2 4.00239 0.206191 8.51184
25 2 3.53163 3.42843 8.44999
26 2 3.571 1.7123 10.5599
27 2 5.07335 4.65144 13.6666
28 2 1.24756 0.411287 10.5084
29 2 1.51986 1.8343 7.92941
30 2 3.08054 1.65314 5.32085
31 2 5.60858 3.24114 5.70163
32 2 3.28905 3.2627 2.67577
33 2 5.78732 2.01829 2.98676
34 2 3.59566 0.653565 2.94557
35 2 0.529114 0.434846 5.44138
ITEM: TIMESTEP
5800
ITEM: NUMBER OF ATOMS
35
ITEM: BOX BOUNDS xy xz yz pp pp pp
0.0000000000000000e+00 7.6685730000000003e+00 2.5561910000000001e+00
0.0000000000000000e+00 4.4274529999999999e+00 0.0000000000000000e+00
0.0000000000000000e+00 3.6699264999999997e+01 0.0000000000000000e+00
ITEM: ATOMS id type x y z
1 1 6.67978 3.31977 33.4768
2 1 5.39449 0.883853 33.6287
3 1 4.19766 3.35683 33.5565
4 1 3.8775 2.13322 31.4689
5 1 2.79141 1.32889 33.5624
6 1 2.66881 4.16129 30.7199
7 1 4.93922 4.36036 31.28
8 1 1.27857 1.85605 31.4453
9 1 4.45126 4.15014 26.7863
10 1 1.98239 0.794271 28.9106
11 1 3.13795 2.97485 28.7854
12 1 4.06005 0.784565 29.4276
13 1 4.65942 0.491453 26.7226
14 1 5.72086 2.80933 28.7881
15 1 2.0675 2.53496 26.8159
16 2 4.22566 1.77127 15.415
17 2 3.66273 2.9118 17.3415
18 2 1.51117 0.611342 16.3321
19 2 5.99539 3.81646 17.6738
20 2 6.34622 3.4688 10.6876
21 2 6.79486 3.23786 15.3018
22 2 2.57896 2.77023 13.0181
23 2 4.88654 1.45402 13.0326
24 2 3.83543 0.16743 8.12712
25 2 4.14703 3.05463 7.82525
26 2 4.1945 2.03469 10.4464
27 2 4.70893 4.1409 13.7366
28 2 1.53934 0.815126 11.0977
29 2 1.24277 1.68366 8.30993
30 2 2.7643 1.86129 5.44766
31 2 5.67458 3.29922 5.90261
32 2 3.4069 3.36276 3.06486
33 2 6.20955 1.70569 3.0569
34 2 5.84106 4.23539 3.37523
35 2 5.23622 0.482897 5.2744
ITEM: TIMESTEP
5900
ITEM: NUMBER OF ATOMS
35
ITEM: BOX BOUNDS xy xz yz pp pp pp
0.0000000000000000e+00 7.6685730000000003e+00 2.5561910000000001e+00
0.0000000000000000e+00 4.4274529999999999e+00 0.0000000000000000e+00
0.0000000000000000e+00 3.6699264999999997e+01 0.0000000000000000e+00
ITEM: ATOMS id type x y z
1 1 6.84996 3.3599 33.5632
2 1 5.48004 1.23702 33.3467
3 1 4.32567 3.10896 33.9385
4 1 3.74923 1.82223 31.4099
5 1 2.98481 1.1461 33.7449
6 1 2.80941 4.27211 31.5624
7 1 5.38374 4.2077 31.6231
8 1 6.22483 2.04175 31.0754
9 1 4.91207 3.9985 26.552
10 1 1.43345 0.839396 28.62
11 1 2.98393 3.01183 28.5316
12 1 4.07667 0.981451 29.3466
13 1 4.4589 0.745366 27.0427
14 1 5.46474 2.93365 28.9747
15 1 1.74007 2.38919 26.4927
16 2 4.16149 1.80326 15.3265
17 2 3.17429 2.8786 17.7643
18 2 1.48158 1.01437 16.1178
19 2 6.0102 3.64211 17.6596
20 2 6.98127 3.99991 10.2544
21 2 6.7377 3.52106 15.1598
22 2 2.25861 2.7474 12.5684
23 2 5.07631 1.31334 12.8272
24 2 3.80832 0.38062 7.79832
25 2 3.83387 3.04274 7.78997
26 2 4.17681 2.41845 10.4085
27 2 4.56715 4.18544 13.73
28 2 2.03747 0.397642 11.1335
29 2 1.32903 1.18119 8.71348
30 2 2.54059 1.95413 5.80525
31 2 5.37944 3.3739 5.56799
32 2 3.41638 2.80992 3.5939
33 2 1.18152 1.2832 3.17379
34 2 6.08354 4.42621 3.18652
35 2 0.391595 0.457381 5.72984
ITEM: TIMESTEP
6000
ITEM: NUMBER OF ATOMS
35
ITEM: BOX BOUNDS xy xz yz pp pp pp
0.0000000000000000e+00 7.6685730000000003e+00 2.5561910000000001e+00
0.0000000000000000e+00 4.4274529999999999e+00 0.0000000000000000e+00
0.0000000000000000e+00 3.6699264999999997e+01 0.0000000000000000e+00
ITEM: ATOMS id type x y z
1 1 6.98306 3.5039 33.8428
2 1 5.81953 1.34237 33.2075
3 1 4.27963 3.59651 33.7852
4 1 4.02281 2.03054 31.91
5 1 3.1315 0.863705 33.6069
6 1 2.50108 4.12748 31.3641
7 1 5.24398 4.08091 31.4331
8 1 6.78966 1.85048 30.7091
9 1 4.72559 3.81548 26.7809
10 1 1.11498 0.75416 28.5863
11 1 2.84323 2.95008 28.6087
12 1 4.14726 0.781438 29.552
13 1 4.43119 1.09648 27.01
14 1 5.19442 3.35763 29.2068
15 1 1.52587 2.07959 26.6138
16 2 3.81811 2.23025 15.4989
17 2 3.08948 2.3854 17.8913
18 2 1.32514 0.77955 16.1933
19 2 5.65308 4.02852 17.3387
20 2 7.4492 4.16596 10.031
21 2 6.9939 3.76041 14.9856
22 2 2.08778 2.75882 12.3774
23 2 4.68406 1.1478 12.887
24 2 3.5081 -0.0971624 7.70638
25 2 3.68093 3.16751 8.04413
26 2 4.44401 2.22608 10.487
27 2 4.68189 4.42382 13.6501
28 2 2.60117 0.325375 11.082
29 2 1.52609 1.60801 8.78592
30 2 2.60856 1.84645 6.13727
31 2 5.17675 3.32334 5.33014
32 2 3.50676 2.55778 3.60922
33 2 1.14732 1.15441 3.5058
34 2 6.58334 4.47188 2.74514
35 2 0.10493 0.51907 5.88481
ITEM: TIMESTEP
6100
ITEM: NUMBER OF ATOMS
35
ITEM: BOX BOUNDS xy xz yz pp pp pp
0.0000000000000000e+00 7.6685730000000003e+00 2.5561910000000001e+00
0.0000000000000000e+00 4.4274529999999999e+00 0.0000000000000000e+00
0.0000000000000000e+00 3.6699264999999997e+01 0.0000000000000000e+00
ITEM: ATOMS id type x y z
1 1 6.92766 3.35682 33.3181
2 1 0.88525 1.11935 33.1627
3 1 4.56582 3.40377 33.6481
4 1 4.3515 2.13184 31.3004
5 1 3.3739 1.46801 33.8648
6 1 2.85799 4.13642 31.2068
7 1 5.32177 4.30654 31.6684
8 1 1.67661 1.98019 31.0479
9 1 4.41056 3.62277 27.0473
10 1 1.43322 0.675291 28.7872
11 1 2.49771 3.12581 28.8667
12 1 3.48731 0.640769 29.4952
13 1 3.56736 1.17642 27.211
14 1 5.35177 2.86452 29.2308
15 1 1.69618 2.35862 26.7565
16 2 3.99831 2.47191 15.3154
17 2 2.94179 2.21823 17.6561
18 2 5.65053 1.02449 16.4004
19 2 5.78392 3.95619 17.1505
20 2 2.81485 3.84536 10.3029
21 2 6.66301 3.44366 14.8683
22 2 2.04366 2.71464 12.4831
23 2 4.71843 1.28444 13.1979
24 2 3.69413 0.0344523 8.18279
25 2 3.75358 2.96542 7.79843
26 2 5.02387 2.29827 10.6915
27 2 1.97467 0.0145947 13.7061
28 2 2.35437 0.552109 10.8774
29 2 1.62739 1.86504 8.80823
30 2 2.43876 1.85713 5.85828
31 2 5.44743 3.55003 5.14165
32 2 3.65191 2.74359 3.33148
33 2 1.44781 1.17816 3.64062
34 2 6.31336 3.7984 2.93262
35 2 4.92869 0.491832 5.68906
ITEM: TIMESTEP
6200
ITEM: NUMBER OF ATOMS
35
ITEM: BOX BOUNDS xy xz yz pp pp pp
0.0000000000000000e+00 7.6685730000000003e+00 2.5561910000000001e+00
0.0000000000000000e+00 4.4274529999999999e+00 0.0000000000000000e+00
0.0000000000000000e+00 3.6699264999999997e+01 0.0000000000000000e+00
ITEM: ATOMS id type x y z
1 1 7.61493 3.17987 33.0488
2 1 0.682335 1.1341 33.5785
3 1 4.80818 3.27806 33.7448
4 1 4.35619 2.31285 31.6965
5 1 3.27685 1.16497 33.8372
6 1 3.44249 4.45019 31.0656
7 1 5.55293 4.56553 31.6607
8 1 1.75188 2.35617 30.9941
9 1 3.7467 3.49071 26.7187
10 1 1.40973 1.02591 28.6757
11 1 2.58685 2.89882 28.8744
12 1 3.76234 0.458407 29.4514
13 1 3.56353 0.76467 27.271
14 1 4.63944 2.53301 29.2434
15 1 1.07846 2.89831 27.1691
16 2 3.61895 2.37988 15.1295
17 2 2.6594 2.4241 17.5651
18 2 5.66422 0.766888 16.8743
19 2 5.48303 4.02515 17.2031
20 2 2.80072 3.67507 10.3499
21 2 6.13444 2.95311 15.0465
22 2 2.28138 2.80931 12.5888
23 2 4.71549 1.21815 13.0535
24 2 4.225 0.741641 8.52983
25 2 4.0818 3.25499 7.86812
26 2 5.17978 2.46718 10.7256
27 2 1.96541 0.0932982 13.5668
28 2 2.98322 0.804609 11.0214
29 2 1.42825 1.30701 8.09987
30 2 2.37912 2.06308 5.68376
31 2 5.0043 3.47395 5.7949
32 2 3.9084 2.51019 3.23834
33 2 1.24337 0.835628 3.00601
34 2 6.40525 3.75357 2.92462
35 2 5.15521 0.700414 5.61588
ITEM: TIMESTEP
6300
ITEM: NUMBER OF ATOMS
35
ITEM: BOX BOUNDS xy xz yz pp pp pp
0.0000000000000000e+00 7.6685730000000003e+00 2.5561910000000001e+00
0.0000000000000000e+00 4.4274529999999999e+00 0.0000000000000000e+00
0.0000000000000000e+00 3.6699264999999997e+01 0.0000000000000000e+00
ITEM: ATOMS id type x y z
1 1 2.4122 3.39746 33.4586
2 1 1.14384 1.05014 33.1854
3 1 5.04819 3.25626 34.0606
4 1 4.2625 2.11859 31.857
5 1 3.66429 1.06771 34.2077
6 1 0.599755 0.28204 30.8898
7 1 3.17032 0.00963285 32.099
8 1 2.01586 2.32255 31.1957
9 1 2.60714 3.73755 26.4855
10 1 1.43632 0.2623 28.2992
11 1 2.59175 2.67153 28.6556
12 1 3.90081 0.742445 29.3563
13 1 3.66957 1.23839 26.981
14 1 5.17656 2.96344 29.6115
15 1 5.33262 2.67767 27.0954
16 2 3.18467 1.71547 15.4692
17 2 2.48794 2.60229 17.8776
18 2 5.21624 0.603094 16.4712
19 2 5.13021 4.20371 17.3903
20 2 2.86598 3.80712 10.4769
21 2 6.02813 2.8124 15.2823
22 2 2.32066 2.93444 12.9755
23 2 4.75958 1.14821 13.1174
24 2 3.70603 0.468101 8.15681
25 2 4.29605 3.33623 8.38417
26 2 5.68283 2.50637 10.5767
27 2 4.7071 4.3268 13.499
28 2 3.05384 0.842635 10.7496
29 2 1.54806 2.09389 7.66656
30 2 2.78168 2.27925 5.32147
31 2 5.18054 3.86252 5.44505
32 2 4.0098 2.04729 3.24254
33 2 1.28169 0.677383 2.77388
34 2 6.6058 3.85321 3.39116
35 2 5.07134 0.514721 5.47511
ITEM: TIMESTEP
6400
ITEM: NUMBER OF ATOMS
35
ITEM: BOX BOUNDS xy xz yz pp pp pp
0.0000000000000000e+00 7.6685730000000003e+00 2.5561910000000001e+00
0.0000000000000000e+00 4.4274529999999999e+00 0.0000000000000000e+00
0.0000000000000000e+00 3.6699264999999997e+01 0.0000000000000000e+00
ITEM: ATOMS id type x y z
1 1 2.5277 3.33408 33.5254
2 1 1.38906 1.07852 33.2629
3 1 5.20895 3.42783 34.2075
4 1 4.47634 2.24972 32.0434
5 1 3.873 0.956741 34.0679
6 1 0.840462 -0.152845 30.7163
7 1 3.41183 -0.0703614 31.7468
8 1 2.15167 2.12448 31.0711
9 1 2.03125 3.66949 26.5403
10 1 1.26656 0.35774 28.2923
11 1 2.2219 2.85399 28.701
12 1 4.16976 0.852428 29.2648
13 1 2.93188 1.19982 26.7662
14 1 5.31962 3.18433 29.9367
15 1 5.10228 2.85175 27.643
16 2 2.86239 1.52372 15.5825
17 2 2.30175 2.58099 17.8986
18 2 5.41157 0.206449 16.1054
19 2 4.75673 3.89247 17.6004
20 2 3.00067 4.16457 10.8729
21 2 5.79927 3.05314 15.4014
22 2 2.22018 2.57923 13.1163
23 2 4.85395 1.39294 13.3573
24 2 4.12795 0.670716 7.85656
25 2 3.89474 3.26568 7.92201
26 2 5.56644 2.34042 10.5499
27 2 4.55182 4.25421 13.3488
28 2 2.88347 1.15864 10.3975
29 2 1.58144 2.30605 7.85819
30 2 2.88006 2.28511 5.37012
31 2 5.12715 4.00361 5.51934
32 2 4.31129 2.01962 2.78755
33 2 1.71298 0.525217 3.20102
34 2 6.67167 3.44865 3.12526
35 2 5.44108 0.921554 5.74948
ITEM: TIMESTEP
6500
ITEM: NUMBER OF ATOMS
35
ITEM: BOX BOUNDS xy xz yz pp pp pp
0.0000000000000000e+00 7.6685730000000003e+00 2.5561910000000001e+00
0.0000000000000000e+00 4.4274529999999999e+00 0.0000000000000000e+00
0.0000000000000000e+00 3.6699264999999997e+01 0.0000000000000000e+00
ITEM: ATOMS id type x y z
1 1 2.87401 3.0461 33.0148
2 1 1.34622 0.958729 33.3586
3 1 5.23392 3.30161 33.8591
4 1 5.10848 2.41354 31.7567
5 1 4.09779 1.27255 34.0276
6 1 3.40621 4.37254 31.1105
7 1 3.59752 -0.0734763 31.843
8 1 2.24405 1.75929 31.0845
9 1 7.32224 4.02251 26.9446
10 1 0.90906 0.782547 28.7082
11 1 2.52003 2.86731 29.1091
12 1 3.64535 0.800726 29.2899
13 1 2.57266 1.27842 26.9583
14 1 5.15779 3.21677 29.6596
15 1 4.44954 2.44209 27.3973
16 2 2.96935 1.62679 15.5111
17 2 1.79635 2.37851 17.744
18 2 0.605094 -0.0928794 15.6105
19 2 4.55887 3.38387 18.1084
20 2 2.89526 4.22994 10.6677
21 2 5.45893 3.25104 15.4539
22 2 2.07307 2.63434 12.9331
23 2 4.51522 1.15358 13.3545
24 2 4.21909 0.726135 8.22231
25 2 4.00112 3.80375 7.94785
26 2 5.11516 2.95587 10.5295
27 2 4.55555 4.11557 12.9023
28 2 2.91321 1.22416 10.4055
29 2 1.51987 1.77407 8.22727
30 2 3.04408 2.68207 5.31279
31 2 5.79168 3.87592 5.83346
32 2 4.44776 1.97108 2.97295
33 2 1.9503 0.311689 3.48532
34 2 6.98284 3.18904 3.02033
35 2 5.4686 1.35765 5.25967
ITEM: TIMESTEP
6600
ITEM: NUMBER OF ATOMS
35
ITEM: BOX BOUNDS xy xz yz pp pp pp
0.0000000000000000e+00 7.6685730000000003e+00 2.5561910000000001e+00
0.0000000000000000e+00 4.4274529999999999e+00 0.0000000000000000e+00
0.0000000000000000e+00 3.6699264999999997e+01 0.0000000000000000e+00
ITEM: ATOMS id type x y z
1 1 2.86611 3.18538 33.5449
2 1 1.64168 0.854893 33.4125
3 1 5.65202 3.16957 33.9336
4 1 4.84569 1.74846 31.3424
5 1 4.25814 1.01364 33.8473
6 1 3.73409 3.97902 31.3198
7 1 3.55014 -0.158534 31.7373
8 1 2.23969 2.13857 31.2702
9 1 7.11174 4.71502 27.2936
10 1 1.13025 1.19404 29.3949
11 1 2.43535 3.23993 29.1381
12 1 3.56608 0.922472 29.3808
13 1 2.00043 0.909692 27.3631
14 1 4.71771 3.20673 28.9698
15 1 4.62088 2.46828 26.5379
16 2 3.27859 1.5598 15.6427
17 2 1.33815 1.84813 17.5874
18 2 3.00442 4.56054 15.3903
19 2 3.95374 3.20594 17.7844
20 2 2.40544 4.56299 10.3426
21 2 5.73649 3.00621 15.3409
22 2 1.72214 2.78305 12.8752
23 2 4.35104 0.944592 12.9234
24 2 3.96643 0.750948 8.2145
25 2 4.21348 3.34624 8.04702
26 2 5.33957 2.96724 10.3872
27 2 4.43695 4.01749 12.9096
28 2 2.67547 1.59251 10.937
29 2 1.72437 2.41259 8.21094
30 2 3.39813 2.7573 5.77567
31 2 6.01 4.39853 5.81427
32 2 4.41012 1.73087 3.06635
33 2 2.40254 0.0517504 3.50234
34 2 2.14238 3.31684 3.14839
35 2 5.85611 1.12191 5.47441
ITEM: TIMESTEP
6700
ITEM: NUMBER OF ATOMS
35
ITEM: BOX BOUNDS xy xz yz pp pp pp
0.0000000000000000e+00 7.6685730000000003e+00 2.5561910000000001e+00
0.0000000000000000e+00 4.4274529999999999e+00 0.0000000000000000e+00
0.0000000000000000e+00 3.6699264999999997e+01 0.0000000000000000e+00
ITEM: ATOMS id type x y z
1 1 3.20169 3.18768 34.2438
2 1 1.98161 0.708943 33.9806
3 1 5.69999 2.89715 33.5837
4 1 4.89229 1.88126 31.5741
5 1 4.29389 0.528243 33.5016
6 1 3.54848 4.01163 31.5812
7 1 6.28682 4.03646 31.1823
8 1 2.58115 1.80636 31.7367
9 1 4.28402 0.691932 27.1961
10 1 0.853967 1.02302 29.5682
11 1 1.99508 3.27533 28.8711
12 1 3.36563 1.37523 29.4597
13 1 1.73758 0.761425 27.1713
14 1 4.78589 3.37352 28.8731
15 1 4.7333 3.16997 26.3708
16 2 3.21626 1.30098 15.2752
17 2 0.799469 1.26351 17.5636
18 2 0.605615 0.310193 15.1634
19 2 3.27939 3.14667 17.1375
20 2 5.58604 0.132252 10.6052
21 2 5.65446 3.11172 15.6335
22 2 1.66599 2.47689 13.0805
23 2 4.29891 1.3081 12.8588
24 2 3.9784 0.933006 8.09998
25 2 4.31519 3.96069 8.30695
26 2 5.2931 3.00684 10.7678
27 2 3.91909 3.90722 13.0819
28 2 2.68817 1.78256 10.4211
29 2 1.65441 2.54037 8.04753
30 2 3.73934 2.52685 5.577
31 2 5.99514 4.06712 5.65981
32 2 4.86618 1.52517 3.31248
33 2 2.06941 0.128112 3.04268
34 2 2.44509 3.20992 3.6491
35 2 1.22874 1.39287 5.94709
ITEM: TIMESTEP
6800
ITEM: NUMBER OF ATOMS
35
ITEM: BOX BOUNDS xy xz yz pp pp pp
0.0000000000000000e+00 7.6685730000000003e+00 2.5561910000000001e+00
0.0000000000000000e+00 4.4274529999999999e+00 0.0000000000000000e+00
0.0000000000000000e+00 3.6699264999999997e+01 0.0000000000000000e+00
ITEM: ATOMS id type x y z
1 1 3.44846 2.43492 33.9235
2 1 1.84245 0.556997 34.472
3 1 5.936 2.55951 33.4649
4 1 5.00596 2.01182 31.137
5 1 4.56724 0.575206 33.5472
6 1 3.56082 4.04556 31.9757
7 1 6.4415 4.08095 30.7143
8 1 2.59734 1.4485 32.0924
9 1 4.08205 1.07855 27.2194
10 1 0.565724 0.836645 29.3339
11 1 1.9945 3.5019 28.3627
12 1 2.99488 1.33523 29.4775
13 1 1.48401 1.69979 27.2191
14 1 4.53878 3.32881 29.2984
15 1 5.05777 3.36952 27.0499
16 2 2.84722 1.49708 15.1406
17 2 5.41731 0.994185 17.5282
18 2 0.265493 0.476449 15.0396
19 2 2.68764 2.63589 17.3157
20 2 0.374756 0.309788 10.5784
21 2 5.37965 3.35526 16.222
22 2 1.67535 2.32446 12.8331
23 2 4.13444 0.91808 12.6309
24 2 4.44709 1.24131 8.12093
25 2 4.17878 4.46715 8.14534
26 2 5.69343 3.34571 10.6295
27 2 4.3176 3.84211 12.9257
28 2 3.14278 1.68139 10.3988
29 2 1.43576 2.90369 8.39236
30 2 4.0284 2.53442 5.99631
31 2 6.43727 3.94784 5.73082
32 2 5.07963 1.73511 3.53154
33 2 2.22948 0.185671 2.88452
34 2 2.31599 2.97541 3.39236
35 2 1.25381 0.612365 5.6564
ITEM: TIMESTEP
6900
ITEM: NUMBER OF ATOMS
35
ITEM: BOX BOUNDS xy xz yz pp pp pp
0.0000000000000000e+00 7.6685730000000003e+00 2.5561910000000001e+00
0.0000000000000000e+00 4.4274529999999999e+00 0.0000000000000000e+00
0.0000000000000000e+00 3.6699264999999997e+01 0.0000000000000000e+00
ITEM: ATOMS id type x y z
1 1 3.37508 2.48816 34.105
2 1 2.09752 0.334212 33.9251
3 1 6.03874 2.70622 33.4182
4 1 5.01167 1.51862 31.6866
5 1 4.63096 0.282033 33.4319
6 1 4.01817 3.72185 31.8597
7 1 6.74695 3.50449 31.0661
8 1 2.40209 1.41849 31.8524
9 1 3.95841 1.67929 27.2942
10 1 5.33123 1.45676 29.2048
11 1 2.06457 3.49755 28.2835
12 1 2.76701 1.52158 29.4762
13 1 1.39491 1.49307 26.9057
14 1 4.42392 3.47492 29.6896
15 1 4.86643 3.87868 27.414
16 2 2.75193 1.97463 15.1772
17 2 4.98012 0.71507 17.4587
18 2 4.99966 0.101716 15.047
19 2 2.26202 2.21828 17.8226
20 2 0.753001 0.45239 10.3773
21 2 5.07456 3.72236 16.3153
22 2 1.61004 2.37344 12.8942
23 2 4.22464 0.669874 12.7291
24 2 4.41263 1.38635 8.27735
25 2 4.47698 4.29793 8.02056
26 2 5.60378 3.40606 10.4524
27 2 4.42581 3.66537 13.3738
28 2 3.04601 2.15797 10.5478
29 2 6.9923 2.77433 7.80848
30 2 3.67263 2.31144 5.87221
31 2 6.67589 4.05385 5.59702
32 2 4.73452 1.82034 3.55711
33 2 2.81736 -0.0527128 3.27071
34 2 2.49239 2.98207 3.1782
35 2 1.59627 0.913268 5.20184
ITEM: TIMESTEP
7000
ITEM: NUMBER OF ATOMS
35
ITEM: BOX BOUNDS xy xz yz pp pp pp
0.0000000000000000e+00 7.6685730000000003e+00 2.5561910000000001e+00
0.0000000000000000e+00 4.4274529999999999e+00 0.0000000000000000e+00
0.0000000000000000e+00 3.6699264999999997e+01 0.0000000000000000e+00
ITEM: ATOMS id type x y z
1 1 3.36862 2.50333 34.1632
2 1 2.30457 0.166406 34.0007
3 1 5.82213 2.32735 33.5384
4 1 5.29169 0.742726 31.436
5 1 4.8505 0.125686 33.9928
6 1 4.14473 3.39943 32.1239
7 1 6.16744 3.44764 30.6371
8 1 2.90561 1.43563 31.7301
9 1 3.48017 1.82401 27.1115
10 1 5.56542 1.69908 29.042
11 1 2.25499 3.82312 28.4003
12 1 3.00094 1.48155 29.4201
13 1 6.08727 1.98393 26.9797
14 1 3.89068 3.95038 29.9045
15 1 5.00201 4.17883 27.4608
16 2 2.55457 1.73968 15.625
17 2 4.58039 0.664946 17.6741
18 2 4.75123 0.278607 15.0356
19 2 1.96421 2.10107 17.9061
20 2 1.05353 0.834672 10.5179
21 2 4.7272 3.56817 16.527
22 2 1.55697 1.93971 12.9854
23 2 4.17575 0.944988 12.2324
24 2 4.61308 1.05155 8.29
25 2 4.71676 4.11226 7.61856
26 2 5.64827 3.43638 10.476
27 2 4.32509 3.57338 13.5959
28 2 3.05377 2.64967 10.5627
29 2 2.16362 2.42129 8.04401
30 2 4.06887 2.5553 5.60199
31 2 6.68112 4.03468 5.5164
32 2 5.16041 1.46634 3.05383
33 2 5.15911 4.39197 3.04511
34 2 2.83304 3.1437 3.04958
35 2 1.29561 1.42336 5.50585
ITEM: TIMESTEP
7100
ITEM: NUMBER OF ATOMS
35
ITEM: BOX BOUNDS xy xz yz pp pp pp
0.0000000000000000e+00 7.6685730000000003e+00 2.5561910000000001e+00
0.0000000000000000e+00 4.4274529999999999e+00 0.0000000000000000e+00
0.0000000000000000e+00 3.6699264999999997e+01 0.0000000000000000e+00
ITEM: ATOMS id type x y z
1 1 3.62007 2.11396 34.3822
2 1 2.1917 -0.0600439 34.4514
3 1 6.52368 2.30166 33.4266
4 1 5.19865 0.850709 31.7914
5 1 7.31084 4.36919 33.9897
6 1 4.26156 2.97545 32.3212
7 1 6.63316 3.72632 30.7478
8 1 2.65338 0.939034 32.1081
9 1 3.523 2.42817 26.9066
10 1 5.59331 1.89181 29.022
11 1 6.93005 4.19259 27.7804
12 1 3.05706 1.35765 29.3317
13 1 5.99113 2.25874 26.6067
14 1 3.76512 3.87307 29.7622
15 1 4.43592 4.42614 27.6848
16 2 2.00367 1.44556 15.6768
17 2 4.31082 0.581206 17.667
18 2 4.50128 0.541836 14.7849
19 2 1.55063 2.2558 18.1391
20 2 1.26198 1.16321 10.6221
21 2 4.36452 3.04021 16.871
22 2 1.59504 2.05379 13.2024
23 2 4.01399 0.777884 12.345
24 2 4.93137 0.670448 8.32295
25 2 4.76585 3.70214 7.84616
26 2 5.98694 3.87367 10.2936
27 2 4.28782 3.49235 13.4424
28 2 3.57644 2.89595 10.4386
29 2 2.11255 2.42287 8.13382
30 2 4.18481 2.83872 5.07344
31 2 6.80892 4.3392 5.63904
32 2 5.47871 1.43379 2.26842
33 2 2.65301 0.276247 3.12163
34 2 2.70831 2.8525 3.08247
35 2 1.47075 1.20199 5.76222
ITEM: TIMESTEP
7200
ITEM: NUMBER OF ATOMS
35
ITEM: BOX BOUNDS xy xz yz pp pp pp
0.0000000000000000e+00 7.6685730000000003e+00 2.5561910000000001e+00
0.0000000000000000e+00 4.4274529999999999e+00 0.0000000000000000e+00
0.0000000000000000e+00 3.6699264999999997e+01 0.0000000000000000e+00
ITEM: ATOMS id type x y z
1 1 3.8425 1.85938 34.5425
2 1 2.34094 -0.247034 34.2548
3 1 6.3698 2.25192 33.5448
4 1 5.70809 1.32212 31.4611
5 1 7.66036 4.42835 33.6335
6 1 3.56876 2.9902 32.188
7 1 6.67554 3.13627 30.6683
8 1 3.08521 0.377547 32.0244
9 1 3.22729 2.47674 27.7129
10 1 5.34717 1.924 29.2098
11 1 6.70121 4.72036 27.6797
12 1 3.00016 1.2927 29.7232
13 1 5.81348 2.65208 26.8209
14 1 4.03623 3.76068 29.8765
15 1 4.18084 4.84391 27.398
16 2 1.39009 1.41678 15.9361
17 2 4.06088 0.168629 17.5253
18 2 4.20762 0.186577 15.162
19 2 1.23147 2.14613 18.3379
20 2 1.37705 1.21596 10.6807
21 2 3.90108 3.27682 16.6709
22 2 1.72508 2.64165 13.0051
23 2 4.2011 0.749938 12.5083
24 2 5.10338 0.951876 8.05455
25 2 4.71879 3.43514 8.02131
26 2 6.4709 4.18856 10.0989
27 2 4.17014 3.69533 13.3681
28 2 3.79508 2.71112 10.6979
29 2 2.52803 1.96194 7.82667
30 2 4.46712 2.62336 4.87273
31 2 6.95819 4.47475 5.65779
32 2 5.09424 1.5429 2.6349
33 2 3.20959 0.252106 3.33478
34 2 2.14721 2.8823 2.91499
35 2 1.8564 1.28669 5.27464
ITEM: TIMESTEP
7300
ITEM: NUMBER OF ATOMS
35
ITEM: BOX BOUNDS xy xz yz pp pp pp
0.0000000000000000e+00 7.6685730000000003e+00 2.5561910000000001e+00
0.0000000000000000e+00 4.4274529999999999e+00 0.0000000000000000e+00
0.0000000000000000e+00 3.6699264999999997e+01 0.0000000000000000e+00
ITEM: ATOMS id type x y z
1 1 3.57593 2.21502 34.1479
2 1 5.20628 4.11493 34.3405
3 1 1.31801 2.04784 33.459
4 1 0.59127 0.940848 31.3253
5 1 2.73189 4.37169 33.8105
6 1 3.70134 2.49914 31.874
7 1 6.91736 3.62655 30.062
8 1 5.70813 4.34988 32.048
9 1 2.51773 2.63509 28.1546
10 1 5.64696 1.88104 29.2933
11 1 4.0089 0.455974 28.0155
12 1 3.05613 1.38056 29.9669
13 1 5.19828 2.90314 27.2052
14 1 4.29054 3.86869 29.8462
15 1 1.61431 0.651574 27.6436
16 2 1.01914 1.81205 15.684
17 2 3.51707 0.114778 18.0186
18 2 6.17888 4.27559 15.1471
19 2 1.00783 1.60063 18.2943
20 2 1.50473 1.05027 10.3866
21 2 3.5761 3.27684 16.5135
22 2 1.60678 2.48468 12.8867
23 2 4.52175 1.05015 12.6509
24 2 5.49309 1.01219 7.89651
25 2 5.04567 3.88081 7.72603
26 2 6.68573 3.99667 9.98004
27 2 4.25046 4.25016 13.5737
28 2 4.1055 2.87387 10.7061
29 2 2.99975 2.02612 7.74405
30 2 4.56372 2.79263 5.46711
31 2 7.15553 3.89566 5.73148
32 2 5.0836 1.45333 2.95702
33 2 4.81339 4.30007 2.94025
34 2 2.8016 2.93172 2.873
35 2 1.84374 1.53157 5.24703
ITEM: TIMESTEP
7400
ITEM: NUMBER OF ATOMS
35
ITEM: BOX BOUNDS xy xz yz pp pp pp
0.0000000000000000e+00 7.6685730000000003e+00 2.5561910000000001e+00
0.0000000000000000e+00 4.4274529999999999e+00 0.0000000000000000e+00
0.0000000000000000e+00 3.6699264999999997e+01 0.0000000000000000e+00
ITEM: ATOMS id type x y z
1 1 4.02144 1.79637 34.1715
2 1 5.12652 4.17375 34.6601
3 1 1.70645 2.24372 33.4717
4 1 0.773636 0.42274 31.9826
5 1 2.55122 4.32728 34.0534
6 1 3.5883 2.46316 31.9745
7 1 7.08337 4.17603 30.0945
8 1 5.76577 4.18129 32.2749
9 1 2.32739 3.03189 27.2821
10 1 5.78621 1.67416 29.6941
11 1 3.68242 0.493137 27.6694
12 1 2.96185 1.7591 29.8431
13 1 5.02985 2.75688 27.5395
14 1 4.42957 3.98432 29.4687
15 1 1.11987 0.6017 27.4412
16 2 0.543769 1.80807 15.3704
17 2 3.0748 0.169266 17.7779
18 2 6.19914 4.84033 15.4379
19 2 0.69903 1.11384 17.7985
20 2 2.0168 1.17204 10.4544
21 2 3.29097 2.91097 16.7498
22 2 1.85246 2.69071 12.648
23 2 4.2333 1.14208 12.8122
24 2 5.71302 1.19492 8.01703
25 2 5.79941 4.0484 7.71662
26 2 6.90875 3.93329 10.0196
27 2 4.04349 4.11027 13.5609
28 2 4.38666 2.71926 10.431
29 2 3.10981 2.73449 8.12257
30 2 4.35929 2.71073 5.46635
31 2 7.09084 4.32736 5.30804
32 2 5.07831 1.20906 3.38998
33 2 5.17609 4.19281 2.73831
34 2 2.25347 2.61628 3.12244
35 2 1.99003 0.915198 5.33168
ITEM: TIMESTEP
7500
ITEM: NUMBER OF ATOMS
35
ITEM: BOX BOUNDS xy xz yz pp pp pp
0.0000000000000000e+00 7.6685730000000003e+00 2.5561910000000001e+00
0.0000000000000000e+00 4.4274529999999999e+00 0.0000000000000000e+00
0.0000000000000000e+00 3.6699264999999997e+01 0.0000000000000000e+00
ITEM: ATOMS id type x y z
1 1 4.33787 1.95689 34.3865
2 1 5.30847 4.26763 34.2007
3 1 1.40084 1.81065 33.8862
4 1 1.03391 0.46332 31.9811
5 1 2.78899 3.91545 34.5523
6 1 3.57959 2.4672 31.9115
7 1 6.8094 3.93746 29.5758
8 1 6.26201 4.30068 32.0869
9 1 2.41001 2.87438 27.3202
10 1 5.4458 1.90001 30.1777
11 1 3.52745 0.60046 27.5482
12 1 3.17032 2.11963 29.4631
13 1 4.68369 2.76975 27.6358
14 1 4.31343 4.30839 29.8553
15 1 0.766665 0.521864 27.4299
16 2 5.93934 2.22002 14.9574
17 2 2.92817 -0.351584 17.7574
18 2 3.27242 0.539348 15.0524
19 2 0.160704 1.04223 17.4635
20 2 2.16671 0.910405 10.6393
21 2 3.01704 2.88887 16.6678
22 2 1.64358 2.9018 12.8153
23 2 3.9886 1.2847 12.5961
24 2 5.91676 1.40926 8.02163
25 2 5.87958 4.54101 7.89887
26 2 7.39723 4.29212 10.6209
27 2 4.05869 3.79906 13.5527
28 2 4.86136 2.58309 10.4905
29 2 3.32782 2.94164 7.8893
30 2 4.41138 2.44932 5.3685
31 2 7.07546 3.88724 5.49578
32 2 4.89019 1.17273 2.8281
33 2 5.2735 4.22217 3.00213
34 2 2.22395 2.36598 3.38871
35 2 1.98366 0.987484 5.63004
ITEM: TIMESTEP
7600
ITEM: NUMBER OF ATOMS
35
ITEM: BOX BOUNDS xy xz yz pp pp pp
0.0000000000000000e+00 7.6685730000000003e+00 2.5561910000000001e+00
0.0000000000000000e+00 4.4274529999999999e+00 0.0000000000000000e+00
0.0000000000000000e+00 3.6699264999999997e+01 0.0000000000000000e+00
ITEM: ATOMS id type x y z
1 1 4.03293 1.79199 34.1703
2 1 5.42618 4.06164 33.6842
3 1 1.60173 2.11064 34.1477
4 1 1.26606 0.634267 32.274
5 1 2.95063 4.1169 34.1769
6 1 3.61851 2.47912 32.0978
7 1 6.79302 4.29421 29.322
8 1 6.76386 3.59385 31.6419
9 1 1.98037 2.5555 27.4648
10 1 5.41887 2.25113 30.3718
11 1 3.22025 0.587964 27.0226
12 1 2.91825 2.0114 29.7074
13 1 4.67836 2.83593 28.1964
14 1 1.70303 -0.162041 30.0493
15 1 0.794928 0.751941 28.0747
16 2 5.89306 2.31445 15.1117
17 2 5.29574 3.65102 17.2717
18 2 3.10712 0.721896 15.1738
19 2 4.99247 1.00878 17.123
20 2 2.46642 1.11057 10.6718
21 2 3.00104 3.07289 16.3914
22 2 6.32058 2.62746 12.5672
23 2 4.07118 1.33967 12.7082
24 2 5.91678 1.88406 8.08429
25 2 3.39649 0.435537 8.44759
26 2 2.73233 3.82019 10.5141
27 2 3.58219 4.06355 13.483
28 2 5.16421 2.73917 10.2653
29 2 3.58786 3.24429 8.00344
30 2 4.76303 2.0924 5.3489
31 2 7.20343 3.69174 5.76902
32 2 4.9941 1.05117 2.68374
33 2 4.61742 3.88448 3.51353
34 2 2.6644 2.53297 3.17932
35 2 1.79916 0.755597 5.68831
ITEM: TIMESTEP
7700
ITEM: NUMBER OF ATOMS
35
ITEM: BOX BOUNDS xy xz yz pp pp pp
0.0000000000000000e+00 7.6685730000000003e+00 2.5561910000000001e+00
0.0000000000000000e+00 4.4274529999999999e+00 0.0000000000000000e+00
0.0000000000000000e+00 3.6699264999999997e+01 0.0000000000000000e+00
ITEM: ATOMS id type x y z
1 1 4.14766 1.71126 34.497
2 1 5.18878 3.69798 33.1269
3 1 1.8395 2.27104 34.4106
4 1 1.46243 1.69468 32.3217
5 1 3.0991 4.24446 33.9488
6 1 3.98248 1.6781 32.0777
7 1 6.10794 4.33877 29.6613
8 1 7.20237 3.92244 31.8265
9 1 2.04307 3.25267 27.5581
10 1 5.22074 1.55256 29.8419
11 1 3.25677 0.723843 27.4059
12 1 2.50623 2.0343 29.8131
13 1 4.44766 2.80008 27.9901
14 1 4.06411 3.81068 30.4269
15 1 1.03108 0.746116 27.9136
16 2 5.42266 2.22872 14.9842
17 2 5.32343 3.93207 17.458
18 2 2.8585 0.59082 14.9424
19 2 4.92801 0.961797 17.4565
20 2 2.51453 0.972885 10.5865
21 2 3.01304 3.10629 15.7795
22 2 6.46859 2.88108 12.4981
23 2 3.84668 1.37131 12.7247
24 2 1.26848 1.9626 7.78217
25 2 3.94024 0.659309 8.16029
26 2 2.53783 4.02646 10.5205
27 2 3.37189 4.11801 13.5245
28 2 5.04152 2.60701 10.3342
29 2 3.69998 3.62067 8.01607
30 2 4.61062 1.9152 5.54944
31 2 7.14919 3.63981 5.61704
32 2 5.07427 0.703184 3.36313
33 2 5.01247 3.90702 3.3514
34 2 2.01404 2.24928 3.19234
35 2 2.40394 0.540233 6.0114
ITEM: TIMESTEP
7800
ITEM: NUMBER OF ATOMS
35
ITEM: BOX BOUNDS xy xz yz pp pp pp
0.0000000000000000e+00 7.6685730000000003e+00 2.5561910000000001e+00
0.0000000000000000e+00 4.4274529999999999e+00 0.0000000000000000e+00
0.0000000000000000e+00 3.6699264999999997e+01 0.0000000000000000e+00
ITEM: ATOMS id type x y z
1 1 4.30826 1.9426 34.4637
2 1 5.20902 3.84784 32.5325
3 1 1.48418 2.27551 34.7765
4 1 1.36808 1.6337 32.0296
5 1 3.24651 4.38989 34.2817
6 1 3.72534 1.84214 32.2186
7 1 6.27949 3.68705 29.982
8 1 2.48077 4.06776 32.0769
9 1 2.13347 3.19924 27.8291
10 1 4.84977 1.29665 29.9219
11 1 3.56314 1.14954 27.9321
12 1 2.16267 1.59475 29.8151
13 1 4.78738 3.35183 27.6668
14 1 3.85419 3.45718 30.0741
15 1 0.908251 0.884576 27.6507
16 2 5.17981 1.83957 15.1855
17 2 5.20568 4.01973 17.5607
18 2 2.72593 0.389592 15.2277
19 2 5.15279 1.26606 17.617
20 2 2.15671 0.732565 10.0389
21 2 2.49216 3.18265 15.702
22 2 6.22901 2.91048 12.9325
23 2 3.64201 1.73436 12.5682
24 2 1.63379 2.49954 8.12391
25 2 4.31548 0.789773 7.98536
26 2 7.34625 4.29232 10.5737
27 2 3.97971 4.4261 12.787
28 2 4.82352 2.50253 10.1824
29 2 4.03863 3.60811 7.97359
30 2 4.83356 2.32203 5.72519
31 2 2.41683 3.1499 5.63874
32 2 4.83683 0.422429 3.68668
33 2 4.97965 3.62179 3.15007
34 2 2.14054 1.78502 3.42406
35 2 2.41561 0.449594 5.61776
ITEM: TIMESTEP
7900
ITEM: NUMBER OF ATOMS
35
ITEM: BOX BOUNDS xy xz yz pp pp pp
0.0000000000000000e+00 7.6685730000000003e+00 2.5561910000000001e+00
0.0000000000000000e+00 4.4274529999999999e+00 0.0000000000000000e+00
0.0000000000000000e+00 3.6699264999999997e+01 0.0000000000000000e+00
ITEM: ATOMS id type x y z
1 1 4.03186 2.05642 34.1633
2 1 4.9162 4.17194 32.4071
3 1 1.75797 2.73604 34.1861
4 1 0.849406 1.71509 32.4366
5 1 1.12047 0.0462545 34.5931
6 1 3.43693 1.95807 31.7992
7 1 6.27665 3.04812 30.2406
8 1 2.2527 3.97603 32.5581
9 1 2.3521 3.30959 27.5025
10 1 4.98928 1.298 30.0973
11 1 3.68702 1.26791 28.0174
12 1 2.45235 0.657746 30.1244
13 1 5.11655 3.59037 27.8905
14 1 3.43292 3.11768 29.7305
15 1 1.01254 1.37633 27.91
16 2 4.91119 1.53016 15.0206
17 2 4.99796 3.8915 17.6712
18 2 2.3968 0.552476 15.1922
19 2 5.41978 1.19389 17.499
20 2 2.3266 1.11766 10.0558
21 2 2.24085 3.30141 16.0679
22 2 6.28462 3.04308 13.1171
23 2 3.64218 1.87969 12.7888
24 2 1.6642 2.84207 8.28641
25 2 4.42187 1.08175 7.79467
26 2 6.97739 3.63418 10.8259
27 2 1.37153 0.35979 12.2108
28 2 4.6227 2.43338 10.4847
29 2 4.42464 3.94462 7.87519
30 2 5.51289 1.82832 5.51297
31 2 2.62665 3.44784 5.8951
32 2 4.7776 0.30885 3.43944
33 2 4.49596 2.95436 3.22943
34 2 2.47852 1.73664 3.017
35 2 2.4363 0.388402 5.57467
ITEM: TIMESTEP
8000
ITEM: NUMBER OF ATOMS
35
ITEM: BOX BOUNDS xy xz yz pp pp pp
0.0000000000000000e+00 7.6685730000000003e+00 2.5561910000000001e+00
0.0000000000000000e+00 4.4274529999999999e+00 0.0000000000000000e+00
0.0000000000000000e+00 3.6699264999999997e+01 0.0000000000000000e+00
ITEM: ATOMS id type x y z
1 1 4.14842 1.60145 34.2228
2 1 4.51973 3.9445 32.267
3 1 1.77398 3.21471 34.7334
4 1 5.9669 2.07965 32.5388
5 1 1.374 0.590022 34.4273
6 1 3.00905 2.0454 32.0314
7 1 6.02917 2.73126 30.2039
8 1 7.00808 4.26587 32.2749
9 1 2.61695 4.00092 27.434
10 1 4.77155 0.27661 29.7927
11 1 3.9021 1.42157 27.7752
12 1 2.34324 0.50583 30.2336
13 1 5.16215 3.54285 28.0387
14 1 3.73237 2.65353 29.8973
15 1 1.43723 1.57906 28.176
16 2 4.59066 1.56775 15.245
17 2 5.01331 3.66784 17.3
18 2 1.92029 0.400947 15.0375
19 2 5.56017 1.01457 17.6377
20 2 2.34776 0.872191 10.1713
21 2 2.30398 3.0007 16.2897
22 2 6.41583 3.55534 13.8034
23 2 3.51031 2.02579 12.9879
24 2 1.76086 2.82 7.88761
25 2 4.39597 1.47922 8.02268
26 2 7.02208 3.81306 10.531
27 2 0.845291 0.493781 12.6077
28 2 4.67989 2.44476 10.4544
29 2 4.29982 4.30581 7.95842
30 2 5.61737 1.88545 5.4376
31 2 3.11156 3.38717 5.48744
32 2 7.28481 4.05999 3.01388
33 2 4.83793 3.19504 3.32876
34 2 1.7634 1.445 2.88459
35 2 3.34547 0.418301 5.33495
ITEM: TIMESTEP
8100
ITEM: NUMBER OF ATOMS
35
ITEM: BOX BOUNDS xy xz yz pp pp pp
0.0000000000000000e+00 7.6685730000000003e+00 2.5561910000000001e+00
0.0000000000000000e+00 4.4274529999999999e+00 0.0000000000000000e+00
0.0000000000000000e+00 3.6699264999999997e+01 0.0000000000000000e+00
ITEM: ATOMS id type x y z
1 1 3.95155 1.43843 34.7742
2 1 4.06168 4.14335 32.4814
3 1 1.87268 3.4099 34.2943
4 1 5.33469 2.09759 32.6011
5 1 1.7789 0.716903 34.5997
6 1 2.81364 1.83262 32.6302
7 1 6.09945 2.4885 30.3628
8 1 6.77805 4.3549 32.0458
9 1 3.1874 3.76004 27.8225
10 1 4.82533 0.145254 29.9678
11 1 4.2154 1.7665 27.4413
12 1 2.1471 0.0952516 29.948
13 1 5.70788 4.14244 27.8298
14 1 3.34166 2.44392 29.9093
15 1 1.56646 1.74338 27.7247
16 2 4.48499 1.5274 15.6145
17 2 5.41308 3.83051 17.1229
18 2 1.32872 0.126598 15.0962
19 2 5.50506 0.769909 17.9862
20 2 1.93195 1.09592 10.5077
21 2 2.32402 2.44547 16.471
22 2 6.29211 3.5944 14.0414
23 2 3.10476 2.29756 12.7213
24 2 1.88582 2.8026 7.81178
25 2 4.26462 1.38389 8.07872
26 2 7.49727 4.10463 10.2359
27 2 0.580112 0.935513 12.638
28 2 4.90605 2.75967 10.6111
29 2 4.13067 4.31544 7.52945
30 2 6.2329 2.02534 5.55848
31 2 3.50731 3.23263 5.1944
32 2 7.12122 4.04221 2.72662
33 2 4.67188 2.79384 2.86127
34 2 1.66699 1.11856 3.24644
35 2 3.81691 0.606433 5.23263
ITEM: TIMESTEP
8200
ITEM: NUMBER OF ATOMS
35
ITEM: BOX BOUNDS xy xz yz pp pp pp
0.0000000000000000e+00 7.6685730000000003e+00 2.5561910000000001e+00
0.0000000000000000e+00 4.4274529999999999e+00 0.0000000000000000e+00
0.0000000000000000e+00 3.6699264999999997e+01 0.0000000000000000e+00
ITEM: ATOMS id type x y z
1 1 4.33807 1.91642 34.8246
2 1 3.42601 4.24621 32.3108
3 1 1.99322 3.44618 34.4403
4 1 4.75654 1.9943 32.6935
5 1 1.66099 0.419921 34.7206
6 1 2.42438 1.92898 32.2182
7 1 6.07771 2.20474 30.195
8 1 5.99922 4.11435 32.248
9 1 3.58466 3.98993 27.8185
10 1 4.73744 0.412147 29.6301
11 1 4.79134 1.97081 27.6799
12 1 4.65448 4.38454 30.0814
13 1 5.95279 3.97861 27.8273
14 1 3.27747 2.31439 30.0785
15 1 2.44849 1.81931 28.1
16 2 4.25119 1.47053 15.4614
17 2 5.48149 4.20131 17.3978
18 2 3.85907 4.0752 15.1594
19 2 5.36981 0.537061 17.7897
20 2 2.45598 1.59793 10.0123
21 2 2.21963 2.2553 16.8797
22 2 5.74368 3.46421 13.8254
23 2 2.99349 2.41342 13.0155
24 2 6.82784 3.01018 8.06275
25 2 4.2425 1.48181 8.01361
26 2 2.49947 4.30519 10.2701
27 2 5.29571 1.07189 12.6689
28 2 5.00576 3.29106 10.7193
29 2 4.49818 4.3815 7.54008
30 2 6.24194 2.216 5.52639
31 2 3.84877 3.33773 4.98021
32 2 6.83482 3.88769 2.76565
33 2 4.41694 1.93987 2.36816
34 2 2.20447 0.871941 3.29537
35 2 4.08476 0.378945 5.38199
ITEM: TIMESTEP
8300
ITEM: NUMBER OF ATOMS
35
ITEM: BOX BOUNDS xy xz yz pp pp pp
0.0000000000000000e+00 7.6685730000000003e+00 2.5561910000000001e+00
0.0000000000000000e+00 4.4274529999999999e+00 0.0000000000000000e+00
0.0000000000000000e+00 3.6699264999999997e+01 0.0000000000000000e+00
ITEM: ATOMS id type x y z
1 1 4.47436 2.32271 34.5988
2 1 2.80554 3.9788 32.1763
3 1 7.09906 3.52108 34.3581
4 1 4.43627 1.81244 32.3362
5 1 1.46658 0.315423 34.1264
6 1 1.6405 1.91654 32.5634
7 1 5.98947 2.36738 30.1386
8 1 5.53491 4.06122 32.6118
9 1 3.89941 4.15535 27.8087
10 1 7.26557 4.38317 30.0844
11 1 5.14688 1.62755 28.175
12 1 2.35532 0.657793 30.2523
13 1 6.64834 3.86061 27.6897
14 1 3.64298 2.52934 30.3128
15 1 2.70472 1.78281 28.2822
16 2 4.0206 1.26561 15.2404
17 2 4.95458 3.66886 17.3918
18 2 3.43107 4.28622 15.3161
19 2 5.14975 0.778752 17.6462
20 2 2.98474 1.68656 10.2864
21 2 2.16397 2.49558 16.8134
22 2 5.65702 3.74825 13.553
23 2 2.72937 2.25797 13.0795
24 2 6.87579 3.46716 7.80056
25 2 4.62417 2.01809 7.77816
26 2 5.22793 0.388564 10.1601
27 2 5.47004 0.66845 12.7837
28 2 5.23803 3.46375 10.9264
29 2 1.74093 0.309076 7.78956
30 2 1.3308 1.94567 5.36379
31 2 3.94443 3.11087 4.73963
32 2 1.81065 2.93717 3.06598
33 2 4.59705 1.80868 2.57575
34 2 2.01515 0.520158 3.13267
35 2 4.22865 0.455275 5.46308
ITEM: TIMESTEP
8400
ITEM: NUMBER OF ATOMS
35
ITEM: BOX BOUNDS xy xz yz pp pp pp
0.0000000000000000e+00 7.6685730000000003e+00 2.5561910000000001e+00
0.0000000000000000e+00 4.4274529999999999e+00 0.0000000000000000e+00
0.0000000000000000e+00 3.6699264999999997e+01 0.0000000000000000e+00
ITEM: ATOMS id type x y z
1 1 4.57633 2.7377 34.3337
2 1 3.07332 3.84579 32.3989
3 1 6.81755 3.33859 34.5476
4 1 3.81326 1.35123 32.0821
5 1 1.03789 0.728966 34.9317
6 1 1.33807 1.50286 32.6936
7 1 6.33484 2.93043 30.3358
8 1 5.42353 3.57584 32.5404
9 1 4.61885 3.90106 28.2318
10 1 4.82984 0.756329 30.1181
11 1 5.4458 1.52026 27.8731
12 1 2.15737 0.536141 30.2618
13 1 6.90414 3.95746 27.8823
14 1 3.52079 2.77362 30.1426
15 1 2.53299 1.56107 27.876
16 2 3.80779 1.29819 15.3234
17 2 4.50003 3.52233 17.1587
18 2 1.01976 0.158699 15.0676
19 2 4.57455 0.953508 17.8322
20 2 3.02596 2.01828 10.4741
21 2 1.6877 2.55458 16.3956
22 2 5.53865 3.68221 13.7232
23 2 2.67915 2.09964 13.0074
24 2 7.18838 3.65293 7.88552
25 2 4.46259 2.51369 7.79736
26 2 0.560729 0.538734 9.98634
27 2 0.403492 0.540614 12.3812
28 2 5.66751 3.31394 10.9358
29 2 1.9404 0.911236 7.76928
30 2 1.78088 1.51399 5.45111
31 2 4.0099 3.07894 5.49788
32 2 2.04554 3.20085 2.96516
33 2 4.70113 1.4351 3.01297
34 2 4.44447 4.1722 2.78528
35 2 3.97672 0.0674442 5.19783
ITEM: TIMESTEP
8500
ITEM: NUMBER OF ATOMS
35
ITEM: BOX BOUNDS xy xz yz pp pp pp
0.0000000000000000e+00 7.6685730000000003e+00 2.5561910000000001e+00
0.0000000000000000e+00 4.4274529999999999e+00 0.0000000000000000e+00
0.0000000000000000e+00 3.6699264999999997e+01 0.0000000000000000e+00
ITEM: ATOMS id type x y z
1 1 3.77424 2.37388 34.6589
2 1 2.57665 3.39723 32.2539
3 1 6.72551 3.49281 34.7631
4 1 4.02796 1.38516 32.6927
5 1 0.771779 1.04152 34.9529
6 1 1.51018 1.09625 32.6952
7 1 5.7642 3.18879 30.0207
8 1 5.09715 3.55726 32.3651
9 1 4.48771 3.83243 28.0457
10 1 5.00257 0.879751 30.0357
11 1 5.95284 1.76325 27.6765
12 1 2.36203 0.877424 30.3076
13 1 7.13561 3.77268 28.1658
14 1 3.5866 3.03787 30.3211
15 1 3.53003 1.46216 27.9989
16 2 3.65949 1.51715 15.5416
17 2 4.0831 4.17789 17.1889
18 2 0.976349 0.253559 14.674
19 2 4.07727 0.540726 17.7432
20 2 3.18511 2.16866 10.3752
21 2 6.3389 2.71289 16.23
22 2 5.58432 3.02265 13.7963
23 2 2.91922 2.05258 13.1389
24 2 6.9595 3.6941 7.90301
25 2 4.84151 2.59901 8.3907
26 2 0.915935 0.65935 9.57299
27 2 5.19155 0.508203 12.3488
28 2 5.77098 3.60513 10.7425
29 2 2.77584 1.04742 7.82229
30 2 1.52014 1.50581 4.84783
31 2 4.11532 3.21289 5.54238
32 2 2.0436 2.78458 2.7714
33 2 4.57091 1.37279 3.48491
34 2 4.70976 4.07325 2.8448
35 2 6.59944 4.09638 5.44104
ITEM: TIMESTEP
8600
ITEM: NUMBER OF ATOMS
35
ITEM: BOX BOUNDS xy xz yz pp pp pp
0.0000000000000000e+00 7.6685730000000003e+00 2.5561910000000001e+00
0.0000000000000000e+00 4.4274529999999999e+00 0.0000000000000000e+00
0.0000000000000000e+00 3.6699264999999997e+01 0.0000000000000000e+00
ITEM: ATOMS id type x y z
1 1 3.27876 2.37887 34.6951
2 1 2.39719 3.22372 32.6761
3 1 5.68257 3.98213 34.4471
4 1 3.8963 1.00751 32.7117
5 1 5.68778 1.06633 34.6005
6 1 1.47436 1.12326 32.4044
7 1 6.19099 3.06201 30.2413
8 1 4.6986 3.17472 32.5602
9 1 5.03964 3.76458 27.9709
10 1 4.84461 0.896657 30.5567
11 1 1.14097 1.66675 28.2085
12 1 2.41154 0.927026 30.3238
13 1 2.57191 3.85059 27.9245
14 1 3.79181 3.39504 30.0065
15 1 3.96883 1.77623 28.3368
16 2 3.43379 1.69411 15.4833
17 2 1.09224 0.126273 17.2689
18 2 3.36355 4.34496 14.7294
19 2 3.74022 0.568672 17.8834
20 2 3.26176 2.34791 10.4126
21 2 6.16303 2.71796 16.4289
22 2 5.52484 3.12781 13.4905
23 2 2.83299 1.73894 12.961
24 2 2.83097 3.50662 8.01614
25 2 5.16401 2.74542 8.15873
26 2 1.06666 0.757525 9.77862
27 2 5.385 0.527099 12.0265
28 2 5.66577 3.88882 10.9232
29 2 2.80013 0.95561 7.30785
30 2 1.5395 1.45145 5.25897
31 2 3.89509 2.84799 5.61354
32 2 2.18793 2.56144 2.48861
33 2 4.3447 1.36484 3.25377
34 2 4.90619 4.1125 3.19769
35 2 6.56853 4.17098 5.46961
ITEM: TIMESTEP
8700
ITEM: NUMBER OF ATOMS
35
ITEM: BOX BOUNDS xy xz yz pp pp pp
0.0000000000000000e+00 7.6685730000000003e+00 2.5561910000000001e+00
0.0000000000000000e+00 4.4274529999999999e+00 0.0000000000000000e+00
0.0000000000000000e+00 3.6699264999999997e+01 0.0000000000000000e+00
ITEM: ATOMS id type x y z
1 1 2.85605 2.35343 34.7346
2 1 2.09867 3.43796 32.7906
3 1 4.72198 4.28929 34.6302
4 1 3.33765 1.04628 32.5856
5 1 5.12958 1.11529 34.4701
6 1 1.0978 0.657443 32.3263
7 1 6.63852 3.20129 30.4221
8 1 5.14012 2.78379 32.4196
9 1 5.74294 3.841 28.2754
10 1 5.16768 1.24115 30.2351
11 1 1.43028 1.63269 28.5929
12 1 2.81811 0.84535 30.4879
13 1 3.18438 4.02262 27.9993
14 1 3.74144 3.21598 30.3265
15 1 3.84316 1.75563 28.1365
16 2 3.44932 1.37235 15.4814
17 2 0.862402 -0.0445866 17.3889
18 2 2.78533 4.35945 14.8764
19 2 3.28206 1.2717 17.9192
20 2 3.65471 2.55505 10.1641
21 2 5.70202 2.84285 16.4018
22 2 5.61892 3.27348 13.5876
23 2 2.70048 1.63202 12.8826
24 2 2.84976 3.97006 7.7358
25 2 5.89242 2.31373 7.60697
26 2 1.31006 1.33784 9.89236
27 2 0.382249 0.390108 12.3875
28 2 5.98591 3.67583 10.6358
29 2 2.84757 0.621239 7.9396
30 2 1.10983 1.37524 5.31294
31 2 3.91201 2.53647 5.4158
32 2 2.09363 2.76215 2.91361
33 2 4.96089 1.14472 2.82763
34 2 4.5763 3.97144 3.37899
35 2 6.72341 4.14529 5.1324
ITEM: TIMESTEP
8800
ITEM: NUMBER OF ATOMS
35
ITEM: BOX BOUNDS xy xz yz pp pp pp
0.0000000000000000e+00 7.6685730000000003e+00 2.5561910000000001e+00
0.0000000000000000e+00 4.4274529999999999e+00 0.0000000000000000e+00
0.0000000000000000e+00 3.6699264999999997e+01 0.0000000000000000e+00
ITEM: ATOMS id type x y z
1 1 2.35442 2.07614 35.3313
2 1 2.07791 3.35976 33.0309
3 1 4.11678 4.11567 34.5282
4 1 3.25656 0.98052 32.8139
5 1 4.86567 1.22094 34.9041
6 1 0.994119 0.725695 32.254
7 1 6.73734 3.07955 30.6852
8 1 5.02356 2.98014 32.6492
9 1 5.61039 4.18464 28.3847
10 1 5.22462 0.82026 30.1284
11 1 2.04113 2.06356 27.6826
12 1 2.76466 1.17228 30.3261
13 1 3.01909 4.07945 28.1588
14 1 4.10302 3.04658 30.4083
15 1 4.64046 1.66712 27.8753
16 2 2.75475 1.43029 15.3145
17 2 3.04926 4.24666 17.5043
18 2 3.00877 4.26329 14.916
19 2 2.98145 1.85141 17.9362
20 2 4.21226 2.70828 10.0601
21 2 5.48256 2.99186 16.5738
22 2 5.26186 3.05552 13.7816
23 2 3.1123 1.91532 12.562
24 2 3.0717 3.96256 7.64436
25 2 5.78422 2.33392 7.46108
26 2 1.19366 0.991884 10.2699
27 2 5.19482 0.24499 12.526
28 2 6.62652 4.06805 10.3207
29 2 3.20246 0.707416 8.20154
30 2 1.40464 0.975178 5.0061
31 2 3.60782 2.30945 5.67169
32 2 2.28428 2.59073 3.09299
33 2 4.92444 1.08175 2.45892
34 2 4.77049 3.90313 3.05734
35 2 6.48125 4.25545 5.2664
ITEM: TIMESTEP
8900
ITEM: NUMBER OF ATOMS
35
ITEM: BOX BOUNDS xy xz yz pp pp pp
0.0000000000000000e+00 7.6685730000000003e+00 2.5561910000000001e+00
0.0000000000000000e+00 4.4274529999999999e+00 0.0000000000000000e+00
0.0000000000000000e+00 3.6699264999999997e+01 0.0000000000000000e+00
ITEM: ATOMS id type x y z
1 1 1.9263 1.82526 35.1215
2 1 2.25417 3.13615 33.3386
3 1 4.18961 3.86046 34.9856
4 1 3.351 0.782891 32.9279
5 1 4.6183 1.45828 34.7543
6 1 0.87483 1.03264 32.8296
7 1 6.55152 3.2765 30.8356
8 1 4.53225 3.16171 32.6537
9 1 6.01382 4.15029 28.2699
10 1 5.26872 0.904952 30.0838
11 1 2.29297 1.63371 27.7877
12 1 2.57833 1.17079 30.1815
13 1 3.28721 3.99474 28.1175
14 1 4.17199 3.23527 30.1019
15 1 4.81565 2.05955 27.9764
16 2 2.47798 1.4821 15.108
17 2 5.21339 0.591901 17.6899
18 2 2.90298 4.06684 15.3997
19 2 2.72048 1.62962 17.6297
20 2 4.35184 2.64614 10.2941
21 2 5.34241 3.01435 16.739
22 2 5.38434 2.96478 13.5503
23 2 2.78458 1.92251 12.3224
24 2 3.46725 3.952 7.86228
25 2 5.76232 2.49584 7.66933
26 2 1.66109 1.07439 10.1776
27 2 0.303744 0.459493 12.6445
28 2 6.79783 3.83512 10.1722
29 2 3.09482 1.22342 7.83251
30 2 1.05642 0.691687 5.04264
31 2 3.79985 2.45994 5.3399
32 2 2.62174 2.45042 2.98808
33 2 4.65318 0.949843 2.74766
34 2 5.29635 3.6021 2.6776
35 2 6.19695 3.90825 5.4557
ITEM: TIMESTEP
9000
ITEM: NUMBER OF ATOMS
35
ITEM: BOX BOUNDS xy xz yz pp pp pp
0.0000000000000000e+00 7.6685730000000003e+00 2.5561910000000001e+00
0.0000000000000000e+00 4.4274529999999999e+00 0.0000000000000000e+00
0.0000000000000000e+00 3.6699264999999997e+01 0.0000000000000000e+00
ITEM: ATOMS id type x y z
1 1 1.79207 1.77358 34.9582
2 1 1.9726 3.24601 33.2206
3 1 4.56931 3.78517 35.038
4 1 3.34764 0.968705 32.5878
5 1 4.21004 1.35952 34.68
6 1 0.796022 0.887292 32.8207
7 1 6.50279 3.47617 30.7968
8 1 4.45647 2.90921 32.5653
9 1 6.38954 3.83405 28.6928
10 1 5.23655 1.31075 30.6695
11 1 2.1699 1.82519 28.5232
12 1 2.56797 1.12244 30.521
13 1 4.08443 4.03588 27.6169
14 1 3.79706 3.4691 30.0795
15 1 4.74423 1.78774 28.1493
16 2 2.89429 1.03777 14.8573
17 2 4.91506 0.833557 18.0184
18 2 2.53173 4.13044 15.5471
19 2 2.31183 1.63 17.2746
20 2 4.486 2.41732 10.729
21 2 5.0441 3.26909 16.3967
22 2 5.43798 3.4142 13.3511
23 2 2.61686 1.94101 12.5148
24 2 3.36918 4.18557 7.79193
25 2 5.83433 2.58625 8.01682
26 2 2.05705 1.00621 9.89218
27 2 0.367223 0.336916 12.5337
28 2 6.89111 3.96369 10.2748
29 2 3.38403 1.3986 7.37508
30 2 1.12887 0.945533 5.34977
31 2 3.86824 2.35449 5.04639
32 2 2.37209 2.27969 2.8831
33 2 5.1705 0.47382 2.92805
34 2 4.99507 3.52041 2.8109
35 2 6.24562 3.65839 5.41626
ITEM: TIMESTEP
9100
ITEM: NUMBER OF ATOMS
35
ITEM: BOX BOUNDS xy xz yz pp pp pp
0.0000000000000000e+00 7.6685730000000003e+00 2.5561910000000001e+00
0.0000000000000000e+00 4.4274529999999999e+00 0.0000000000000000e+00
0.0000000000000000e+00 3.6699264999999997e+01 0.0000000000000000e+00
ITEM: ATOMS id type x y z
1 1 1.3521 1.80587 35.1598
2 1 2.17659 3.18217 33.5481
3 1 5.09305 3.87755 34.7466
4 1 3.17288 1.02514 33.0813
5 1 4.4696 0.663685 35.0947
6 1 0.692327 0.728947 32.8701
7 1 6.65769 3.39767 31.103
8 1 4.53283 2.9011 32.3769
9 1 6.24143 4.28247 28.974
10 1 4.6869 1.46409 30.8089
11 1 2.37408 2.18641 28.0363
12 1 2.33559 0.957405 30.7698
13 1 4.1607 4.03412 27.4051
14 1 3.39433 3.63775 29.7353
15 1 5.20162 1.77568 28.4841
16 2 3.17204 1.46849 14.8349
17 2 4.38077 0.413034 17.6382
18 2 2.83021 4.18014 15.3505
19 2 1.80124 1.98498 17.1453
20 2 4.91564 2.46244 10.6024
21 2 4.73681 3.07443 16.2927
22 2 5.14253 3.46503 13.0603
23 2 2.52063 2.09916 12.2237
24 2 3.18589 3.80975 7.71322
25 2 5.69397 3.04844 8.18608
26 2 2.12395 0.822173 9.80167
27 2 0.31738 0.404525 12.9749
28 2 7.20139 4.1881 10.3381
29 2 3.77403 1.16153 7.58454
30 2 1.67577 1.11764 5.78828
31 2 3.81472 2.37636 5.02894
32 2 2.14195 1.61732 2.61279
33 2 4.89926 0.347554 2.90672
34 2 4.92682 3.45504 3.06449
35 2 6.69945 3.84144 5.41285
ITEM: TIMESTEP
9200
ITEM: NUMBER OF ATOMS
35
ITEM: BOX BOUNDS xy xz yz pp pp pp
0.0000000000000000e+00 7.6685730000000003e+00 2.5561910000000001e+00
0.0000000000000000e+00 4.4274529999999999e+00 0.0000000000000000e+00
0.0000000000000000e+00 3.6699264999999997e+01 0.0000000000000000e+00
ITEM: ATOMS id type x y z
1 1 1.73407 1.51348 35.5341
2 1 2.32317 3.16748 33.7921
3 1 4.54773 3.3583 34.9213
4 1 3.3933 0.760107 33.353
5 1 4.66915 0.16046 35.5985
6 1 0.732283 1.41524 33.1105
7 1 6.73507 3.25449 31.6362
8 1 4.43055 3.74684 32.3827
9 1 5.77341 4.4494 28.752
10 1 4.32748 1.21919 30.5126
11 1 2.99346 2.00206 27.7784
12 1 1.70257 1.06354 30.631
13 1 3.80272 4.55125 27.5299
14 1 3.72902 3.27286 29.8286
15 1 5.57495 2.12409 28.5155
16 2 2.70961 1.72643 14.54
17 2 3.79762 0.192093 17.1268
18 2 2.73052 4.40252 15.1608
19 2 2.01858 1.74023 17.2582
20 2 4.84171 2.67213 10.3257
21 2 4.62587 2.93068 16.4029
22 2 5.23703 3.6481 13.0974
23 2 2.67276 2.00758 12.0234
24 2 3.29688 3.50013 7.93697
25 2 5.92566 2.7695 7.54377
26 2 1.91085 1.05891 9.74834
27 2 0.15985 1.12682 12.5774
28 2 7.44216 4.04071 10.5837
29 2 3.98281 0.955174 8.20262
30 2 1.59039 0.806343 5.83319
31 2 4.20622 2.41359 5.38169
32 2 2.27976 1.71241 2.95722
33 2 4.69698 0.536354 2.93391
34 2 5.05107 3.0483 2.97009
35 2 6.8037 4.00084 5.36556
ITEM: TIMESTEP
9300
ITEM: NUMBER OF ATOMS
35
ITEM: BOX BOUNDS xy xz yz pp pp pp
0.0000000000000000e+00 7.6685730000000003e+00 2.5561910000000001e+00
0.0000000000000000e+00 4.4274529999999999e+00 0.0000000000000000e+00
0.0000000000000000e+00 3.6699264999999997e+01 0.0000000000000000e+00
ITEM: ATOMS id type x y z
1 1 2.23804 0.985489 35.4233
2 1 2.38428 3.27739 33.827
3 1 4.6061 2.87918 35.0826
4 1 3.5241 0.794094 33.606
5 1 4.72789 0.335836 35.9818
6 1 5.70103 1.63688 33.3775
7 1 6.55332 3.07693 31.595
8 1 4.00734 3.87348 32.2659
9 1 6.09485 4.44994 28.9226
10 1 4.32474 1.2256 31.1974
11 1 3.39649 2.38471 27.8493
12 1 1.9568 1.15069 30.4421
13 1 0.824683 0.225429 27.6941
14 1 3.28289 3.38965 29.9409
15 1 5.37596 2.13049 29.1273
16 2 2.0649 1.67922 14.8985
17 2 4.26142 -0.214535 17.1462
18 2 5.06154 0.387017 14.6056
19 2 1.61027 1.6552 17.2867
20 2 4.68007 2.99566 10.1598
21 2 4.27828 2.9154 15.8997
22 2 5.44539 4.00694 13.3169
23 2 2.8452 2.03117 12.0553
24 2 3.81305 3.59816 7.88669
25 2 6.34241 2.24462 7.47005
26 2 1.78054 1.32898 9.57653
27 2 5.45879 1.37968 12.403
28 2 6.84819 3.97647 10.5129
29 2 3.96425 0.579681 8.09036
30 2 1.68318 0.399905 5.555
31 2 4.26929 2.17549 5.5164
32 2 2.43991 2.00434 3.83917
33 2 5.41335 0.307081 2.70839
34 2 4.698 3.37827 2.99889
35 2 6.69991 3.96787 5.18091
ITEM: TIMESTEP
9400
ITEM: NUMBER OF ATOMS
35
ITEM: BOX BOUNDS xy xz yz pp pp pp
0.0000000000000000e+00 7.6685730000000003e+00 2.5561910000000001e+00
0.0000000000000000e+00 4.4274529999999999e+00 0.0000000000000000e+00
0.0000000000000000e+00 3.6699264999999997e+01 0.0000000000000000e+00
ITEM: ATOMS id type x y z
1 1 2.14038 0.794995 35.5586
2 1 2.32839 3.18411 34.3692
3 1 4.90135 2.80161 35.2686
4 1 3.11854 0.71891 33.3105
5 1 4.84684 0.549888 35.9516
6 1 0.827257 1.23334 33.7668
7 1 6.37078 3.1888 31.6381
8 1 4.04571 3.6537 32.4923
9 1 3.78189 0.145536 28.9152
10 1 4.38122 1.54335 31.5655
11 1 3.00499 2.15409 28.0388
12 1 2.26196 0.816463 30.6665
13 1 1.08041 0.611051 28.2245
14 1 3.01183 3.61808 30.3799
15 1 5.30313 2.54565 29.4928
16 2 1.88881 2.05309 15.0022
17 2 7.0393 4.0485 16.8752
18 2 4.69628 0.443823 14.494
19 2 0.963331 1.27359 17.4717
20 2 4.166 2.84178 10.2878
21 2 4.438 3.13743 15.6374
22 2 5.16814 3.64987 13.1152
23 2 3.17447 2.60334 12.8075
24 2 3.97295 3.47196 7.77696
25 2 1.66883 2.3082 7.16697
26 2 1.89029 1.38688 9.97163
27 2 5.77486 1.15473 12.1042
28 2 6.81121 4.36069 10.4704
29 2 3.82435 0.567657 7.63251
30 2 1.49136 0.128561 5.32916
31 2 4.64098 1.9124 5.4837
32 2 2.49529 1.92699 3.40285
33 2 4.89181 0.628418 2.66243
34 2 5.35694 3.50315 3.06798
35 2 6.72232 3.76286 5.18625
ITEM: TIMESTEP
9500
ITEM: NUMBER OF ATOMS
35
ITEM: BOX BOUNDS xy xz yz pp pp pp
0.0000000000000000e+00 7.6685730000000003e+00 2.5561910000000001e+00
0.0000000000000000e+00 4.4274529999999999e+00 0.0000000000000000e+00
0.0000000000000000e+00 3.6699264999999997e+01 0.0000000000000000e+00
ITEM: ATOMS id type x y z
1 1 2.41077 1.08252 36.3162
2 1 2.07371 2.79233 34.6895
3 1 4.82527 3.30596 35.0895
4 1 3.11107 0.802306 33.7847
5 1 4.76618 0.397857 36.1607
6 1 5.47586 1.05866 33.5127
7 1 6.35172 3.22325 32.4244
8 1 3.83473 3.1574 32.874
9 1 4.15266 0.37906 28.7162
10 1 4.7371 0.944147 31.1217
11 1 2.74365 2.67304 28.5823
12 1 2.0744 1.37898 31.2166
13 1 1.41534 0.44075 28.8865
14 1 3.28985 3.44009 30.8706
15 1 5.32599 2.61902 29.5303
16 2 1.80165 1.56624 15.1909
17 2 6.54635 3.92588 16.9422
18 2 4.51247 0.812632 14.6243
19 2 1.0145 1.19665 17.4572
20 2 4.22959 2.7822 10.5151
21 2 4.38676 3.4294 15.7256
22 2 5.72799 4.12819 12.6901
23 2 2.76618 2.54772 12.948
24 2 4.08244 3.70514 7.83811
25 2 1.74851 1.97582 7.40343
26 2 1.89606 1.30487 9.76672
27 2 0.727476 0.929872 12.2737
28 2 6.69192 4.0399 10.1634
29 2 4.23001 0.675122 7.75699
30 2 1.66258 0.397226 5.05635
31 2 4.39339 2.03302 5.04412
32 2 2.46369 1.86779 2.87194
33 2 5.06124 0.768521 2.58692
34 2 5.20402 3.42818 2.48884
35 2 6.79129 3.60186 5.14939
ITEM: TIMESTEP
9600
ITEM: NUMBER OF ATOMS
35
ITEM: BOX BOUNDS xy xz yz pp pp pp
0.0000000000000000e+00 7.6685730000000003e+00 2.5561910000000001e+00
0.0000000000000000e+00 4.4274529999999999e+00 0.0000000000000000e+00
0.0000000000000000e+00 3.6699264999999997e+01 0.0000000000000000e+00
ITEM: ATOMS id type x y z
1 1 2.18984 1.27018 0.460466
2 1 1.70521 2.86777 35.1184
3 1 4.37289 3.50293 36.132
4 1 2.80783 0.610257 34.1851
5 1 5.07064 0.514482 36.5074
6 1 0.463347 0.52641 33.5527
7 1 6.23819 3.43658 32.4642
8 1 4.0873 2.61197 33.6999
9 1 4.21219 0.859165 28.8254
10 1 4.43483 1.00685 31.3162
11 1 2.69111 2.72369 28.8903
12 1 1.96946 1.08528 31.7245
13 1 1.88162 0.441175 29.372
14 1 3.50785 3.33357 31.049
15 1 5.7956 2.80722 29.8992
16 2 1.8778 1.73449 15.0794
17 2 6.31357 4.15308 17.3485
18 2 4.45335 0.644805 15.0507
19 2 0.956103 1.02024 17.5944
20 2 4.46487 2.44647 10.5476
21 2 3.84792 3.3526 15.5461
22 2 5.67746 4.32796 12.4753
23 2 2.93342 2.69663 12.652
24 2 4.45306 3.60631 7.53007
25 2 1.67892 2.33066 7.20053
26 2 1.78795 0.807023 10.0179
27 2 0.472604 0.960073 12.4559
28 2 6.98373 3.57496 9.83365
29 2 4.56783 0.866482 7.49084
30 2 1.83474 0.676425 4.98087
31 2 4.04486 2.12222 4.82566
32 2 2.40913 2.33055 2.65599
33 2 5.31894 0.277373 2.30295
34 2 4.9942 3.54036 1.81697
35 2 6.88451 3.68189 4.93844
ITEM: TIMESTEP
9700
ITEM: NUMBER OF ATOMS
35
ITEM: BOX BOUNDS xy xz yz pp pp pp
0.0000000000000000e+00 7.6685730000000003e+00 2.5561910000000001e+00
0.0000000000000000e+00 4.4274529999999999e+00 0.0000000000000000e+00
0.0000000000000000e+00 3.6699264999999997e+01 0.0000000000000000e+00
ITEM: ATOMS id type x y z
1 1 2.258 1.48749 36.932
2 1 6.29838 2.84369 35.1551
3 1 3.71341 3.34958 36.229
4 1 2.46312 0.47445 34.66
5 1 4.50668 0.88122 36.3154
6 1 0.154079 0.10039 34.1713
7 1 6.06486 3.36324 32.8682
8 1 4.20711 2.25757 34.0429
9 1 4.74629 0.919881 29.3636
10 1 4.50536 0.93549 31.6452
11 1 3.21631 3.13484 29.3495
12 1 2.03729 0.979785 32.268
13 1 2.03818 0.746722 29.7402
14 1 3.3091 3.15449 31.8685
15 1 5.83048 2.9551 30.3059
16 2 1.45606 2.20038 15.0586
17 2 5.75816 4.12091 17.4341
18 2 4.19685 0.248735 15.0578
19 2 0.815781 1.06122 17.2163
20 2 4.65421 1.83685 9.76095
21 2 4.41051 3.34806 15.4879
22 2 5.29325 4.11555 12.6317
23 2 3.04876 2.73584 12.7084
24 2 4.56674 3.75684 7.21388
25 2 2.12678 2.42527 7.21925
26 2 2.09133 0.337766 9.72567
27 2 5.48272 1.25914 12.9362
28 2 7.28832 3.59021 9.68195
29 2 4.2805 0.834615 7.30859
30 2 1.57077 0.65186 4.81962
31 2 4.66014 2.46847 4.68092
32 2 2.6157 2.00439 2.64702
33 2 4.99602 0.832821 2.32461
34 2 5.47893 3.29441 1.97531
35 2 6.69431 4.03203 4.69263
ITEM: TIMESTEP
9800
ITEM: NUMBER OF ATOMS
35
ITEM: BOX BOUNDS xy xz yz pp pp pp
0.0000000000000000e+00 7.6685730000000003e+00 2.5561910000000001e+00
0.0000000000000000e+00 4.4274529999999999e+00 0.0000000000000000e+00
0.0000000000000000e+00 3.6699264999999997e+01 0.0000000000000000e+00
ITEM: ATOMS id type x y z
1 1 1.78517 1.16359 0.480619
2 1 5.77301 2.78249 35.914
3 1 3.30037 3.14548 36.7724
4 1 2.22058 0.648751 35.1558
5 1 3.91277 1.08734 36.7195
6 1 -0.0749247 -0.384031 34.3556
7 1 5.68491 3.0362 32.9148
8 1 3.87848 2.10169 34.2197
9 1 4.94428 0.973673 29.8788
10 1 4.52657 0.896983 32.1713
11 1 3.71446 3.27686 30.1261
12 1 1.83539 1.08386 32.6471
13 1 2.48512 1.11475 30.4298
14 1 3.27933 3.21156 32.3036
15 1 6.27141 3.24995 30.5523
16 2 1.95016 1.89049 15.0075
17 2 5.45889 4.16345 17.4473
18 2 3.99966 0.696833 14.9339
19 2 0.362321 0.988613 17.0661
20 2 4.84784 1.9007 9.43892
21 2 4.0693 3.40627 14.9551
22 2 5.48718 4.07288 12.5476
23 2 2.88105 2.46655 12.3819
24 2 4.42905 3.84839 7.17157
25 2 2.07923 2.17286 7.11356
26 2 2.3081 0.489915 9.89755
27 2 5.46006 1.21605 12.3672
28 2 2.21054 3.33417 9.9801
29 2 4.58888 0.651666 6.93326
30 2 1.79054 0.901371 4.76176
31 2 4.53546 2.49647 4.72542
32 2 2.85451 1.99322 2.74075
33 2 5.27287 0.67412 2.25162
34 2 5.5286 3.74426 2.01868
35 2 6.89546 4.11551 4.58494
ITEM: TIMESTEP
9900
ITEM: NUMBER OF ATOMS
35
ITEM: BOX BOUNDS xy xz yz pp pp pp
0.0000000000000000e+00 7.6685730000000003e+00 2.5561910000000001e+00
0.0000000000000000e+00 4.4274529999999999e+00 0.0000000000000000e+00
0.0000000000000000e+00 3.6699264999999997e+01 0.0000000000000000e+00
ITEM: ATOMS id type x y z
1 1 1.6341 1.27987 0.282434
2 1 5.29236 3.02252 36.5787
3 1 3.16885 3.32269 0.175093
4 1 1.50973 -0.130398 34.9838
5 1 4.27672 1.0021 0.397754
6 1 6.83439 3.80119 34.8832
7 1 5.51889 3.40859 33.1421
8 1 3.86848 1.80761 35.0301
9 1 5.48278 1.2379 30.3767
10 1 4.18811 0.988741 32.6378
11 1 4.47872 3.40719 30.1339
12 1 1.55775 1.16401 32.8036
13 1 2.86933 1.29079 30.6849
14 1 3.09839 3.18186 32.6572
15 1 6.68549 3.49991 30.7612
16 2 1.32745 2.05388 14.9888
17 2 5.24185 4.14225 16.5925
18 2 4.39334 0.439257 14.4149
19 2 5.09723 1.02967 17.1214
20 2 4.84296 2.27762 9.56486
21 2 4.06333 3.61826 14.4931
22 2 5.72115 3.81589 12.3554
23 2 3.02356 2.3284 12.291
24 2 4.51151 3.63551 7.44533
25 2 1.86288 2.25314 7.33726
26 2 2.51343 0.660464 9.94165
27 2 5.54996 0.819352 11.6982
28 2 2.18109 3.51144 9.68308
29 2 4.60904 0.647821 7.15277
30 2 2.18008 0.863447 4.84829
31 2 4.31193 2.59655 4.96094
32 2 2.99444 2.41042 2.42537
33 2 5.70097 0.652188 2.72685
34 2 5.29519 3.67874 2.09215
35 2 6.96103 3.62513 4.68581
ITEM: TIMESTEP
10000
ITEM: NUMBER OF ATOMS
35
ITEM: BOX BOUNDS xy xz yz pp pp pp
0.0000000000000000e+00 7.6685730000000003e+00 2.5561910000000001e+00
0.0000000000000000e+00 4.4274529999999999e+00 0.0000000000000000e+00
0.0000000000000000e+00 3.6699264999999997e+01 0.0000000000000000e+00
ITEM: ATOMS id type x y z
1 1 1.9677 0.686913 0.164772
2 1 5.43227 2.65838 36.9325
3 1 2.90642 3.38543 0.190232
4 1 1.23426 0.385299 34.4921
5 1 4.52526 0.718323 0.907862
6 1 6.53548 3.47071 34.6135
7 1 5.25151 3.32197 32.6346
8 1 3.17033 1.76155 35.0388
9 1 5.74882 1.37108 30.5879
10 1 4.3014 0.936129 32.8275
11 1 4.32539 3.7523 30.7592
12 1 1.89201 1.44489 32.8075
13 1 3.23643 1.43379 30.7639
14 1 2.86871 3.33695 32.7516
15 1 7.04585 3.61966 30.7138
16 2 6.45576 2.15699 14.6481
17 2 5.24132 4.33359 16.4313
18 2 4.08071 0.554869 14.0805
19 2 4.93272 1.16913 16.5211
20 2 4.64169 2.40539 9.89327
21 2 3.9644 3.5194 14.2304
22 2 5.77791 3.20593 11.8677
23 2 3.11094 2.04897 12.2065
24 2 4.61692 3.79301 7.36362
25 2 1.95014 2.11235 7.37676
26 2 2.48841 0.875305 9.67667
27 2 0.663209 0.493232 11.8297
28 2 2.4095 3.88331 9.45338
29 2 4.41801 0.881024 7.27939
30 2 2.20937 0.713392 5.1744
31 2 4.48806 2.24976 5.08454
32 2 2.82427 2.23152 2.54254
33 2 5.50021 1.16329 3.10553
34 2 5.62106 3.74283 2.72327
35 2 6.99566 3.52658 5.10025
ITEM: TIMESTEP
10100
ITEM: NUMBER OF ATOMS
35
ITEM: BOX BOUNDS xy xz yz pp pp pp
0.0000000000000000e+00 7.6685730000000003e+00 2.5561910000000001e+00
0.0000000000000000e+00 4.4274529999999999e+00 0.0000000000000000e+00
0.0000000000000000e+00 3.6699264999999997e+01 0.0000000000000000e+00
ITEM: ATOMS id type x y z
1 1 1.62397 0.528169 0.952918
2 1 5.83972 2.5989 0.850569
3 1 3.08534 2.78531 0.424934
4 1 0.451868 0.243684 35.4141
5 1 4.24334 0.388551 0.36268
6 1 5.83935 3.57724 35.3997
7 1 6.15681 3.3049 32.611
8 1 3.41125 1.58348 34.6104
9 1 5.47064 1.7609 30.5703
10 1 4.64756 1.23601 32.7874
11 1 4.23606 3.99226 30.2259
12 1 2.00603 0.973799 32.5589
13 1 3.21294 1.77456 30.3798
14 1 3.39068 3.43361 32.6341
15 1 6.88501 3.96609 30.351
16 2 1.80983 2.13154 14.2145
17 2 2.54705 0.0718874 16.5262
18 2 3.70089 0.470676 13.8729
19 2 5.02273 1.45621 15.9907
20 2 4.74761 2.33165 9.55479
21 2 3.85641 3.62047 14.569
22 2 5.93529 3.19613 11.987
23 2 3.21186 1.66373 11.7142
24 2 4.54474 3.74676 7.46219
25 2 1.87522 2.32605 7.47489
26 2 1.93588 0.918028 9.66971
27 2 0.892366 0.0125142 12.1728
28 2 2.26623 3.99507 9.6752
29 2 4.60179 0.873915 7.45066
30 2 1.95389 0.668275 5.01564
31 2 4.50052 2.20487 5.026
32 2 2.85938 2.50041 2.8645
33 2 5.47375 0.709392 2.88363
34 2 5.55686 4.06331 2.98199
35 2 2.29637 3.71924 5.25515
ITEM: TIMESTEP
10200
ITEM: NUMBER OF ATOMS
35
ITEM: BOX BOUNDS xy xz yz pp pp pp
0.0000000000000000e+00 7.6685730000000003e+00 2.5561910000000001e+00
0.0000000000000000e+00 4.4274529999999999e+00 0.0000000000000000e+00
0.0000000000000000e+00 3.6699264999999997e+01 0.0000000000000000e+00
ITEM: ATOMS id type x y z
1 1 1.80312 0.25944 0.0923651
2 1 5.81226 2.49021 0.931751
3 1 3.32243 2.59222 0.182028
4 1 0.619964 0.318332 34.5209
5 1 4.16923 0.281275 0.791597
6 1 4.94939 3.10292 34.8145
7 1 6.29614 3.27905 32.8214
8 1 3.08565 1.54564 34.7853
9 1 5.55005 2.28304 30.4635
10 1 5.28918 0.895671 32.6343
11 1 4.47478 4.22796 30.3836
12 1 2.54144 0.897707 32.417
13 1 2.88298 2.29626 30.3806
14 1 3.98843 3.0331 32.5927
15 1 4.22733 0.212696 30.4746
16 2 1.63214 2.01012 14.2997
17 2 2.86356 0.437895 16.6126
18 2 3.93149 0.273533 14.2767
19 2 5.07821 1.71716 16.1977
20 2 4.64286 2.40012 9.49066
21 2 3.87258 3.42439 14.6885
22 2 5.71679 2.91248 12.1077
23 2 3.62061 1.527 11.887
24 2 4.59492 3.86459 7.18321
25 2 2.09043 2.43317 7.44447
26 2 1.84302 0.658492 9.66551
27 2 3.36319 4.42951 12.1426
28 2 6.81798 3.75685 9.84792
29 2 4.4507 0.825656 7.41204
30 2 2.03215 1.15417 5.20353
31 2 4.8005 2.2471 4.95927
32 2 2.97995 2.37403 2.81399
33 2 5.30897 0.720776 2.73517
34 2 5.33479 4.06707 3.0429
35 2 7.01975 3.87506 4.99934
ITEM: TIMESTEP
10300
ITEM: NUMBER OF ATOMS
35
ITEM: BOX BOUNDS xy xz yz pp pp pp
0.0000000000000000e+00 7.6685730000000003e+00 2.5561910000000001e+00
0.0000000000000000e+00 4.4274529999999999e+00 0.0000000000000000e+00
0.0000000000000000e+00 3.6699264999999997e+01 0.0000000000000000e+00
ITEM: ATOMS id type x y z
1 1 2.03189 0.236642 36.9307
2 1 5.59766 2.50057 0.125194
3 1 3.47991 2.50913 -0.171103
4 1 0.251042 -0.106508 34.5841
5 1 4.41343 0.212026 -0.0961632
6 1 5.0641 2.37815 34.5848
7 1 1.90593 2.95172 32.9407
8 1 2.63932 1.27198 34.746
9 1 5.64076 2.7527 30.4481
10 1 5.55254 1.01786 32.5535
11 1 1.58939 0.779135 30.2267
12 1 3.22816 0.647385 32.425
13 1 2.99629 2.79588 30.2993
14 1 4.32569 3.28063 32.4483
15 1 3.92282 0.245769 30.1392
16 2 1.57872 1.41881 14.6203
17 2 2.84691 0.875642 16.8019
18 2 4.26512 0.242899 14.5832
19 2 5.55339 1.97325 17.0175
20 2 4.11274 2.35031 9.72877
21 2 4.00776 3.18981 14.6603
22 2 5.72808 2.82107 12.2548
23 2 2.9207 1.28205 12.3059
24 2 4.49898 3.90789 7.24137
25 2 2.10605 2.34605 7.52448
26 2 1.89117 0.796698 9.8243
27 2 0.643981 -0.0452963 12.1072
28 2 7.08672 3.8434 9.76297
29 2 4.62383 0.761964 7.2067
30 2 2.2401 1.23054 4.99395
31 2 4.56917 2.48593 5.04756
32 2 2.7736 2.11168 2.38568
33 2 5.42511 1.1794 2.62824
34 2 4.93486 3.77429 2.52904
35 2 7.17656 4.07033 4.76996
ITEM: TIMESTEP
10400
ITEM: NUMBER OF ATOMS
35
ITEM: BOX BOUNDS xy xz yz pp pp pp
0.0000000000000000e+00 7.6685730000000003e+00 2.5561910000000001e+00
0.0000000000000000e+00 4.4274529999999999e+00 0.0000000000000000e+00
0.0000000000000000e+00 3.6699264999999997e+01 0.0000000000000000e+00
ITEM: ATOMS id type x y z
1 1 1.70255 0.249427 -0.165709
2 1 6.01519 2.64143 0.108563
3 1 3.50297 2.53278 36.543
4 1 2.7266 3.80151 34.4516
5 1 4.36244 0.43146 0.124928
6 1 5.15646 2.38349 34.753
7 1 2.06843 2.79933 32.3329
8 1 2.27671 0.673735 34.2153
9 1 5.46089 2.90416 30.4523
10 1 0.838729 0.935729 32.2483
11 1 1.71568 0.670193 30.0911
12 1 3.68337 0.946045 31.8614
13 1 2.7956 3.2207 30.243
14 1 4.40771 3.34561 32.6513
15 1 4.31817 1.12458 29.5014
16 2 1.58947 1.40421 14.8434
17 2 3.03626 1.00251 17.1692
18 2 4.23043 -0.0944859 15.0149
19 2 5.77648 2.5763 17.2224
20 2 4.40962 2.20414 10.2301
21 2 4.51606 2.72681 14.9663
22 2 5.51659 2.94661 12.3351
23 2 2.8523 1.29997 12.4074
24 2 4.67454 3.88847 7.65292
25 2 1.77026 2.39934 7.10517
26 2 1.74688 0.985999 9.82159
27 2 2.78386 4.09568 12.368
28 2 6.7355 3.94613 9.75732
29 2 4.69567 0.800336 7.185
30 2 2.08225 0.905962 4.66264
31 2 4.60565 2.70138 4.93278
32 2 2.6486 2.39755 2.11573
33 2 5.01957 0.830226 2.30245
34 2 5.10294 3.82316 2.40175
35 2 7.41365 3.93712 4.47338
ITEM: TIMESTEP
10500
ITEM: NUMBER OF ATOMS
35
ITEM: BOX BOUNDS xy xz yz pp pp pp
0.0000000000000000e+00 7.6685730000000003e+00 2.5561910000000001e+00
0.0000000000000000e+00 4.4274529999999999e+00 0.0000000000000000e+00
0.0000000000000000e+00 3.6699264999999997e+01 0.0000000000000000e+00
ITEM: ATOMS id type x y z
1 1 1.64735 0.727136 36.2892
2 1 5.80555 2.49449 0.545119
3 1 3.11109 2.62512 36.392
4 1 2.5176 3.86883 34.1745
5 1 4.1655 0.416956 36.2708
6 1 5.58985 1.76938 34.4688
7 1 1.961 2.98248 32.2226
8 1 2.8249 0.724527 33.7418
9 1 5.80323 3.25796 30.2803
10 1 0.661158 0.391387 31.8252
11 1 1.90446 1.08756 29.4837
12 1 3.20217 1.19642 31.6081
13 1 3.08307 3.47447 29.3786
14 1 4.56354 2.85299 32.3683
15 1 4.49491 1.40798 29.3354
16 2 2.01028 1.19751 14.8826
17 2 3.35903 1.1825 17.3179
18 2 6.93354 4.00656 15.2947
19 2 5.83305 2.89961 17.4071
20 2 4.10014 2.25862 9.86308
21 2 4.05851 2.76059 15.1746
22 2 5.37401 2.95199 12.7938
23 2 3.14545 1.3162 12.4288
24 2 4.43928 3.6846 7.64175
25 2 2.12144 2.46075 6.93061
26 2 1.53899 1.01068 10.0414
27 2 2.92401 4.26182 12.797
28 2 6.69891 3.72024 9.70551
29 2 4.32167 1.01058 7.27073
30 2 2.20417 0.95665 4.7107
31 2 4.77852 2.2396 4.86467
32 2 2.57822 2.40776 2.2649
33 2 5.02226 0.830848 2.08529
34 2 4.97915 4.1185 2.32095
35 2 2.12302 3.7124 4.72604
ITEM: TIMESTEP
10600
ITEM: NUMBER OF ATOMS
35
ITEM: BOX BOUNDS xy xz yz pp pp pp
0.0000000000000000e+00 7.6685730000000003e+00 2.5561910000000001e+00
0.0000000000000000e+00 4.4274529999999999e+00 0.0000000000000000e+00
0.0000000000000000e+00 3.6699264999999997e+01 0.0000000000000000e+00
ITEM: ATOMS id type x y z
1 1 1.59006 0.643875 36.3082
2 1 5.35998 2.90463 36.2699
3 1 2.72908 3.09474 36.4031
4 1 3.14038 3.48405 33.7381
5 1 3.96764 0.843684 0.127567
6 1 6.08716 1.84529 33.8591
7 1 1.71919 2.65076 31.5673
8 1 3.45098 0.714181 34.0863
9 1 5.89342 3.65181 28.9537
10 1 0.577785 0.591481 31.3097
11 1 1.98806 1.75988 28.6652
12 1 3.0629 0.559787 31.2671
13 1 3.46496 3.59456 29.552
14 1 4.47651 2.77131 32.0206
15 1 4.58467 1.39774 29.4962
16 2 1.84302 0.772953 15.1247
17 2 3.34336 1.70693 17.494
18 2 6.8416 4.18239 15.3029
19 2 5.93273 2.77949 17.392
20 2 3.72388 2.41524 9.88438
21 2 4.3775 2.60716 15.2775
22 2 5.75916 2.84968 12.6736
23 2 3.32632 1.36505 12.2873
24 2 4.24528 4.11784 7.15903
25 2 1.84931 2.23951 7.67058
26 2 1.30086 0.660601 10.1994
27 2 3.27062 4.41608 12.6893
28 2 6.58284 3.83151 10.105
29 2 4.43531 0.655135 7.60379
30 2 2.27972 0.669951 4.94456
31 2 4.91825 2.1229 4.55586
32 2 2.48869 2.30808 2.45102
33 2 4.99028 1.07306 2.33751
34 2 4.59072 3.90487 2.26154
35 2 7.29062 3.87761 4.77994
ITEM: TIMESTEP
10700
ITEM: NUMBER OF ATOMS
35
ITEM: BOX BOUNDS xy xz yz pp pp pp
0.0000000000000000e+00 7.6685730000000003e+00 2.5561910000000001e+00
0.0000000000000000e+00 4.4274529999999999e+00 0.0000000000000000e+00
0.0000000000000000e+00 3.6699264999999997e+01 0.0000000000000000e+00
ITEM: ATOMS id type x y z
1 1 1.17755 0.950709 36.2283
2 1 4.93469 3.39329 35.0507
3 1 2.33691 3.46526 0.0994474
4 1 3.24783 3.36239 33.8653
5 1 3.82718 1.17433 0.0321122
6 1 1.36853 1.98074 33.4627
7 1 1.90087 2.71194 30.8797
8 1 4.089 0.688653 34.2395
9 1 5.95459 4.071 27.9944
10 1 0.370487 0.381482 32.098
11 1 2.30243 1.57159 29.0089
12 1 2.8224 0.317768 32.0942
13 1 3.67906 4.04555 29.3601
14 1 4.46263 2.43341 31.1802
15 1 4.9381 1.51761 28.9507
16 2 1.79893 0.988366 15.4855
17 2 3.19869 1.88903 17.4686
18 2 6.97085 4.11784 15.2683
19 2 5.80264 2.81388 17.2065
20 2 4.00253 2.41474 9.80068
21 2 4.67391 2.25737 14.5805
22 2 6.19086 2.73505 12.6074
23 2 3.41638 1.34751 12.5903
24 2 4.49971 3.64774 7.32569
25 2 6.38734 2.32599 8.02146
26 2 1.07892 0.896869 10.1402
27 2 3.51001 4.17047 12.718
28 2 5.93565 4.06118 10.3315
29 2 4.32964 0.585649 7.69395
30 2 2.4023 0.91637 4.59738
31 2 5.02257 2.54789 5.15327
32 2 1.93762 2.318 2.38512
33 2 4.79558 0.728639 2.55176
34 2 4.9123 3.61827 2.18674
35 2 2.37193 3.62804 4.91709
ITEM: TIMESTEP
10800
ITEM: NUMBER OF ATOMS
35
ITEM: BOX BOUNDS xy xz yz pp pp pp
0.0000000000000000e+00 7.6685730000000003e+00 2.5561910000000001e+00
0.0000000000000000e+00 4.4274529999999999e+00 0.0000000000000000e+00
0.0000000000000000e+00 3.6699264999999997e+01 0.0000000000000000e+00
ITEM: ATOMS id type x y z
1 1 1.03612 1.32984 36.2932
2 1 5.56626 3.99122 35.1424
3 1 7.09371 3.80391 0.0535137
4 1 3.50083 3.1339 33.7734
5 1 3.47731 1.90461 0.292051
6 1 6.18662 1.92175 33.3685
7 1 6.42898 2.80996 31.1531
8 1 4.51026 1.11664 34.3543
9 1 6.40609 3.90589 28.775
10 1 0.134377 0.24014 31.5318
11 1 3.01065 1.77046 29.2053
12 1 2.68753 0.0752423 32.4168
13 1 3.78173 3.87072 29.3186
14 1 3.97016 2.39378 31.2973
15 1 5.32998 1.90836 28.8478
16 2 2.03948 0.788582 15.1687
17 2 3.3326 1.8553 17.1939
18 2 7.33488 3.78276 15.2015
19 2 5.4474 3.21704 17.1152
20 2 3.3237 2.61111 10.1763
21 2 4.43524 2.52045 14.8429
22 2 6.5346 2.47016 12.5575
23 2 3.60196 0.773705 12.4929
24 2 3.89777 3.86916 7.77981
25 2 2.01452 2.11539 7.62036
26 2 0.770622 1.14783 10.3489
27 2 3.64943 4.12646 12.6676
28 2 6.0987 4.21335 10.0673
29 2 3.9394 0.705342 7.30577
30 2 2.56691 0.890951 4.80173
31 2 5.16543 2.24206 5.15425
32 2 1.97963 2.00882 2.27506
33 2 4.62879 0.431124 2.68937
34 2 4.57486 3.68283 1.90152
35 2 2.65975 3.81523 5.22024
ITEM: TIMESTEP
10900
ITEM: NUMBER OF ATOMS
35
ITEM: BOX BOUNDS xy xz yz pp pp pp
0.0000000000000000e+00 7.6685730000000003e+00 2.5561910000000001e+00
0.0000000000000000e+00 4.4274529999999999e+00 0.0000000000000000e+00
0.0000000000000000e+00 3.6699264999999997e+01 0.0000000000000000e+00
ITEM: ATOMS id type x y z
1 1 6.41268 1.67863 36.6712
2 1 4.82668 3.85671 35.4991
3 1 7.01938 4.00147 0.433699
4 1 3.12615 3.76041 33.823
5 1 3.62024 2.06177 -0.185361
6 1 1.51508 2.21063 33.6183
7 1 5.88616 2.67586 31.2511
8 1 4.39303 0.950556 34.3645
9 1 7.03831 4.11601 29.5861
10 1 5.29943 0.536115 31.7569
11 1 3.02341 1.74153 29.6938
12 1 2.78234 0.0207816 32.4748
13 1 4.70158 3.8252 29.7831
14 1 3.31626 2.2409 31.874
15 1 5.53354 1.74868 28.9705
16 2 2.0741 0.784616 14.6652
17 2 3.07698 1.76276 17.121
18 2 2.23686 3.78845 15.2524
19 2 5.59031 3.76452 17.0986
20 2 2.87704 2.64401 10.5214
21 2 4.67919 2.1201 14.7296
22 2 1.38753 2.34002 12.8484
23 2 3.95384 0.623793 12.496
24 2 3.90313 4.02615 7.98627
25 2 1.52006 2.28585 7.28273
26 2 5.68377 1.29827 10.0666
27 2 3.97026 3.92245 12.4051
28 2 5.82313 4.08828 9.47179
29 2 4.24259 0.761102 7.1152
30 2 2.60531 0.501584 4.93844
31 2 5.42031 2.3278 4.87399
32 2 1.87678 1.94332 2.51071
33 2 4.5732 0.592542 2.78706
34 2 4.31849 3.64376 2.00804
35 2 2.97866 3.60975 5.07061
ITEM: TIMESTEP
11000
ITEM: NUMBER OF ATOMS
35
ITEM: BOX BOUNDS xy xz yz pp pp pp
0.0000000000000000e+00 7.6685730000000003e+00 2.5561910000000001e+00
0.0000000000000000e+00 4.4274529999999999e+00 0.0000000000000000e+00
0.0000000000000000e+00 3.6699264999999997e+01 0.0000000000000000e+00
ITEM: ATOMS id type x y z
1 1 5.84763 1.43432 0.367833
2 1 5.05884 4.01317 36.1844
3 1 7.07899 4.05862 0.298266
4 1 3.29081 3.765 34.7252
5 1 3.51789 2.01483 0.0915804
6 1 6.13088 1.96374 34.7343
7 1 1.38896 2.19644 31.8337
8 1 3.58935 1.50364 34.3433
9 1 7.35786 4.10583 29.884
10 1 4.92744 0.28928 32.0279
11 1 3.15998 1.69734 29.8016
12 1 2.4186 0.129542 32.8633
13 1 4.69808 4.11001 30.2978
14 1 3.71418 2.61273 32.2357
15 1 5.78456 1.79382 29.0936
16 2 2.43341 0.442564 14.879
17 2 2.96179 2.2438 16.9159
18 2 2.43172 3.79155 15.0599
19 2 5.18369 3.47074 16.9942
20 2 2.83058 2.37749 9.98927
21 2 4.7234 2.02514 14.9126
22 2 1.55 2.50439 12.6277
23 2 4.37479 0.856206 12.2078
24 2 3.77354 3.48614 7.43772
25 2 6.37054 2.6826 7.32606
26 2 5.2611 1.38849 9.70447
27 2 4.38454 3.7496 12.1786
28 2 5.76687 4.18794 9.84653
29 2 4.06879 1.08446 7.07759
30 2 2.69043 0.57894 4.94593
31 2 5.48039 2.31337 4.68626
32 2 1.9995 2.18994 2.51304
33 2 4.34943 0.754016 2.8496
34 2 4.5091 3.4478 2.22921
35 2 2.9465 3.16156 4.80746
ITEM: TIMESTEP
11100
ITEM: NUMBER OF ATOMS
35
ITEM: BOX BOUNDS xy xz yz pp pp pp
0.0000000000000000e+00 7.6685730000000003e+00 2.5561910000000001e+00
0.0000000000000000e+00 4.4274529999999999e+00 0.0000000000000000e+00
0.0000000000000000e+00 3.6699264999999997e+01 0.0000000000000000e+00
ITEM: ATOMS id type x y z
1 1 5.74958 1.6067 0.432241
2 1 4.73918 4.12811 36.5131
3 1 2.29294 3.8404 0.410581
4 1 2.63837 4.1703 34.8653
5 1 3.49423 1.53024 0.310809
6 1 5.94552 2.34745 34.7732
7 1 1.77844 2.28065 32.2729
8 1 3.48024 1.27288 34.7864
9 1 7.29701 3.94683 30.0493
10 1 4.43014 -0.00130966 32.6996
11 1 3.65741 1.83781 30.0982
12 1 1.87559 0.165326 33.4433
13 1 4.56743 4.27863 30.7463
14 1 4.32161 2.25598 32.2923
15 1 5.86669 1.93204 30.1776
16 2 2.55953 0.489953 14.4631
17 2 2.49887 2.05573 16.9874
18 2 2.54507 3.63675 14.6373
19 2 5.21988 3.50637 17.1892
20 2 2.8591 2.73673 9.63575
21 2 5.03912 2.11972 14.6986
22 2 2.10033 2.29847 12.3083
23 2 4.54247 0.95151 12.1157
24 2 3.92203 4.15084 7.2539
25 2 6.41822 2.5254 7.28934
26 2 5.57717 1.22701 9.50049
27 2 4.1137 3.89052 12.0709
28 2 5.54301 4.02353 9.91462
29 2 3.83074 0.830958 7.34392
30 2 2.46503 0.467892 4.97398
31 2 5.29806 1.95525 4.8897
32 2 2.10446 2.1285 2.55125
33 2 4.3543 0.510015 2.60213
34 2 4.64243 3.70353 2.27208
35 2 2.70848 3.56184 4.70415
ITEM: TIMESTEP
11200
ITEM: NUMBER OF ATOMS
35
ITEM: BOX BOUNDS xy xz yz pp pp pp
0.0000000000000000e+00 7.6685730000000003e+00 2.5561910000000001e+00
0.0000000000000000e+00 4.4274529999999999e+00 0.0000000000000000e+00
0.0000000000000000e+00 3.6699264999999997e+01 0.0000000000000000e+00
ITEM: ATOMS id type x y z
1 1 5.99938 1.50329 0.0869467
2 1 4.51162 3.61682 36.2067
3 1 1.92879 3.83664 0.707721
4 1 2.26729 4.1894 35.0033
5 1 3.51843 1.48426 0.519799
6 1 5.77242 2.55849 34.5838
7 1 2.41191 1.92303 32.5008
8 1 3.32269 1.84944 34.8601
9 1 7.3328 4.13763 30.687
10 1 3.95112 0.107637 32.7262
11 1 3.16418 1.98263 30.4388
12 1 1.69848 -0.091232 33.7043
13 1 4.82801 4.17172 31.2304
14 1 4.83922 2.27872 32.4521
15 1 5.93744 1.98645 30.8141
16 2 2.73538 0.854773 14.3298
17 2 2.02923 1.72892 16.5558
18 2 2.79812 3.50603 14.7925
19 2 5.19799 3.673 16.5796
20 2 3.13276 2.92498 9.49886
21 2 5.33221 2.03901 14.5157
22 2 1.76353 2.10649 11.7768
23 2 4.38898 0.998626 11.9771
24 2 4.01019 4.12 7.2279
25 2 6.47228 2.59038 7.07131
26 2 5.89158 1.20583 9.75332
27 2 4.31516 3.71108 12.3463
28 2 5.60999 4.088 9.72708
29 2 4.00454 1.1552 7.64839
30 2 2.65291 0.370982 4.82712
31 2 4.72442 1.9629 4.98652
32 2 1.94077 1.92328 2.84152
33 2 4.79844 0.744563 2.56433
34 2 4.46631 3.5466 2.41643
35 2 2.30566 3.53996 5.03446
ITEM: TIMESTEP
11300
ITEM: NUMBER OF ATOMS
35
ITEM: BOX BOUNDS xy xz yz pp pp pp
0.0000000000000000e+00 7.6685730000000003e+00 2.5561910000000001e+00
0.0000000000000000e+00 4.4274529999999999e+00 0.0000000000000000e+00
0.0000000000000000e+00 3.6699264999999997e+01 0.0000000000000000e+00
ITEM: ATOMS id type x y z
1 1 0.648918 1.04582 0.826475
2 1 4.60971 3.66209 36.3916
3 1 6.67341 3.05943 0.460648
4 1 4.21135 0.186193 35.7321
5 1 3.19568 1.36806 0.822095
6 1 5.85351 1.96987 34.9335
7 1 2.35322 2.56537 32.5495
8 1 3.19475 2.34126 35.0104
9 1 7.307 4.26341 30.8697
10 1 5.98406 4.37898 33.2243
11 1 3.84232 1.8566 30.3765
12 1 3.88391 4.09736 33.8286
13 1 4.64355 4.17736 31.0547
14 1 4.81753 1.99827 32.6674
15 1 6.32999 2.04967 29.795
16 2 3.20085 0.897079 14.028
17 2 1.72186 1.72949 16.6136
18 2 2.84002 3.90737 14.7136
19 2 4.96772 3.50147 15.9617
20 2 3.25499 2.83042 9.80628
21 2 5.69865 1.82775 14.0327
22 2 1.75962 2.59965 12.1981
23 2 4.32614 0.552828 11.7921
24 2 3.8986 3.97366 7.28929
25 2 6.53201 2.72643 7.49446
26 2 0.822075 1.22604 9.47361
27 2 4.24645 3.4902 12.3363
28 2 5.8018 4.1277 9.68699
29 2 4.10554 1.20387 7.48875
30 2 2.2306 0.483438 4.83469
31 2 4.66612 2.05809 5.09219
32 2 2.13168 2.39894 2.82581
33 2 4.84891 0.590155 2.86399
34 2 4.5911 3.37865 2.33047
35 2 2.37648 3.61838 4.8987
ITEM: TIMESTEP
11400
ITEM: NUMBER OF ATOMS
35
ITEM: BOX BOUNDS xy xz yz pp pp pp
0.0000000000000000e+00 7.6685730000000003e+00 2.5561910000000001e+00
0.0000000000000000e+00 4.4274529999999999e+00 0.0000000000000000e+00
0.0000000000000000e+00 3.6699264999999997e+01 0.0000000000000000e+00
ITEM: ATOMS id type x y z
1 1 0.709237 0.922353 0.975793
2 1 4.32224 3.9869 35.8055
3 1 2.21229 3.13122 0.385303
4 1 4.03884 -0.186605 35.1988
5 1 3.46581 0.809723 0.521351
6 1 5.44498 1.92831 35.3755
7 1 2.32151 1.97154 32.2258
8 1 2.40723 2.00111 34.7232
9 1 7.27396 4.32532 31.1756
10 1 3.22731 0.135656 33.1063
11 1 4.1178 2.32752 30.3196
12 1 2.92999 4.28857 33.317
13 1 4.6756 4.37582 30.9512
14 1 5.19833 2.1082 32.4716
15 1 1.65795 2.15613 30.0619
16 2 3.1842 0.959963 14.2754
17 2 1.88657 1.72099 16.4838
18 2 2.38352 3.49904 14.6829
19 2 4.60586 3.37122 15.8742
20 2 3.52624 2.55114 9.7868
21 2 5.66242 1.66476 14.2796
22 2 2.142 2.33808 11.8111
23 2 4.65914 1.06731 11.7644
24 2 3.84472 4.19441 7.42961
25 2 1.52177 2.45437 7.53123
26 2 0.935826 1.12196 9.7083
27 2 4.58557 4.04717 12.3989
28 2 5.7674 4.103 9.55638
29 2 3.54974 1.04247 7.15264
30 2 2.20985 0.810145 4.93528
31 2 5.12687 2.24195 5.03857
32 2 2.30653 2.17779 2.69831
33 2 4.32169 0.549696 3.07816
34 2 4.86322 3.5835 2.46957
35 2 7.20666 3.73173 5.48316
ITEM: TIMESTEP
11500
ITEM: NUMBER OF ATOMS
35
ITEM: BOX BOUNDS xy xz yz pp pp pp
0.0000000000000000e+00 7.6685730000000003e+00 2.5561910000000001e+00
0.0000000000000000e+00 4.4274529999999999e+00 0.0000000000000000e+00
0.0000000000000000e+00 3.6699264999999997e+01 0.0000000000000000e+00
ITEM: ATOMS id type x y z
1 1 5.59062 1.50523 0.79202
2 1 4.14176 4.06197 35.3648
3 1 3.01621 3.58574 0.519004
4 1 6.62078 3.54859 34.8774
5 1 3.02002 0.85295 0.300925
6 1 4.792 1.63361 35.0344
7 1 2.43163 2.38776 31.9304
8 1 2.47291 1.59101 34.4978
9 1 4.80016 0.0646119 30.8252
10 1 3.38396 0.109946 32.8108
11 1 3.87713 2.14686 29.8436
12 1 0.822917 0.197178 32.8982
13 1 2.23745 0.0968468 30.6164
14 1 4.70747 1.86047 32.6005
15 1 6.30085 2.46776 30.0969
16 2 2.90585 0.91581 14.7285
17 2 2.05389 1.61412 16.993
18 2 2.37293 3.46917 14.2014
19 2 4.36675 3.45719 16.2076
20 2 3.8703 2.48326 9.34792
21 2 5.5903 1.7192 14.5854
22 2 2.09569 2.46408 11.8201
23 2 4.47573 1.25912 12.1262
24 2 3.76996 3.92465 7.3114
25 2 6.03295 2.48051 7.52316
26 2 1.02328 0.702441 9.95408
27 2 4.89812 3.85822 12.4271
28 2 6.30805 4.12317 10.0222
29 2 3.90472 1.11339 7.14529
30 2 2.13769 0.820851 4.89969
31 2 4.83064 2.64273 5.00127
32 2 2.319 2.22974 2.80248
33 2 4.6681 0.663781 3.1248
34 2 4.61874 3.43683 2.38837
35 2 2.36303 3.61234 5.0949
ITEM: TIMESTEP
11600
ITEM: NUMBER OF ATOMS
35
ITEM: BOX BOUNDS xy xz yz pp pp pp
0.0000000000000000e+00 7.6685730000000003e+00 2.5561910000000001e+00
0.0000000000000000e+00 4.4274529999999999e+00 0.0000000000000000e+00
0.0000000000000000e+00 3.6699264999999997e+01 0.0000000000000000e+00
ITEM: ATOMS id type x y z
1 1 5.45992 2.47464 0.0244413
2 1 3.86485 3.59958 35.1413
3 1 2.19275 3.75443 0.414714
4 1 6.4067 3.75848 34.9009
5 1 2.8783 0.892613 0.440273
6 1 5.30495 1.1419 34.3319
7 1 2.23363 2.0902 32.1132
8 1 2.74506 1.54273 34.5119
9 1 5.02455 0.267442 30.1725
10 1 6.60563 4.30945 32.4526
11 1 2.94832 2.47733 29.8627
12 1 1.27871 0.106958 32.824
13 1 2.3394 0.315149 30.2416
14 1 4.64818 2.5019 32.0264
15 1 5.54113 2.37803 29.8098
16 2 3.01164 0.633428 14.898
17 2 1.90688 2.05109 17.2637
18 2 2.86536 3.62733 14.3574
19 2 4.0248 3.4025 16.6967
20 2 3.99464 2.18728 9.96283
21 2 5.63002 1.93172 15.0267
22 2 2.08905 2.38735 11.8914
23 2 4.48786 0.910498 12.3234
24 2 3.76884 4.21182 7.60198
25 2 6.36941 2.62048 7.38571
26 2 1.38363 0.666549 10.1647
27 2 4.61672 3.8411 12.5448
28 2 6.24455 3.91369 9.64927
29 2 3.82655 0.809573 6.95947
30 2 2.00585 0.703727 5.10866
31 2 4.84703 2.28596 4.83067
32 2 2.03151 2.25663 2.43063
33 2 4.85466 0.829926 2.43742
34 2 4.80048 3.7112 2.48055
35 2 2.30279 3.63198 5.00429
ITEM: TIMESTEP
11700
ITEM: NUMBER OF ATOMS
35
ITEM: BOX BOUNDS xy xz yz pp pp pp
0.0000000000000000e+00 7.6685730000000003e+00 2.5561910000000001e+00
0.0000000000000000e+00 4.4274529999999999e+00 0.0000000000000000e+00
0.0000000000000000e+00 3.6699264999999997e+01 0.0000000000000000e+00
ITEM: ATOMS id type x y z
1 1 4.82395 2.45182 0.210262
2 1 3.79453 3.6652 34.652
3 1 2.51798 4.06224 0.0550297
4 1 6.3993 3.62789 34.2208
5 1 2.55899 1.3824 36.5878
6 1 5.20168 1.70543 34.3478
7 1 2.12052 2.26249 32.1145
8 1 2.59924 1.20784 34.0607
9 1 4.54102 0.492731 29.9364
10 1 3.91075 0.0860815 32.2532
11 1 3.09959 2.60119 29.8992
12 1 4.15883 4.01183 32.4919
13 1 2.03836 0.28574 30.3713
14 1 5.10962 2.07968 31.595
15 1 5.73741 2.72779 29.2061
16 2 3.14801 0.605525 15.2799
17 2 1.51999 2.411 17.072
18 2 2.95531 3.3316 14.9396
19 2 4.01791 3.77564 17.3424
20 2 4.12776 2.06183 9.8683
21 2 5.6318 1.90702 14.7086
22 2 1.82752 2.36076 12.5584
23 2 4.6336 0.636745 12.6503
24 2 3.75142 3.81976 7.69871
25 2 1.46122 2.10919 7.35223
26 2 1.47871 0.907682 10.0084
27 2 4.73657 3.94998 12.5585
28 2 6.45175 3.67705 9.60303
29 2 3.89984 1.37173 7.29809
30 2 2.0611 0.42963 5.01658
31 2 4.72962 2.02931 4.74135
32 2 2.20437 2.31535 2.35231
33 2 4.78326 0.918057 2.1634
34 2 4.76909 3.94048 2.57983
35 2 2.06314 3.69041 4.61909
ITEM: TIMESTEP
11800
ITEM: NUMBER OF ATOMS
35
ITEM: BOX BOUNDS xy xz yz pp pp pp
0.0000000000000000e+00 7.6685730000000003e+00 2.5561910000000001e+00
0.0000000000000000e+00 4.4274529999999999e+00 0.0000000000000000e+00
0.0000000000000000e+00 3.6699264999999997e+01 0.0000000000000000e+00
ITEM: ATOMS id type x y z
1 1 4.84045 2.67868 36.6527
2 1 4.19653 3.64527 34.7685
3 1 7.38419 4.1792 0.0788197
4 1 6.40677 3.18886 34.6375
5 1 1.77211 1.0992 36.6811
6 1 4.79097 1.17614 34.081
7 1 2.55037 2.26739 31.774
8 1 2.42563 1.35743 33.9785
9 1 4.35985 0.394094 28.9853
10 1 3.43862 0.166116 31.5167
11 1 3.72856 2.80322 29.6264
12 1 3.79958 4.4771 32.3032
13 1 1.71316 0.78907 29.684
14 1 5.27242 2.0875 31.503
15 1 6.07234 2.70942 29.1631
16 2 3.17884 0.425187 15.6491
17 2 6.24818 2.72018 17.1754
18 2 3.24129 3.24597 15.1706
19 2 4.1605 4.25826 17.4498
20 2 4.04335 2.36281 10.1563
21 2 5.36332 1.80162 15.0089
22 2 2.30375 2.18584 12.659
23 2 4.53101 0.786735 12.3687
24 2 3.8802 3.65922 7.34626
25 2 6.34175 2.39915 7.20336
26 2 1.64981 0.795542 9.78268
27 2 4.42853 3.78815 12.5469
28 2 6.78368 3.74728 10.1392
29 2 4.15409 0.359867 7.60856
30 2 2.13088 0.744517 4.9061
31 2 4.52709 2.13982 4.68823
32 2 2.45015 2.38556 2.29605
33 2 4.7325 0.800151 2.44487
34 2 4.72586 3.99964 2.16089
35 2 7.05591 3.51393 4.79725
ITEM: TIMESTEP
11900
ITEM: NUMBER OF ATOMS
35
ITEM: BOX BOUNDS xy xz yz pp pp pp
0.0000000000000000e+00 7.6685730000000003e+00 2.5561910000000001e+00
0.0000000000000000e+00 4.4274529999999999e+00 0.0000000000000000e+00
0.0000000000000000e+00 3.6699264999999997e+01 0.0000000000000000e+00
ITEM: ATOMS id type x y z
1 1 4.65629 1.91468 0.230952
2 1 3.40173 3.35482 34.0942
3 1 6.43222 4.07433 0.195041
4 1 6.28914 3.31433 34.4447
5 1 1.99995 0.766023 36.4338
6 1 5.00462 1.10239 34.0157
7 1 2.3976 2.3027 31.4014
8 1 2.69506 1.10677 34.0637
9 1 4.82306 0.929318 28.8035
10 1 6.55007 4.53326 31.1327
11 1 3.29599 2.96474 29.2581
12 1 1.0061 0.245836 31.6299
13 1 2.41762 0.56049 29.1331
14 1 4.66146 2.57417 32.0289
15 1 6.08562 2.72878 29.4605
16 2 3.128 0.373087 15.13
17 2 6.34077 2.92536 17.4453
18 2 3.18392 3.39217 15.2137
19 2 0.826157 0.312399 17.5332
20 2 4.35878 2.47564 9.97617
21 2 5.82247 1.60732 15.0238
22 2 2.12222 2.06106 12.7373
23 2 4.77183 0.795389 12.5712
24 2 4.15162 3.52142 7.07769
25 2 1.23394 1.57737 7.35187
26 2 1.74458 0.761013 9.77716
27 2 4.60386 3.80026 12.7455
28 2 6.85784 3.57056 10.4074
29 2 3.85837 0.611523 7.80954
30 2 2.07932 0.848183 4.6394
31 2 4.50507 2.43697 4.87985
32 2 2.23475 2.3482 2.14144
33 2 4.87906 0.793817 2.65439
34 2 4.8626 3.83036 2.27377
35 2 7.06043 3.84163 5.01548
ITEM: TIMESTEP
12000
ITEM: NUMBER OF ATOMS
35
ITEM: BOX BOUNDS xy xz yz pp pp pp
0.0000000000000000e+00 7.6685730000000003e+00 2.5561910000000001e+00
0.0000000000000000e+00 4.4274529999999999e+00 0.0000000000000000e+00
0.0000000000000000e+00 3.6699264999999997e+01 0.0000000000000000e+00
ITEM: ATOMS id type x y z
1 1 4.02546 1.92189 0.156166
2 1 3.32387 3.21843 33.7646
3 1 6.6228 3.25457 -0.0607918
4 1 6.051 3.32242 34.0429
5 1 1.30496 0.709952 36.5211
6 1 5.05978 0.984676 34.4783
7 1 2.20155 2.74517 31.9009
8 1 2.19525 0.954863 33.3791
9 1 4.93624 0.577347 29.1118
10 1 3.75035 0.762059 31.5392
11 1 3.52266 2.76894 29.2968
12 1 1.28573 -0.0435521 30.9449
13 1 2.6549 0.818516 28.9997
14 1 5.0847 2.69488 31.8662
15 1 5.93948 3.17008 29.9229
16 2 3.3092 0.180701 15.1107
17 2 6.10792 3.30791 17.2322
18 2 3.31931 3.07597 15.2573
19 2 5.28512 0.765745 17.1603
20 2 4.69724 2.11901 9.91174
21 2 6.03569 1.87797 15.1116
22 2 2.11334 2.4783 12.5315
23 2 4.86522 0.679785 12.8797
24 2 4.00314 3.23783 7.40512
25 2 1.2196 1.80358 7.2889
26 2 1.75972 0.643172 10.3436
27 2 4.82599 3.60877 12.6666
28 2 7.07186 3.55652 10.0566
29 2 3.73997 0.661995 7.73374
30 2 2.07445 1.04803 4.68902
31 2 4.60927 2.32466 4.66107
32 2 2.20257 2.12997 2.24552
33 2 4.96271 0.717485 2.46093
34 2 4.97059 3.65906 2.44234
35 2 6.98706 4.07222 5.37784
ITEM: TIMESTEP
12100
ITEM: NUMBER OF ATOMS
35
ITEM: BOX BOUNDS xy xz yz pp pp pp
0.0000000000000000e+00 7.6685730000000003e+00 2.5561910000000001e+00
0.0000000000000000e+00 4.4274529999999999e+00 0.0000000000000000e+00
0.0000000000000000e+00 3.6699264999999997e+01 0.0000000000000000e+00
ITEM: ATOMS id type x y z
1 1 3.65879 2.05124 0.202856
2 1 3.76052 3.15983 34.6166
3 1 6.49622 2.97785 36.4776
4 1 6.10782 3.2302 34.0029
5 1 1.0514 0.221776 0.0261613
6 1 4.30783 0.929614 34.6615
7 1 2.56107 2.97615 31.9247
8 1 1.58619 1.09214 33.6496
9 1 4.91042 0.585989 29.4161
10 1 3.55286 0.508209 31.5923
11 1 4.0055 2.86731 29.9072
12 1 1.48568 1.05577 31.0391
13 1 1.94236 0.860497 28.7598
14 1 4.99546 2.40435 32.2287
15 1 6.4544 3.05079 29.6501
16 2 3.38627 0.344921 14.9187
17 2 5.28593 3.6267 17.4398
18 2 3.79517 3.03683 15.3306
19 2 5.0639 0.874752 17.0468
20 2 4.68383 1.99733 10.3879
21 2 1.12508 1.86469 14.4558
22 2 2.55785 2.3244 12.2692
23 2 4.62864 0.723903 12.6087
24 2 3.62898 3.62976 7.46912
25 2 6.16772 2.13094 7.40437
26 2 2.16943 0.449557 10.343
27 2 4.87111 3.58026 12.6993
28 2 2.36045 3.62714 9.73868
29 2 3.51818 0.343082 7.65521
30 2 2.09981 0.951822 5.14983
31 2 4.6355 2.36423 4.92214
32 2 2.38524 2.16022 2.58926
33 2 4.85303 0.392546 2.20608
34 2 5.08971 3.69759 2.11664
35 2 7.1218 3.78884 5.01064
ITEM: TIMESTEP
12200
ITEM: NUMBER OF ATOMS
35
ITEM: BOX BOUNDS xy xz yz pp pp pp
0.0000000000000000e+00 7.6685730000000003e+00 2.5561910000000001e+00
0.0000000000000000e+00 4.4274529999999999e+00 0.0000000000000000e+00
0.0000000000000000e+00 3.6699264999999997e+01 0.0000000000000000e+00
ITEM: ATOMS id type x y z
1 1 3.62505 1.63816 0.448347
2 1 3.17193 3.02316 34.792
3 1 6.00339 2.9037 36.6917
4 1 5.97176 3.33066 34.2633
5 1 1.51537 0.534137 0.160152
6 1 4.3281 1.17616 34.7797
7 1 2.75979 3.03636 32.5914
8 1 1.82845 0.874541 34.2784
9 1 4.38959 1.25364 29.7801
10 1 3.61492 0.0427475 31.8748
11 1 3.86273 3.56392 30.2253
12 1 1.40963 0.944658 31.4513
13 1 2.42402 0.404204 28.7655
14 1 4.99411 2.32353 32.4501
15 1 6.49777 2.94836 29.3317
16 2 3.63307 0.371616 15.0429
17 2 4.70809 4.03848 17.29
18 2 3.49053 3.35602 15.0466
19 2 5.1456 0.808525 16.9229
20 2 4.94759 2.20981 9.98974
21 2 1.26849 1.7641 14.6089
22 2 2.4101 2.0189 12.1219
23 2 5.05113 0.311356 12.3457
24 2 3.26057 3.54932 7.19692
25 2 5.90126 1.80569 7.90189
26 2 2.46692 0.518349 9.75615
27 2 4.96683 3.67301 12.7214
28 2 2.36009 3.48441 9.93641
29 2 3.47436 1.10603 7.4481
30 2 2.08903 0.588438 5.10908
31 2 4.7684 2.25513 4.99413
32 2 2.41548 1.88619 2.72683
33 2 5.14525 0.75636 2.38428
34 2 4.83086 3.59116 2.33725
35 2 7.26252 3.80741 4.57139
ITEM: TIMESTEP
12300
ITEM: NUMBER OF ATOMS
35
ITEM: BOX BOUNDS xy xz yz pp pp pp
0.0000000000000000e+00 7.6685730000000003e+00 2.5561910000000001e+00
0.0000000000000000e+00 4.4274529999999999e+00 0.0000000000000000e+00
0.0000000000000000e+00 3.6699264999999997e+01 0.0000000000000000e+00
ITEM: ATOMS id type x y z
1 1 4.00917 1.54646 0.0387886
2 1 2.67319 3.1836 35.6221
3 1 6.17267 3.28403 37.5159
4 1 5.08802 3.33225 34.8804
5 1 1.42775 0.3101 0.0972292
6 1 4.95688 0.801795 34.5815
7 1 2.64734 2.97097 32.6568
8 1 2.27204 1.38818 34.1689
9 1 4.89365 1.35716 30.4499
10 1 3.71166 -0.0822818 31.9039
11 1 3.32617 3.61987 30.3797
12 1 1.52894 0.8218 31.8403
13 1 2.51019 0.520174 29.2648
14 1 4.7702 2.25103 32.765
15 1 6.36313 2.88254 29.9654
16 2 3.49532 0.401428 14.5908
17 2 4.98066 4.11432 16.8259
18 2 3.38184 3.28757 14.6137
19 2 4.85228 1.35491 17.3274
20 2 4.64614 2.14689 10.2531
21 2 0.90366 1.85604 15.1088
22 2 2.54225 1.68166 12.3547
23 2 5.25222 0.297954 12.1753
24 2 3.2735 3.76731 7.06803
25 2 6.19029 2.23787 7.42679
26 2 2.39398 0.48363 9.69496
27 2 5.26488 3.32307 12.2874
28 2 2.39616 3.70197 9.55365
29 2 3.56352 0.658791 7.15341
30 2 2.06692 0.659571 4.98885
31 2 4.9359 1.96021 5.00362
32 2 2.66392 1.87617 2.59818
33 2 5.03058 0.804684 2.33546
34 2 4.74941 3.48957 2.88052
35 2 7.02874 3.73007 4.72041
ITEM: TIMESTEP
12400
ITEM: NUMBER OF ATOMS
35
ITEM: BOX BOUNDS xy xz yz pp pp pp
0.0000000000000000e+00 7.6685730000000003e+00 2.5561910000000001e+00
0.0000000000000000e+00 4.4274529999999999e+00 0.0000000000000000e+00
0.0000000000000000e+00 3.6699264999999997e+01 0.0000000000000000e+00
ITEM: ATOMS id type x y z
1 1 4.50948 1.53719 36.7472
2 1 2.1546 2.74345 35.944
3 1 5.82549 3.5231 0.948356
4 1 4.94565 3.20071 35.1032
5 1 1.57261 0.34752 0.428146
6 1 5.13308 0.530966 34.4041
7 1 2.81352 3.02589 32.949
8 1 2.77322 0.976276 34.6251
9 1 4.93634 0.896117 30.4173
10 1 3.51047 0.35177 32.5008
11 1 3.71886 3.11798 30.562
12 1 1.19376 1.03145 32.5691
13 1 2.13827 1.13371 30.364
14 1 4.9819 2.67688 32.6178
15 1 6.18365 3.09228 30.4761
16 2 3.58893 0.514179 14.3054
17 2 5.19297 4.13512 16.5997
18 2 3.48847 3.30318 14.57
19 2 4.0693 1.80744 17.2311
20 2 4.45643 1.87972 9.52424
21 2 5.84856 1.91093 15.0135
22 2 2.77416 1.84464 12.1275
23 2 5.35996 0.286532 12.0442
24 2 4.01639 3.76521 7.12015
25 2 6.27245 2.34564 7.29741
26 2 2.00697 0.494848 9.78399
27 2 5.65492 3.00918 12.4266
28 2 2.13623 3.49065 9.59381
29 2 3.72896 0.700964 7.4076
30 2 2.17561 0.855272 4.91778
31 2 4.43215 1.93397 5.13152
32 2 2.60837 2.02182 2.22765
33 2 5.13838 0.53589 2.564
34 2 4.71525 3.62881 2.92832
35 2 7.04608 3.37052 4.55715
ITEM: TIMESTEP
12500
ITEM: NUMBER OF ATOMS
35
ITEM: BOX BOUNDS xy xz yz pp pp pp
0.0000000000000000e+00 7.6685730000000003e+00 2.5561910000000001e+00
0.0000000000000000e+00 4.4274529999999999e+00 0.0000000000000000e+00
0.0000000000000000e+00 3.6699264999999997e+01 0.0000000000000000e+00
ITEM: ATOMS id type x y z
1 1 4.07995 1.41308 0.356032
2 1 2.53808 2.76867 35.7313
3 1 5.92614 3.41554 0.36426
4 1 4.61843 2.50253 34.8764
5 1 1.36245 0.227332 0.619594
6 1 5.51238 0.607139 35.0991
7 1 2.07079 2.82667 33.1526
8 1 3.01004 0.269219 35.0208
9 1 5.24908 0.915756 30.482
10 1 4.20003 1.11048 32.7267
11 1 3.73905 2.86861 30.7491
12 1 1.15442 0.355478 32.9996
13 1 2.3715 1.14897 30.9296
14 1 5.16391 3.32033 32.8882
15 1 6.03387 3.42774 30.7773
16 2 3.70167 0.637493 14.2693
17 2 5.21764 4.09015 16.6322
18 2 3.27634 3.49993 14.4693
19 2 3.25547 2.28322 16.4945
20 2 4.63073 2.2835 9.62114
21 2 6.34669 1.76172 14.9182
22 2 3.2754 1.78912 11.6452
23 2 0.573812 0.266153 12.1942
24 2 3.92239 3.68318 7.32102
25 2 1.66733 1.9268 7.20554
26 2 1.60001 0.330208 9.82244
27 2 5.40568 3.08406 12.3073
28 2 1.80758 3.10938 9.81025
29 2 3.99507 0.751593 7.3398
30 2 1.81749 0.575192 4.89947
31 2 4.33658 2.05592 5.03587
32 2 2.44082 2.12817 1.93528
33 2 5.0575 0.964556 2.82252
34 2 4.89778 3.41738 2.76491
35 2 7.03531 3.55069 4.87439
ITEM: TIMESTEP
12600
ITEM: NUMBER OF ATOMS
35
ITEM: BOX BOUNDS xy xz yz pp pp pp
0.0000000000000000e+00 7.6685730000000003e+00 2.5561910000000001e+00
0.0000000000000000e+00 4.4274529999999999e+00 0.0000000000000000e+00
0.0000000000000000e+00 3.6699264999999997e+01 0.0000000000000000e+00
ITEM: ATOMS id type x y z
1 1 4.15126 1.31464 0.463921
2 1 2.03673 1.91768 35.652
3 1 5.81576 3.2288 0.340608
4 1 4.52607 2.55081 35.028
5 1 3.48788 4.16486 0.502775
6 1 0.871924 0.165844 34.9706
7 1 2.58594 3.05366 33.4717
8 1 3.52523 0.0814577 34.863
9 1 4.85948 1.17514 30.5509
10 1 3.85489 1.06044 33.0331
11 1 3.83067 3.52311 31.0411
12 1 0.850206 0.80452 32.666
13 1 2.76186 0.965176 30.9542
14 1 5.64642 3.17833 32.5588
15 1 6.83456 3.12259 30.4183
16 2 3.53408 0.742191 14.2606
17 2 5.5083 3.77293 16.3039
18 2 3.52268 3.47185 14.2755
19 2 2.80496 2.49716 16.8046
20 2 4.32124 1.84053 9.51702
21 2 6.06125 1.93934 14.6469
22 2 2.93397 1.46761 11.9529
23 2 0.641341 0.592412 11.9319
24 2 4.19523 3.42252 7.37373
25 2 1.74021 2.0037 7.33088
26 2 1.78011 0.678832 9.51627
27 2 5.84719 3.21148 12.3326
28 2 7.00663 3.6837 9.94116
29 2 4.22676 0.164214 7.43184
30 2 1.62045 0.590395 4.82174
31 2 4.24711 2.18566 5.06911
32 2 2.28027 2.40196 2.6021
33 2 4.83257 0.588797 2.71534
34 2 5.14709 3.85524 2.66993
35 2 6.71315 3.53372 4.97532
ITEM: TIMESTEP
12700
ITEM: NUMBER OF ATOMS
35
ITEM: BOX BOUNDS xy xz yz pp pp pp
0.0000000000000000e+00 7.6685730000000003e+00 2.5561910000000001e+00
0.0000000000000000e+00 4.4274529999999999e+00 0.0000000000000000e+00
0.0000000000000000e+00 3.6699264999999997e+01 0.0000000000000000e+00
ITEM: ATOMS id type x y z
1 1 3.57356 1.30077 0.77081
2 1 2.32003 2.00594 35.3741
3 1 6.02955 2.85257 0.896115
4 1 4.88242 2.01779 34.6501
5 1 3.09927 4.04143 0.562424
6 1 3.71207 4.30857 34.8491
7 1 2.71732 3.238 32.8964
8 1 6.26815 4.04015 35.2921
9 1 5.38882 1.37513 30.6137
10 1 4.26299 0.962592 32.4965
11 1 3.63007 3.34837 30.7965
12 1 1.65493 0.995919 32.5378
13 1 2.53718 0.909807 29.995
14 1 5.33466 3.29236 32.7262
15 1 6.53329 3.42607 30.2494
16 2 3.61844 0.749739 14.6352
17 2 5.43493 3.61862 16.5954
18 2 3.46679 3.53046 14.4032
19 2 2.78626 2.50665 16.6419
20 2 4.46377 2.23776 9.67266
21 2 6.02475 1.72554 14.4642
22 2 3.14691 2.03499 12.09
23 2 5.35705 0.458008 11.8517
24 2 4.56541 3.37075 7.25285
25 2 1.67115 1.86912 7.25238
26 2 2.07827 0.577096 9.74358
27 2 5.6358 3.36718 12.1955
28 2 6.82241 3.39089 9.65785
29 2 4.43366 0.559759 7.23259
30 2 1.50405 0.642433 5.17174
31 2 3.99194 1.92683 4.90981
32 2 2.48687 2.14746 2.82235
33 2 5.01362 0.934177 2.73927
34 2 4.68543 3.88021 2.7997
35 2 6.47048 3.48406 4.9766
ITEM: TIMESTEP
12800
ITEM: NUMBER OF ATOMS
35
ITEM: BOX BOUNDS xy xz yz pp pp pp
0.0000000000000000e+00 7.6685730000000003e+00 2.5561910000000001e+00
0.0000000000000000e+00 4.4274529999999999e+00 0.0000000000000000e+00
0.0000000000000000e+00 3.6699264999999997e+01 0.0000000000000000e+00
ITEM: ATOMS id type x y z
1 1 3.05599 0.822201 0.447633
2 1 2.43181 1.90845 34.8546
3 1 5.97668 2.38137 0.0770551
4 1 5.36547 1.45287 34.8163
5 1 3.33848 4.3746 0.367301
6 1 4.05968 3.9689 34.8389
7 1 2.98785 3.12406 32.6119
8 1 6.39203 4.06981 34.855
9 1 5.40042 1.23548 29.9086
10 1 4.1773 1.00627 32.3662
11 1 3.92405 3.25146 30.1696
12 1 1.85641 1.11594 32.3517
13 1 2.60243 1.52982 29.606
14 1 5.49975 3.1016 32.7637
15 1 6.25622 3.70281 30.7476
16 2 3.61937 0.331837 14.8313
17 2 5.0038 3.4308 16.8327
18 2 3.37334 3.73054 14.3706
19 2 2.70483 2.25383 16.5909
20 2 4.49171 2.13565 9.90239
21 2 6.38643 2.04626 14.3797
22 2 2.99016 2.13303 12.2326
23 2 5.25957 0.478841 11.9109
24 2 4.39752 3.65756 7.38277
25 2 2.22907 1.97628 7.31131
26 2 2.07124 0.54938 10.0242
27 2 5.34979 3.86536 12.4473
28 2 7.25552 3.48511 9.56222
29 2 4.61174 0.769533 7.61602
30 2 1.10666 0.313631 4.98246
31 2 3.6967 1.853 5.16393
32 2 2.43561 2.25179 2.70947
33 2 5.02418 1.0067 2.76978
34 2 4.71568 3.66541 2.66101
35 2 6.45034 3.45291 4.80503
ITEM: TIMESTEP
12900
ITEM: NUMBER OF ATOMS
35
ITEM: BOX BOUNDS xy xz yz pp pp pp
0.0000000000000000e+00 7.6685730000000003e+00 2.5561910000000001e+00
0.0000000000000000e+00 4.4274529999999999e+00 0.0000000000000000e+00
0.0000000000000000e+00 3.6699264999999997e+01 0.0000000000000000e+00
ITEM: ATOMS id type x y z
1 1 3.01014 1.12371 0.102199
2 1 3.06899 1.07392 34.3775
3 1 5.74972 3.14261 0.117377
4 1 5.52977 1.31229 34.3765
5 1 2.99456 3.68133 0.385018
6 1 4.33018 3.47939 34.4397
7 1 3.05949 3.11446 32.2839
8 1 7.08532 3.51064 34.308
9 1 4.8594 1.26648 29.8538
10 1 3.90608 0.990526 32.1439
11 1 4.53067 3.86831 29.9357
12 1 1.63606 1.18462 31.7742
13 1 2.7343 1.7504 29.9418
14 1 5.72066 3.07709 32.4281
15 1 6.73049 3.50794 30.41
16 2 3.85553 0.664237 15.2897
17 2 4.76971 3.10317 16.7884
18 2 3.81619 3.73904 14.6264
19 2 2.06462 1.86583 16.8669
20 2 4.77335 2.18842 10.0002
21 2 6.03506 2.13592 14.463
22 2 2.49086 2.14794 12.2444
23 2 5.18903 0.964551 12.5494
24 2 4.93142 3.72337 7.70432
25 2 2.13566 2.2488 7.32853
26 2 2.30439 0.85381 9.77147
27 2 5.35788 3.82671 12.3944
28 2 2.19867 3.71619 10.3243
29 2 4.85904 0.583577 7.54596
30 2 1.00377 0.12763 4.8609
31 2 3.67436 1.69203 4.82981
32 2 2.25303 2.35089 2.36096
33 2 4.61194 0.801834 2.41952
34 2 5.20885 3.75857 2.38801
35 2 5.95817 3.23272 5.10132
ITEM: TIMESTEP
13000
ITEM: NUMBER OF ATOMS
35
ITEM: BOX BOUNDS xy xz yz pp pp pp
0.0000000000000000e+00 7.6685730000000003e+00 2.5561910000000001e+00
0.0000000000000000e+00 4.4274529999999999e+00 0.0000000000000000e+00
0.0000000000000000e+00 3.6699264999999997e+01 0.0000000000000000e+00
ITEM: ATOMS id type x y z
1 1 3.32869 1.30779 36.4001
2 1 3.57881 0.865175 33.7233
3 1 5.60214 2.71456 36.8128
4 1 0.65777 0.701038 34.5865
5 1 3.16912 4.20045 36.5684
6 1 4.63335 2.88938 34.4143
7 1 2.61788 2.87184 32.0496
8 1 2.12063 3.00213 34.5851
9 1 6.11831 1.84696 29.9615
10 1 4.29262 0.774209 31.5471
11 1 4.04733 3.90645 29.5788
12 1 1.46482 0.987158 32.243
13 1 3.15971 1.49601 29.5688
14 1 5.1981 3.33095 31.7277
15 1 6.97165 4.03451 29.547
16 2 3.90059 0.904272 15.5841
17 2 4.47578 2.87492 17.4368
18 2 3.65646 3.76804 14.6471
19 2 1.74485 1.26382 17.3114
20 2 5.06763 2.45711 9.9429
21 2 6.305 2.67111 14.8901
22 2 2.54819 2.18692 12.7073
23 2 4.82463 0.935924 12.7397
24 2 4.95266 3.63796 7.5437
25 2 2.51701 2.32441 7.55503
26 2 2.35711 1.06186 9.88315
27 2 4.96084 3.87666 12.1637
28 2 2.40654 4.00704 10.0396
29 2 5.02771 0.799098 7.14877
30 2 0.910466 0.0540082 4.81042
31 2 3.48697 1.40865 4.59442
32 2 2.10529 2.26064 2.57674
33 2 4.97102 1.01557 1.91597
34 2 4.59865 3.8385 2.58894
35 2 5.88754 2.7844 5.06368
ITEM: TIMESTEP
13100
ITEM: NUMBER OF ATOMS
35
ITEM: BOX BOUNDS xy xz yz pp pp pp
0.0000000000000000e+00 7.6685730000000003e+00 2.5561910000000001e+00
0.0000000000000000e+00 4.4274529999999999e+00 0.0000000000000000e+00
0.0000000000000000e+00 3.6699264999999997e+01 0.0000000000000000e+00
ITEM: ATOMS id type x y z
1 1 3.30674 1.03614 36.5151
2 1 3.60006 0.30183 33.8391
3 1 6.23629 3.03297 0.00777217
4 1 0.939734 0.403393 34.6919
5 1 3.92393 4.03996 0.0492492
6 1 4.59789 2.80735 33.9143
7 1 2.74377 3.25515 31.5613
8 1 2.0111 2.44369 34.2589
9 1 6.09391 1.79291 29.839
10 1 4.2595 0.934118 31.4442
11 1 4.67516 4.17919 29.7887
12 1 1.53825 0.63028 32.2267
13 1 3.40905 2.14024 29.0751
14 1 5.23684 3.01579 31.8006
15 1 7.02734 3.90781 28.7156
16 2 3.54828 1.16184 15.7766
17 2 4.1615 2.74656 17.4837
18 2 3.91431 4.17788 15.1023
19 2 1.62853 0.842983 17.6102
20 2 5.07095 2.39077 9.83523
21 2 6.26953 2.89062 15.148
22 2 2.29998 2.32064 12.5992
23 2 4.80784 0.743903 12.6341
24 2 4.96102 4.16919 7.30469
25 2 2.68263 2.2998 7.35026
26 2 2.60704 1.03556 10.1057
27 2 4.70448 3.91048 12.4222
28 2 2.63176 4.04985 9.61007
29 2 5.08284 1.0695 7.41614
30 2 3.26078 4.1321 4.88388
31 2 3.33268 1.00854 4.84477
32 2 2.13991 2.47003 2.32727
33 2 4.53816 1.08231 2.23203
34 2 4.54384 3.77556 2.39031
35 2 6.14845 2.63416 4.83552
ITEM: TIMESTEP
13200
ITEM: NUMBER OF ATOMS
35
ITEM: BOX BOUNDS xy xz yz pp pp pp
0.0000000000000000e+00 7.6685730000000003e+00 2.5561910000000001e+00
0.0000000000000000e+00 4.4274529999999999e+00 0.0000000000000000e+00
0.0000000000000000e+00 3.6699264999999997e+01 0.0000000000000000e+00
ITEM: ATOMS id type x y z
1 1 3.47032 1.15809 36.6416
2 1 3.24852 -0.11612 34.1207
3 1 6.79676 3.25086 36.0222
4 1 0.702267 0.343624 34.3652
5 1 4.16994 3.44434 0.176313
6 1 4.6341 2.30024 34.478
7 1 3.17873 3.14778 31.0487
8 1 2.18395 2.28361 33.6149
9 1 5.79527 1.66104 29.4915
10 1 4.15224 0.941285 31.6942
11 1 2.43835 0.0833491 29.6754
12 1 1.45637 0.772767 31.8377
13 1 3.72155 2.32786 29.0058
14 1 5.75155 3.25618 31.9437
15 1 7.32224 4.11836 28.961
16 2 3.63908 1.2747 14.9678
17 2 4.07599 2.60463 17.5853
18 2 0.913618 0.0586683 15.1085
19 2 1.15426 1.34666 17.5791
20 2 5.283 2.66587 10.0134
21 2 6.19782 2.66764 15.4641
22 2 2.02327 2.44483 12.5073
23 2 4.86936 0.864678 12.6288
24 2 5.37556 4.18512 7.36691
25 2 2.27611 2.92018 7.2629
26 2 2.82689 0.938335 9.99657
27 2 4.73559 3.59729 12.6733
28 2 2.68862 3.64994 9.89335
29 2 5.26159 1.24891 7.56261
30 2 3.33873 3.71757 4.87781
31 2 3.26773 0.941989 5.0052
32 2 2.07607 2.50385 2.0188
33 2 4.41843 0.866535 2.63254
34 2 4.87962 3.8116 2.55434
35 2 5.78206 2.35849 4.68727
ITEM: TIMESTEP
13300
ITEM: NUMBER OF ATOMS
35
ITEM: BOX BOUNDS xy xz yz pp pp pp
0.0000000000000000e+00 7.6685730000000003e+00 2.5561910000000001e+00
0.0000000000000000e+00 4.4274529999999999e+00 0.0000000000000000e+00
0.0000000000000000e+00 3.6699264999999997e+01 0.0000000000000000e+00
ITEM: ATOMS id type x y z
1 1 3.77744 0.77411 0.32718
2 1 3.1573 0.329783 34.1602
3 1 7.17715 2.71994 35.7906
4 1 3.16198 4.31226 34.004
5 1 4.21747 3.48114 0.00285708
6 1 4.67142 1.977 34.8239
7 1 3.05229 2.80187 31.194
8 1 2.25381 2.40635 33.4488
9 1 6.43382 2.38331 29.8638
10 1 4.47808 1.27162 32.524
11 1 4.82842 4.0826 29.3908
12 1 1.97674 0.899505 31.7071
13 1 3.64485 1.77821 28.8275
14 1 5.64629 3.32274 31.7722
15 1 7.38679 4.56102 29.6389
16 2 3.49781 1.56291 14.6594
17 2 3.45577 2.84313 17.0457
18 2 3.18506 4.13772 14.9277
19 2 0.936205 1.46399 17.4289
20 2 5.58596 2.41102 10.1763
21 2 5.89304 3.105 15.2902
22 2 2.15944 2.25815 12.7002
23 2 4.88395 0.829877 12.1344
24 2 4.80568 4.15814 7.75332
25 2 2.73761 2.87314 7.39695
26 2 2.87734 1.03544 9.94159
27 2 4.7573 3.78347 12.868
28 2 3.03128 3.97432 10.2753
29 2 5.25944 1.35263 7.58756
30 2 3.18749 3.59404 4.77432
31 2 3.08471 0.790574 5.29407
32 2 2.1367 2.33055 1.90308
33 2 5.1094 0.822244 2.3584
34 2 4.66473 3.97518 2.70915
35 2 5.78338 2.0486 4.77581
ITEM: TIMESTEP
13400
ITEM: NUMBER OF ATOMS
35
ITEM: BOX BOUNDS xy xz yz pp pp pp
0.0000000000000000e+00 7.6685730000000003e+00 2.5561910000000001e+00
0.0000000000000000e+00 4.4274529999999999e+00 0.0000000000000000e+00
0.0000000000000000e+00 3.6699264999999997e+01 0.0000000000000000e+00
ITEM: ATOMS id type x y z
1 1 4.03553 0.377363 -0.100595
2 1 3.44182 -0.31656 34.6292
3 1 1.87658 1.6546 36.3374
4 1 1.00431 -0.163975 34.1845
5 1 4.05492 3.8088 0.475634
6 1 4.81372 2.19031 35.0191
7 1 3.80768 2.94196 31.3559
8 1 1.88586 2.14969 33.7123
9 1 1.04093 2.2953 29.249
10 1 4.43766 1.21944 32.8904
11 1 4.65905 4.04267 29.21
12 1 2.10827 1.06541 31.5811
13 1 3.45513 1.76974 29.1957
14 1 6.1913 3.46798 31.8476
15 1 4.83636 0.488437 30.5043
16 2 3.28964 1.24152 15.2165
17 2 2.68572 3.17667 17.0588
18 2 3.25992 4.92725 14.4088
19 2 0.752194 1.25193 16.7906
20 2 5.90235 2.63751 9.96849
21 2 5.40648 3.20162 15.0717
22 2 2.02062 2.31025 12.4918
23 2 4.56811 0.945589 12.3927
24 2 5.00559 4.05419 7.64306
25 2 2.28017 2.30972 7.69746
26 2 3.20467 1.24482 10.1773
27 2 4.95929 3.96626 12.3731
28 2 3.56227 3.90184 9.87322
29 2 5.01112 1.14171 7.45886
30 2 2.84567 3.69332 4.9494
31 2 3.13779 0.413289 5.27672
32 2 2.46775 2.33694 2.08389
33 2 5.02164 1.01113 2.29663
34 2 5.33921 4.00919 2.7713
35 2 5.91793 2.01627 5.08135
ITEM: TIMESTEP
13500
ITEM: NUMBER OF ATOMS
35
ITEM: BOX BOUNDS xy xz yz pp pp pp
0.0000000000000000e+00 7.6685730000000003e+00 2.5561910000000001e+00
0.0000000000000000e+00 4.4274529999999999e+00 0.0000000000000000e+00
0.0000000000000000e+00 3.6699264999999997e+01 0.0000000000000000e+00
ITEM: ATOMS id type x y z
1 1 6.80736 4.0029 0.424418
2 1 5.98352 3.51799 34.2743
3 1 1.48528 1.72993 36.7898
4 1 3.57371 3.86734 34.0906
5 1 4.17911 3.55836 0.911813
6 1 4.24174 2.01957 36.2157
7 1 3.8962 3.49591 31.8047
8 1 2.36068 1.35859 34.3844
9 1 5.96218 2.43784 29.6466
10 1 4.86713 1.48579 32.9179
11 1 1.98266 0.128608 29.4023
12 1 2.4401 1.10414 31.4426
13 1 3.32832 2.30469 29.4688
14 1 6.29618 3.17021 31.9034
15 1 4.92238 0.155441 30.1727
16 2 3.1095 1.5339 15.4593
17 2 2.01572 3.38962 16.8805
18 2 0.903901 0.324405 14.3055
19 2 5.79654 1.28618 16.8379
20 2 6.15863 2.90068 9.95715
21 2 5.28018 3.05534 14.7262
22 2 2.18205 2.7675 12.5481
23 2 4.27527 1.23152 12.2893
24 2 4.94611 3.57655 7.27386
25 2 2.16881 2.12593 7.51671
26 2 3.7373 1.22001 9.77147
27 2 4.54386 3.79073 11.9784
28 2 3.39095 4.25256 9.68782
29 2 4.62099 0.654199 7.58041
30 2 3.32513 3.53242 4.98274
31 2 3.18517 0.837493 4.98125
32 2 2.78255 2.32514 2.67651
33 2 5.26958 1.27487 2.56131
34 2 5.61052 3.80319 2.75285
35 2 5.73258 2.01115 4.99467
ITEM: TIMESTEP
13600
ITEM: NUMBER OF ATOMS
35
ITEM: BOX BOUNDS xy xz yz pp pp pp
0.0000000000000000e+00 7.6685730000000003e+00 2.5561910000000001e+00
0.0000000000000000e+00 4.4274529999999999e+00 0.0000000000000000e+00
0.0000000000000000e+00 3.6699264999999997e+01 0.0000000000000000e+00
ITEM: ATOMS id type x y z
1 1 6.50633 3.65291 0.517251
2 1 5.76737 2.67139 34.8946
3 1 1.61516 1.57885 0.285604
4 1 2.99723 3.53991 34.5818
5 1 3.90713 3.59018 0.562884
6 1 3.94172 1.59342 36.5972
7 1 3.99408 3.69157 31.8502
8 1 2.59686 0.936715 34.5183
9 1 5.77841 2.29903 30.3614
10 1 5.37114 1.15718 32.5616
11 1 2.33984 0.452311 29.389
12 1 3.0188 1.26957 32.2822
13 1 3.25711 2.77759 29.8412
14 1 6.63547 3.42343 32.5352
15 1 4.44766 0.523893 30.3278
16 2 3.22384 1.70885 15.2835
17 2 6.56386 3.93494 16.5452
18 2 0.524903 0.0547679 14.612
19 2 5.71231 1.32848 16.9843
20 2 6.18897 2.84568 10.0081
21 2 5.57716 2.92065 14.3553
22 2 2.09394 2.70421 12.5644
23 2 4.39513 0.979805 12.3646
24 2 4.47956 3.10073 7.41805
25 2 2.17053 1.81752 7.23982
26 2 3.36589 1.78986 9.71536
27 2 4.49578 4.30546 11.8838
28 2 0.9076 0.147014 9.46682
29 2 4.80846 0.194849 6.94801
30 2 3.44901 3.96742 4.78189
31 2 3.25202 0.88751 5.08689
32 2 3.08559 2.17935 2.5533
33 2 5.69068 0.829398 2.60765
34 2 5.8243 3.92008 2.86923
35 2 5.83545 2.26354 5.08471
ITEM: TIMESTEP
13700
ITEM: NUMBER OF ATOMS
35
ITEM: BOX BOUNDS xy xz yz pp pp pp
0.0000000000000000e+00 7.6685730000000003e+00 2.5561910000000001e+00
0.0000000000000000e+00 4.4274529999999999e+00 0.0000000000000000e+00
0.0000000000000000e+00 3.6699264999999997e+01 0.0000000000000000e+00
ITEM: ATOMS id type x y z
1 1 6.1532 3.20961 0.195019
2 1 5.26525 2.39568 34.7061
3 1 2.13537 1.49671 0.0308237
4 1 2.73187 3.36792 35.1371
5 1 3.83597 3.3264 0.331436
6 1 4.57244 1.01481 36.5737
7 1 4.54682 3.80449 32.2482
8 1 2.5397 0.15213 34.7406
9 1 6.17972 2.62112 31.0124
10 1 5.80405 1.07505 33.0714
11 1 1.71214 0.490559 30.2521
12 1 3.10151 1.95321 32.3197
13 1 3.36425 2.76823 30.1326
14 1 6.89204 3.83143 33.2522
15 1 4.38547 0.43396 30.8226
16 2 2.96179 1.71345 14.871
17 2 5.62012 4.20266 16.7579
18 2 0.635084 0.0900307 14.7114
19 2 5.97474 1.56489 16.9083
20 2 5.80311 3.31532 10.0427
21 2 5.3932 3.02718 14.1111
22 2 2.46185 2.53506 12.2207
23 2 4.77014 1.04827 12.1259
24 2 4.78306 2.79997 7.55349
25 2 1.88716 1.39872 7.42338
26 2 3.46256 1.87958 9.87577
27 2 1.97519 -0.172762 12.0178
28 2 0.649143 0.419287 9.54452
29 2 7.13417 4.14863 7.3137
30 2 3.36193 3.91194 4.79353
31 2 3.29902 1.01577 4.90782
32 2 3.44647 2.1701 2.31408
33 2 0.720799 0.896113 2.17295
34 2 5.83031 3.73766 2.52669
35 2 5.99561 2.60549 4.87387
ITEM: TIMESTEP
13800
ITEM: NUMBER OF ATOMS
35
ITEM: BOX BOUNDS xy xz yz pp pp pp
0.0000000000000000e+00 7.6685730000000003e+00 2.5561910000000001e+00
0.0000000000000000e+00 4.4274529999999999e+00 0.0000000000000000e+00
0.0000000000000000e+00 3.6699264999999997e+01 0.0000000000000000e+00
ITEM: ATOMS id type x y z
1 1 6.18392 2.80996 -0.362004
2 1 4.59407 1.9191 34.7151
3 1 2.93835 1.04011 0.490487
4 1 2.63722 2.96314 34.8691
5 1 3.81988 3.40858 0.577893
6 1 5.21365 0.646951 36.0936
7 1 4.51366 3.54329 32.836
8 1 2.289 0.659615 34.7738
9 1 6.13653 2.90963 30.8567
10 1 0.923561 1.51507 32.9166
11 1 1.91296 0.610819 30.7854
12 1 3.15582 1.82119 32.891
13 1 3.81667 2.60223 30.3384
14 1 6.86075 4.14018 33.2922
15 1 4.58692 0.515338 31.0794
16 2 2.9699 1.61801 14.5297
17 2 5.05863 4.33279 16.6368
18 2 0.332246 0.0455975 14.6855
19 2 5.83728 1.90946 16.6091
20 2 5.89663 3.58019 9.72214
21 2 5.72244 3.02433 14.4698
22 2 2.19792 2.8701 12.1782
23 2 4.70606 1.25634 12.3815
24 2 4.41169 2.51819 7.14313
25 2 2.10344 0.897825 7.31218
26 2 3.21674 1.97364 9.5779
27 2 4.80152 4.14797 12.1811
28 2 0.815523 0.496776 9.9862
29 2 6.99286 3.98773 7.5519
30 2 3.36847 3.84865 4.94746
31 2 3.51298 0.989251 4.86772
32 2 3.4023 2.27751 2.62382
33 2 0.936439 1.0798 2.23203
34 2 5.95753 3.84171 2.24438
35 2 5.96288 2.33257 4.71967
ITEM: TIMESTEP
13900
ITEM: NUMBER OF ATOMS
35
ITEM: BOX BOUNDS xy xz yz pp pp pp
0.0000000000000000e+00 7.6685730000000003e+00 2.5561910000000001e+00
0.0000000000000000e+00 4.4274529999999999e+00 0.0000000000000000e+00
0.0000000000000000e+00 3.6699264999999997e+01 0.0000000000000000e+00
ITEM: ATOMS id type x y z
1 1 1.63649 2.5081 0.433047
2 1 4.93824 1.88162 34.8548
3 1 2.99499 0.885903 0.351785
4 1 2.42644 2.85581 34.7688
5 1 4.33296 2.88058 0.427355
6 1 5.19175 0.264348 0.4821
7 1 4.13251 4.05855 32.7897
8 1 2.15375 0.140525 34.9398
9 1 6.21238 2.7769 30.2845
10 1 5.79958 2.08654 32.5371
11 1 2.63589 0.453072 30.1972
12 1 3.10714 1.833 32.6975
13 1 3.58083 3.04338 30.6661
14 1 6.71428 4.10251 32.9096
15 1 5.20764 0.813973 30.5723
16 2 3.21112 1.62999 14.6856
17 2 2.33819 0.368378 16.5645
18 2 2.89569 4.27641 14.7942
19 2 5.31593 1.86594 16.9529
20 2 5.69918 3.28098 9.64396
21 2 5.54706 2.9697 14.3331
22 2 1.96852 2.79184 11.9184
23 2 4.5866 1.63438 12.1631
24 2 4.43262 2.15397 7.04986
25 2 1.82578 0.79512 7.23252
26 2 3.32596 2.18563 9.72731
27 2 2.1762 0.115116 12.2554
28 2 0.848776 0.624482 9.72131
29 2 7.29 3.85899 7.13014
30 2 3.56881 4.05637 4.84606
31 2 3.44652 0.374044 4.90227
32 2 3.40439 2.58289 2.86276
33 2 0.840075 0.952043 2.51783
34 2 6.33806 3.96041 2.54789
35 2 6.06739 2.30705 4.94168
ITEM: TIMESTEP
14000
ITEM: NUMBER OF ATOMS
35
ITEM: BOX BOUNDS xy xz yz pp pp pp
0.0000000000000000e+00 7.6685730000000003e+00 2.5561910000000001e+00
0.0000000000000000e+00 4.4274529999999999e+00 0.0000000000000000e+00
0.0000000000000000e+00 3.6699264999999997e+01 0.0000000000000000e+00
ITEM: ATOMS id type x y z
1 1 2.01621 2.46203 0.868027
2 1 5.52717 1.25757 34.6685
3 1 2.87474 0.213802 0.253729
4 1 2.16994 3.14475 35.2429
5 1 4.40491 2.23647 0.228324
6 1 0.502128 0.276292 0.195186
7 1 1.53764 0.319969 32.2096
8 1 4.77593 3.76986 34.6322
9 1 6.75578 2.87006 30.0177
10 1 5.27605 2.40419 32.4077
11 1 2.67894 0.790201 29.4867
12 1 3.09643 2.1522 33.1896
13 1 3.99464 2.85914 30.5486
14 1 3.9353 0.0664642 31.9595
15 1 5.25427 0.700948 30.0412
16 2 2.90166 1.77643 14.6362
17 2 2.37117 0.378476 17.0522
18 2 0.623493 0.192675 14.9068
19 2 4.49312 1.81786 16.7194
20 2 5.77386 3.651 9.37319
21 2 5.57281 2.73181 14.3657
22 2 2.09014 3.32956 12.1049
23 2 4.61212 1.58089 11.7899
24 2 4.6313 2.05125 7.30546
25 2 2.18015 0.835997 7.56366
26 2 3.17063 2.00199 9.52052
27 2 1.70588 0.356754 12.1654
28 2 0.372007 0.378376 9.60888
29 2 7.0607 3.49249 7.28755
30 2 3.56672 3.66759 5.13592
31 2 3.60254 1.1679 5.08506
32 2 3.86958 2.14579 2.66211
33 2 1.20668 0.958604 2.80209
34 2 5.94583 3.86455 2.72622
35 2 6.3273 2.19873 5.02002
ITEM: TIMESTEP
14100
ITEM: NUMBER OF ATOMS
35
ITEM: BOX BOUNDS xy xz yz pp pp pp
0.0000000000000000e+00 7.6685730000000003e+00 2.5561910000000001e+00
0.0000000000000000e+00 4.4274529999999999e+00 0.0000000000000000e+00
0.0000000000000000e+00 3.6699264999999997e+01 0.0000000000000000e+00
ITEM: ATOMS id type x y z
1 1 1.46755 2.23688 0.672921
2 1 5.5368 0.561188 33.6458
3 1 3.05374 0.0739251 -0.0120058
4 1 2.12407 3.68648 35.2494
5 1 4.95457 1.84944 35.8822
6 1 3.47782 3.63633 0.740154
7 1 1.55966 0.671473 31.4988
8 1 4.78432 3.5486 34.401
9 1 6.80387 2.97252 30.2832
10 1 5.43559 2.74127 32.0808
11 1 3.14485 0.626704 29.742
12 1 2.50136 2.47631 33.1397
13 1 4.18322 2.79003 30.044
14 1 4.26478 0.616372 31.8275
15 1 0.231808 0.645022 29.5045
16 2 2.87082 1.45564 14.223
17 2 2.18966 0.083793 17.0233
18 2 0.409774 0.0251833 14.9258
19 2 4.08549 2.15 16.5325
20 2 5.39453 3.60131 10.2389
21 2 5.49547 3.34216 14.5115
22 2 1.93606 3.5716 12.3551
23 2 4.29629 2.01556 12.1626
24 2 4.86676 2.11203 7.87001
25 2 2.24609 0.346102 7.19211
26 2 2.5234 2.11944 9.94619
27 2 2.02358 0.427461 12.1455
28 2 0.525493 0.366111 9.58724
29 2 2.14777 3.48736 7.2817
30 2 3.72375 4.07293 5.07398
31 2 3.98579 0.880874 5.13487
32 2 3.94686 2.0038 2.3501
33 2 1.2699 0.609888 2.84797
34 2 6.25636 3.78168 2.83415
35 2 6.32191 2.41338 4.98111
ITEM: TIMESTEP
14200
ITEM: NUMBER OF ATOMS
35
ITEM: BOX BOUNDS xy xz yz pp pp pp
0.0000000000000000e+00 7.6685730000000003e+00 2.5561910000000001e+00
0.0000000000000000e+00 4.4274529999999999e+00 0.0000000000000000e+00
0.0000000000000000e+00 3.6699264999999997e+01 0.0000000000000000e+00
ITEM: ATOMS id type x y z
1 1 1.05262 1.97831 0.289594
2 1 0.701269 0.761261 33.307
3 1 3.20292 0.292005 0.428069
4 1 1.8474 2.95174 34.83
5 1 4.65086 1.3833 35.2374
6 1 3.56638 3.37525 0.0501378
7 1 1.37182 0.599861 31.3018
8 1 5.16008 4.16311 34.5485
9 1 1.90225 2.63987 30.3097
10 1 5.34211 3.24988 32.2274
11 1 3.24446 0.367911 29.1976
12 1 2.52645 2.52658 32.7234
13 1 4.39431 2.89425 29.6473
14 1 4.00643 1.16332 31.5495
15 1 5.85274 0.805754 29.1094
16 2 2.85037 1.7661 14.5128
17 2 1.9779 0.462375 16.7181
18 2 2.53848 4.50788 14.9493
19 2 4.06563 1.86568 16.8359
20 2 5.29895 3.34441 10.0782
21 2 5.28464 3.14255 14.7441
22 2 7.04237 3.68922 12.5156
23 2 4.52459 2.21811 12.4131
24 2 4.79731 2.16228 7.82335
25 2 2.39037 0.497501 7.50819
26 2 2.63126 2.02232 10.0921
27 2 1.47901 0.824773 12.3784
28 2 0.248665 0.298371 9.99084
29 2 2.46911 3.31369 7.64979
30 2 4.08292 3.54266 4.82631
31 2 3.86791 0.854728 4.95424
32 2 3.91029 2.07696 2.43353
33 2 1.42 0.728777 2.51432
34 2 6.83583 3.59068 2.40747
35 2 6.32459 2.37772 5.25706
ITEM: TIMESTEP
14300
ITEM: NUMBER OF ATOMS
35
ITEM: BOX BOUNDS xy xz yz pp pp pp
0.0000000000000000e+00 7.6685730000000003e+00 2.5561910000000001e+00
0.0000000000000000e+00 4.4274529999999999e+00 0.0000000000000000e+00
0.0000000000000000e+00 3.6699264999999997e+01 0.0000000000000000e+00
ITEM: ATOMS id type x y z
1 1 5.71531 2.2368 0.0252248
2 1 0.292251 0.746253 33.2291
3 1 3.598 0.607784 0.498884
4 1 1.88817 2.43325 34.4579
5 1 4.11778 1.84545 34.7776
6 1 3.48081 3.56163 0.00985706
7 1 1.23136 0.317731 30.8934
8 1 4.57329 4.13375 34.7576
9 1 2.08854 3.09394 30.0337
10 1 5.47976 3.20637 32.4044
11 1 3.58011 0.427478 28.7661
12 1 3.18018 3.01775 32.2895
13 1 4.6749 2.79879 29.8303
14 1 3.67737 0.742421 31.2115
15 1 0.989155 1.03527 28.4518
16 2 2.61056 1.98319 14.7296
17 2 1.67208 0.86143 16.854
18 2 4.79711 0.307526 15.1167
19 2 4.50544 1.78351 17.52
20 2 5.21794 3.35159 9.84586
21 2 5.19122 2.91631 15.064
22 2 6.51795 3.86395 12.4579
23 2 4.03677 2.49077 12.3488
24 2 5.0213 1.71009 7.23217
25 2 2.49309 0.595073 7.77562
26 2 2.95927 1.66479 10.1889
27 2 1.64394 0.788632 12.5443
28 2 0.0161226 0.346222 10.1541
29 2 2.51432 3.5596 7.63417
30 2 3.95921 3.54697 4.88122
31 2 3.9006 0.506362 4.87019
32 2 4.47258 2.24252 2.3887
33 2 1.6454 0.655588 2.52855
34 2 6.80745 3.34911 2.46204
35 2 6.70358 1.96656 5.10131
ITEM: TIMESTEP
14400
ITEM: NUMBER OF ATOMS
35
ITEM: BOX BOUNDS xy xz yz pp pp pp
0.0000000000000000e+00 7.6685730000000003e+00 2.5561910000000001e+00
0.0000000000000000e+00 4.4274529999999999e+00 0.0000000000000000e+00
0.0000000000000000e+00 3.6699264999999997e+01 0.0000000000000000e+00
ITEM: ATOMS id type x y z
1 1 6.09058 2.24391 0.09554
2 1 5.30354 0.496004 32.6993
3 1 3.24303 0.923679 0.296251
4 1 6.79579 3.14654 34.6817
5 1 4.01052 1.29224 34.6625
6 1 2.86252 3.93642 0.376338
7 1 1.19485 1.06178 30.7461
8 1 4.44071 4.65505 34.2064
9 1 2.37336 3.06369 29.7925
10 1 5.79514 2.89516 32.1078
11 1 3.67547 0.759588 28.8239
12 1 3.22903 2.46914 32.376
13 1 4.76413 2.65401 30.048
14 1 3.59115 0.567671 30.8983
15 1 1.25135 1.21532 28.36
16 2 2.50811 1.97136 15.0225
17 2 1.98902 0.732308 17.3237
18 2 4.76181 0.374282 15.0529
19 2 4.45836 2.0508 17.5096
20 2 5.17306 2.97782 9.81568
21 2 4.87291 3.51285 15.4071
22 2 6.35166 3.9112 12.5192
23 2 3.65568 2.52156 12.6495
24 2 5.17744 1.9182 6.88677
25 2 2.4926 0.347624 7.4322
26 2 2.45998 1.8531 10.0443
27 2 1.22626 0.929038 12.6723
28 2 0.439496 0.28644 9.98387
29 2 2.48456 3.29985 7.53106
30 2 4.08757 3.57749 5.23344
31 2 4.12554 0.119774 4.88438
32 2 4.55326 1.9793 2.57283
33 2 1.83017 0.311727 2.42332
34 2 7.04677 3.54501 2.57375
35 2 1.93926 1.85722 4.67467
ITEM: TIMESTEP
14500
ITEM: NUMBER OF ATOMS
35
ITEM: BOX BOUNDS xy xz yz pp pp pp
0.0000000000000000e+00 7.6685730000000003e+00 2.5561910000000001e+00
0.0000000000000000e+00 4.4274529999999999e+00 0.0000000000000000e+00
0.0000000000000000e+00 3.6699264999999997e+01 0.0000000000000000e+00
ITEM: ATOMS id type x y z
1 1 5.37065 2.43684 0.630324
2 1 4.93345 -0.104334 32.7759
3 1 2.98197 1.34026 0.0356125
4 1 6.90873 3.02798 34.7383
5 1 4.54153 1.62585 34.7381
6 1 3.62885 4.45875 36.1191
7 1 1.29751 0.718822 30.7339
8 1 1.70483 0.957796 33.8877
9 1 2.35007 3.3145 29.7417
10 1 5.65431 2.70666 32.7251
11 1 3.96741 1.13949 28.2922
12 1 3.30678 2.10895 32.538
13 1 4.99749 3.12916 29.6818
14 1 3.62384 0.45922 30.8974
15 1 1.23585 1.51612 28.6006
16 2 1.86703 2.18325 15.3965
17 2 2.27259 0.593008 17.7961
18 2 4.98523 0.611765 15.3062
19 2 4.32769 2.23304 17.0683
20 2 5.02621 3.01171 9.89235
21 2 4.83323 3.82625 14.9002
22 2 6.17591 4.03449 12.4459
23 2 3.48692 2.52125 12.8713
24 2 5.42625 1.70991 7.29876
25 2 2.74547 0.250487 7.51163
26 2 2.59203 1.69285 10.0879
27 2 5.79331 1.43542 12.6881
28 2 -0.0917673 0.0404517 9.74598
29 2 2.65643 2.90979 7.49478
30 2 4.38625 3.29341 4.73452
31 2 4.32501 0.334339 5.30744
32 2 4.34291 1.54924 2.84157
33 2 2.20121 0.0526538 2.32717
34 2 2.17306 3.31746 2.16004
35 2 1.95458 1.8148 4.59607
ITEM: TIMESTEP
14600
ITEM: NUMBER OF ATOMS
35
ITEM: BOX BOUNDS xy xz yz pp pp pp
0.0000000000000000e+00 7.6685730000000003e+00 2.5561910000000001e+00
0.0000000000000000e+00 4.4274529999999999e+00 0.0000000000000000e+00
0.0000000000000000e+00 3.6699264999999997e+01 0.0000000000000000e+00
ITEM: ATOMS id type x y z
1 1 5.1873 2.70144 0.595889
2 1 7.06083 4.30788 33.0521
3 1 3.05552 1.15246 -0.0924131
4 1 2.11857 3.23473 35.5752
5 1 4.77836 2.42314 34.9526
6 1 1.25821 0.0199146 36.0156
7 1 1.06026 0.814477 31.3267
8 1 2.14097 0.160775 33.4824
9 1 2.71471 3.24941 29.9183
10 1 5.53487 2.81964 32.3066
11 1 4.02845 1.39059 28.3292
12 1 2.91651 2.13225 32.4451
13 1 5.00641 3.39793 29.8297
14 1 3.73059 0.930323 30.6552
15 1 1.5475 1.18075 28.7533
16 2 1.83995 2.45945 15.8346
17 2 2.39507 0.538127 17.176
18 2 4.56786 0.578106 15.4092
19 2 4.20155 2.76929 16.9476
20 2 4.75981 3.01873 10.1497
21 2 4.80454 4.04432 14.4298
22 2 5.98059 4.44543 12.1581
23 2 2.8257 2.91739 13.0041
24 2 5.63152 1.42232 8.01578
25 2 2.81832 -0.0829215 7.7192
26 2 2.44321 1.38382 10.3361
27 2 5.91511 1.27612 12.4642
28 2 4.78314 -0.157319 9.86943
29 2 3.316 2.88735 7.20029
30 2 4.60747 3.40813 4.55161
31 2 4.52513 0.223452 5.27654
32 2 4.71754 1.08416 2.75999
33 2 2.19893 0.163747 2.12809
34 2 2.32047 2.95126 1.83802
35 2 1.67731 1.70547 4.84806
ITEM: TIMESTEP
14700
ITEM: NUMBER OF ATOMS
35
ITEM: BOX BOUNDS xy xz yz pp pp pp
0.0000000000000000e+00 7.6685730000000003e+00 2.5561910000000001e+00
0.0000000000000000e+00 4.4274529999999999e+00 0.0000000000000000e+00
0.0000000000000000e+00 3.6699264999999997e+01 0.0000000000000000e+00
ITEM: ATOMS id type x y z
1 1 5.09582 2.45373 0.70072
2 1 4.712 0.37888 33.5021
3 1 3.95126 0.675069 36.4645
4 1 1.76789 2.86975 35.4343
5 1 4.59486 2.42719 34.5723
6 1 1.25784 0.502992 36.3752
7 1 1.41878 0.257625 31.6206
8 1 4.48228 4.68773 33.7886
9 1 2.48907 3.03546 30.4169
10 1 5.15485 2.60404 32.0623
11 1 4.34165 1.69441 28.6591
12 1 2.52036 2.76047 32.9724
13 1 5.48247 3.34975 29.3143
14 1 3.90829 0.987867 31.0351
15 1 1.50964 0.982979 29.1738
16 2 1.44167 2.85159 15.3167
17 2 2.84087 0.592677 16.9463
18 2 4.69261 1.11832 14.8157
19 2 3.98994 2.80507 16.9482
20 2 4.49064 2.64881 10.6867
21 2 4.52837 4.05868 14.5403
22 2 3.16092 0.205393 12.2035
23 2 2.74188 2.75302 13.1135
24 2 5.8159 1.49292 7.86034
25 2 5.84077 4.21326 7.52468
26 2 1.95553 1.49975 10.0097
27 2 0.521245 1.32371 12.5716
28 2 7.38814 4.15677 9.97207
29 2 3.39339 2.55851 7.12749
30 2 4.52049 3.31537 4.44326
31 2 4.47849 0.141504 5.22016
32 2 4.90296 1.09313 2.73798
33 2 2.31138 0.143928 2.05871
34 2 2.56425 2.88036 2.09571
35 2 2.00111 1.69811 5.13466
ITEM: TIMESTEP
14800
ITEM: NUMBER OF ATOMS
35
ITEM: BOX BOUNDS xy xz yz pp pp pp
0.0000000000000000e+00 7.6685730000000003e+00 2.5561910000000001e+00
0.0000000000000000e+00 4.4274529999999999e+00 0.0000000000000000e+00
0.0000000000000000e+00 3.6699264999999997e+01 0.0000000000000000e+00
ITEM: ATOMS id type x y z
1 1 4.55625 2.23405 0.423034
2 1 4.37635 0.616137 33.8467
3 1 4.05916 0.134324 36.5246
4 1 1.9962 2.79834 35.5626
5 1 4.32093 2.88165 34.8747
6 1 1.31222 0.526447 36.9116
7 1 1.39975 0.170942 31.6902
8 1 2.08681 0.482941 34.2991
9 1 2.49622 2.88219 30.6189
10 1 5.47512 2.53743 32.5329
11 1 3.90149 1.59669 29.3727
12 1 2.89752 2.26559 32.729
13 1 6.09882 3.71924 29.0894
14 1 3.84121 0.271471 31.5756
15 1 1.38242 1.04113 29.5572
16 2 6.86467 2.98471 15.2293
17 2 3.17898 0.423147 16.9664
18 2 4.22547 1.31454 14.8643
19 2 3.61869 3.19781 16.8772
20 2 4.40414 2.75874 10.1792
21 2 4.15398 4.46224 14.6274
22 2 2.98765 -0.213109 12.2941
23 2 2.94365 2.76056 12.5821
24 2 5.73551 1.20795 6.98481
25 2 5.95715 3.92332 7.50965
26 2 2.01645 1.15844 9.93553
27 2 5.67601 1.3625 12.3718
28 2 7.03756 4.52559 9.86522
29 2 3.30662 2.67222 7.7753
30 2 4.45708 3.20713 4.65556
31 2 4.53791 0.0596051 5.02912
32 2 5.10659 1.39654 2.73627
33 2 2.88407 0.13952 2.43064
34 2 2.49772 2.97441 2.31724
35 2 2.19098 1.61497 4.86106
ITEM: TIMESTEP
14900
ITEM: NUMBER OF ATOMS
35
ITEM: BOX BOUNDS xy xz yz pp pp pp
0.0000000000000000e+00 7.6685730000000003e+00 2.5561910000000001e+00
0.0000000000000000e+00 4.4274529999999999e+00 0.0000000000000000e+00
0.0000000000000000e+00 3.6699264999999997e+01 0.0000000000000000e+00
ITEM: ATOMS id type x y z
1 1 4.3711 2.88359 0.521841
2 1 7.39292 4.17378 34.7937
3 1 3.51233 0.0188391 0.295479
4 1 2.08379 2.26517 35.8603
5 1 4.66418 2.63915 34.9029
6 1 1.19761 0.695204 0.493643
7 1 1.18893 0.0796766 32.1508
8 1 2.03206 0.671101 34.2169
9 1 2.64093 3.02193 30.6198
10 1 5.75566 2.3387 32.5793
11 1 4.47036 1.84078 29.8005
12 1 3.13609 2.28715 32.7397
13 1 5.57473 3.81119 29.429
14 1 3.69866 0.269273 31.8662
15 1 1.28942 0.640157 29.8734
16 2 6.4507 2.82369 15.0061
17 2 3.47941 0.313239 17.1306
18 2 4.00591 1.73131 14.708
19 2 3.39623 3.61382 17.0219
20 2 4.73961 3.07519 9.80132
21 2 1.44803 0.265752 14.6805
22 2 5.79727 3.9313 12.4967
23 2 3.22289 2.82959 12.0484
24 2 0.707259 0.962091 7.07001
25 2 5.61235 3.83095 7.31766
26 2 1.76379 1.35492 9.4919
27 2 5.54993 1.17256 12.1619
28 2 7.02887 4.4192 9.85764
29 2 2.95874 2.66111 7.42179
30 2 4.50669 3.1737 5.20523
31 2 7.03264 4.15374 4.75195
32 2 5.58361 1.63907 2.93895
33 2 2.84336 0.0866166 2.6861
34 2 2.66055 3.04155 2.10851
35 2 2.3483 1.61264 4.80564
ITEM: TIMESTEP
15000
ITEM: NUMBER OF ATOMS
35
ITEM: BOX BOUNDS xy xz yz pp pp pp
0.0000000000000000e+00 7.6685730000000003e+00 2.5561910000000001e+00
0.0000000000000000e+00 4.4274529999999999e+00 0.0000000000000000e+00
0.0000000000000000e+00 3.6699264999999997e+01 0.0000000000000000e+00
ITEM: ATOMS id type x y z
1 1 5.17137 2.76266 0.517641
2 1 7.55578 4.29069 34.4177
3 1 3.44753 0.331 0.124206
4 1 2.54976 2.293 0.0623305
5 1 5.44313 2.18092 34.6199
6 1 1.00849 0.394811 0.491656
7 1 3.83394 4.39979 32.4495
8 1 2.69191 0.286385 34.6831
9 1 2.62777 2.7221 30.889
10 1 5.59554 2.389 32.2857
11 1 4.37297 1.7949 30.5334
12 1 2.96959 2.2202 33.4749
13 1 5.77092 3.9246 29.7262
14 1 3.75468 0.207357 32.3116
15 1 1.3773 0.915219 30.195
16 2 6.26148 3.24987 15.0149
17 2 3.55502 0.580166 16.7458
18 2 3.82939 1.77945 14.4617
19 2 3.45789 3.69313 16.9459
20 2 4.57182 3.12885 9.74984
21 2 1.12284 0.0668231 14.4936
22 2 5.78237 4.11951 12.5315
23 2 3.12485 2.32931 11.8842
24 2 5.39975 0.905718 7.31341
25 2 5.67153 4.15603 7.43166
26 2 2.03495 1.711 9.67157
27 2 0.735818 1.05311 12.0585
28 2 4.61269 0.165936 9.7263
29 2 2.88011 2.53632 7.23071
30 2 4.58251 2.93955 4.99596
31 2 7.30965 4.22797 4.64664
32 2 5.18188 1.6945 2.84873
33 2 2.54146 0.0514481 2.52537
34 2 2.84873 3.08491 2.29325
35 2 2.16014 1.12478 4.96913
ITEM: TIMESTEP
15100
ITEM: NUMBER OF ATOMS
35
ITEM: BOX BOUNDS xy xz yz pp pp pp
0.0000000000000000e+00 7.6685730000000003e+00 2.5561910000000001e+00
0.0000000000000000e+00 4.4274529999999999e+00 0.0000000000000000e+00
0.0000000000000000e+00 3.6699264999999997e+01 0.0000000000000000e+00
ITEM: ATOMS id type x y z
1 1 5.36004 2.56491 -0.137343
2 1 2.4653 4.31041 34.8505
3 1 4.17873 0.58491 0.254933
4 1 2.71363 2.43671 36.482
5 1 6.27579 2.19636 34.5818
6 1 1.57407 0.299342 0.165528
7 1 1.73429 0.230975 32.7216
8 1 4.9193 3.98529 34.8596
9 1 2.76087 3.1342 31.5889
10 1 5.33192 2.25654 32.3325
11 1 4.04501 1.59203 30.0682
12 1 3.36126 2.12514 33.966
13 1 6.05118 3.60477 30.3496
14 1 3.98629 0.454285 32.7319
15 1 1.45834 0.725385 30.4066
16 2 6.35566 2.77272 14.93
17 2 3.38028 1.15135 16.6629
18 2 3.67814 1.62544 14.3028
19 2 3.75221 3.53916 16.6555
20 2 4.38598 3.40745 9.75607
21 2 0.791624 0.24342 14.4636
22 2 5.79567 3.85141 12.0808
23 2 3.12406 2.72453 12.1301
24 2 5.53008 1.20907 7.28056
25 2 5.3684 4.12716 7.3852
26 2 2.04124 1.70586 9.70315
27 2 0.743326 1.18277 11.9435
28 2 4.48236 0.406628 9.85513
29 2 3.09904 2.68716 7.41428
30 2 4.81767 2.5333 5.14623
31 2 7.17388 4.1524 5.01088
32 2 5.07413 1.38418 2.27161
33 2 2.52134 0.19354 2.38502
34 2 2.49985 2.79528 2.72183
35 2 1.94102 1.12026 4.8281
ITEM: TIMESTEP
15200
ITEM: NUMBER OF ATOMS
35
ITEM: BOX BOUNDS xy xz yz pp pp pp
0.0000000000000000e+00 7.6685730000000003e+00 2.5561910000000001e+00
0.0000000000000000e+00 4.4274529999999999e+00 0.0000000000000000e+00
0.0000000000000000e+00 3.6699264999999997e+01 0.0000000000000000e+00
ITEM: ATOMS id type x y z
1 1 5.32835 2.42417 0.419308
2 1 5.33026 0.0640518 34.3619
3 1 4.17942 -0.201853 0.220638
4 1 3.17912 2.50313 0.464678
5 1 1.79109 2.25191 34.3651
6 1 1.10047 0.495575 0.0692332
7 1 1.68207 0.293028 32.479
8 1 5.49997 4.51353 34.7197
9 1 2.91144 2.50437 32.2179
10 1 5.42807 2.4793 32.5571
11 1 3.69702 1.25367 30.0493
12 1 4.0778 2.26875 34.8572
13 1 6.33215 3.30933 30.0558
14 1 4.19479 0.106719 32.0897
15 1 1.19676 0.896779 30.2044
16 2 6.07344 2.721 15.1503
17 2 3.47375 0.749909 16.6819
18 2 3.55003 1.45479 14.0437
19 2 3.97865 3.74367 16.7409
20 2 4.51075 3.42274 9.62929
21 2 0.982454 -0.0889447 14.2023
22 2 5.67388 4.17578 12.3214
23 2 3.09671 3.15022 11.8612
24 2 5.76608 1.4023 7.43132
25 2 5.56108 4.21328 7.33543
26 2 1.65136 1.99561 9.77565
27 2 5.63394 1.4124 12.1751
28 2 4.15343 0.614179 9.5584
29 2 3.02443 2.74782 7.24537
30 2 4.54438 2.5277 4.58743
31 2 6.95668 4.09278 5.26137
32 2 5.10268 1.17145 2.56414
33 2 2.66574 -0.416855 2.59655
34 2 2.30371 2.84765 2.57646
35 2 2.16836 1.19565 4.97554
ITEM: TIMESTEP
15300
ITEM: NUMBER OF ATOMS
35
ITEM: BOX BOUNDS xy xz yz pp pp pp
0.0000000000000000e+00 7.6685730000000003e+00 2.5561910000000001e+00
0.0000000000000000e+00 4.4274529999999999e+00 0.0000000000000000e+00
0.0000000000000000e+00 3.6699264999999997e+01 0.0000000000000000e+00
ITEM: ATOMS id type x y z
1 1 5.57985 2.16786 0.734389
2 1 0.959839 0.202289 34.3246
3 1 4.3239 0.30848 0.440817
4 1 2.92725 2.2465 0.460282
5 1 1.86254 2.85132 35.1991
6 1 4.20125 4.21991 36.6948
7 1 4.38139 4.03945 31.5387
8 1 3.45933 0.518684 34.4011
9 1 2.91149 2.177 32.6587
10 1 5.4636 2.19252 32.725
11 1 3.38181 1.56334 30.107
12 1 4.76003 2.38147 34.9054
13 1 6.60075 3.19257 29.529
14 1 4.53429 0.072826 32.1638
15 1 0.717134 0.670168 29.8237
16 2 6.08866 2.6054 15.4363
17 2 4.15071 0.671366 16.3758
18 2 3.30986 1.73174 14.3696
19 2 3.56895 3.53916 16.7805
20 2 4.15627 3.63137 9.58265
21 2 3.59679 4.21906 14.3394
22 2 2.97081 0.040284 12.0625
23 2 2.96873 2.90764 11.9482
24 2 5.53612 1.38638 7.03035
25 2 5.59125 4.34027 7.29164
26 2 1.61613 2.1907 9.66614
27 2 5.47757 1.84951 12.3702
28 2 4.30685 0.753415 9.72242
29 2 3.13256 2.77029 7.29528
30 2 4.36196 2.81362 4.87423
31 2 7.16227 4.06873 4.88858
32 2 5.08128 0.736978 2.69198
33 2 4.86264 4.17503 2.40384
34 2 2.49617 2.36891 2.70497
35 2 2.04682 1.0366 4.92263
ITEM: TIMESTEP
15400
ITEM: NUMBER OF ATOMS
35
ITEM: BOX BOUNDS xy xz yz pp pp pp
0.0000000000000000e+00 7.6685730000000003e+00 2.5561910000000001e+00
0.0000000000000000e+00 4.4274529999999999e+00 0.0000000000000000e+00
0.0000000000000000e+00 3.6699264999999997e+01 0.0000000000000000e+00
ITEM: ATOMS id type x y z
1 1 6.06708 2.20267 0.547048
2 1 1.1668 0.60486 33.9411
3 1 4.43115 -0.256755 -0.00378665
4 1 3.48406 1.76929 0.00067236
5 1 2.24965 2.75316 34.6244
6 1 4.47797 4.71334 36.4111
7 1 4.47377 3.58153 30.8528
8 1 3.53803 0.223629 34.096
9 1 3.39639 2.32052 32.7757
10 1 5.95777 1.98004 32.1949
11 1 3.06134 1.43447 30.7031
12 1 4.852 2.63188 34.8256
13 1 6.60926 3.19551 30.0699
14 1 4.65205 -0.0772708 32.0473
15 1 0.223047 1.09237 30.0999
16 2 6.0518 2.63497 15.5493
17 2 4.10292 0.633899 16.7193
18 2 3.29054 1.47208 14.3023
19 2 3.7681 3.18925 16.7959
20 2 4.18163 3.8727 9.72545
21 2 3.5798 4.5694 14.3965
22 2 2.83006 0.254285 11.8224
23 2 2.78247 3.19403 12.1011
24 2 5.45437 1.3387 7.22435
25 2 5.56846 4.42811 7.39009
26 2 1.51038 2.26095 9.37123
27 2 5.39813 1.88564 12.4736
28 2 4.3739 0.82779 9.81378
29 2 2.93875 3.00779 7.29051
30 2 4.71912 2.55148 4.89586
31 2 6.88527 3.87839 5.03193
32 2 4.81286 0.970856 2.72492
33 2 4.83561 3.80375 2.32436
34 2 2.56282 2.31183 2.72416
35 2 1.93079 0.973576 4.96546
ITEM: TIMESTEP
15500
ITEM: NUMBER OF ATOMS
35
ITEM: BOX BOUNDS xy xz yz pp pp pp
0.0000000000000000e+00 7.6685730000000003e+00 2.5561910000000001e+00
0.0000000000000000e+00 4.4274529999999999e+00 0.0000000000000000e+00
0.0000000000000000e+00 3.6699264999999997e+01 0.0000000000000000e+00
ITEM: ATOMS id type x y z
1 1 6.27514 1.87875 0.422255
2 1 1.11715 0.0261069 33.9354
3 1 7.49173 4.07812 36.7927
4 1 3.73491 2.14744 36.9375
5 1 2.65884 2.27868 34.616
6 1 2.41829 -0.168988 36.2296
7 1 3.50708 3.70209 30.7903
8 1 3.85672 0.357832 34.52
9 1 4.43452 2.47843 32.4722
10 1 6.8876 2.40401 31.9966
11 1 2.81727 0.529988 30.7462
12 1 5.31823 2.23701 34.8228
13 1 6.95865 3.2193 29.4063
14 1 4.46237 0.224476 32.2687
15 1 4.98605 1.69789 29.9606
16 2 6.32733 2.80005 15.1976
17 2 3.59655 0.447441 16.9715
18 2 3.82275 1.27925 14.4038
19 2 3.9201 3.17449 16.9157
20 2 4.18019 3.65899 9.72765
21 2 3.46046 4.0866 14.5961
22 2 2.52916 0.527199 12.1538
23 2 2.49352 3.62545 12.164
24 2 5.51494 1.62657 7.44987
25 2 2.86679 0.160524 7.44169
26 2 1.71639 2.60239 10.0336
27 2 5.28993 2.06035 12.1993
28 2 4.04074 1.08289 9.72997
29 2 3.09613 3.05959 7.24643
30 2 4.38697 2.10343 4.81594
31 2 6.96874 3.79601 4.92311
32 2 4.71084 0.766379 2.27974
33 2 4.91443 3.77968 2.22278
34 2 2.13242 2.63204 2.4769
35 2 1.93937 0.74131 4.92743
ITEM: TIMESTEP
15600
ITEM: NUMBER OF ATOMS
35
ITEM: BOX BOUNDS xy xz yz pp pp pp
0.0000000000000000e+00 7.6685730000000003e+00 2.5561910000000001e+00
0.0000000000000000e+00 4.4274529999999999e+00 0.0000000000000000e+00
0.0000000000000000e+00 3.6699264999999997e+01 0.0000000000000000e+00
ITEM: ATOMS id type x y z
1 1 1.46978 1.57317 36.6889
2 1 2.02896 0.00249369 34.1484
3 1 2.8484 4.05797 0.000805996
4 1 3.83292 2.03022 0.351686
5 1 3.06059 2.11017 34.4922
6 1 5.28313 3.57657 36.4457
7 1 2.84463 3.92934 30.383
8 1 6.76252 4.23151 34.4496
9 1 5.56865 3.1912 32.1696
10 1 2.47879 1.76277 32.1611
11 1 2.90156 0.349697 30.0457
12 1 5.48065 2.12034 34.375
13 1 6.22561 3.01598 28.8894
14 1 4.42916 0.465582 32.2107
15 1 4.77324 1.945 30.3515
16 2 1.52001 2.40804 14.5625
17 2 3.10998 0.300548 16.799
18 2 4.06739 1.30468 14.7173
19 2 3.75254 2.9977 17.2227
20 2 4.08728 4.20296 9.89862
21 2 4.18928 4.18788 14.873
22 2 2.36237 0.777848 12.4366
23 2 2.38964 3.90911 12.5564
24 2 5.76344 1.89395 7.34415
25 2 3.09411 0.236173 7.15007
26 2 6.58014 2.54911 9.82052
27 2 4.82313 2.32555 12.246
28 2 3.96294 0.919988 9.9134
29 2 3.0445 3.073 7.3294
30 2 4.22697 2.18174 4.80079
31 2 6.90814 3.64733 4.87827
32 2 4.71648 0.821306 2.55405
33 2 4.54369 4.08662 2.31308
34 2 1.91453 2.19886 2.55906
35 2 1.69621 0.54452 4.6232
ITEM: TIMESTEP
15700
ITEM: NUMBER OF ATOMS
35
ITEM: BOX BOUNDS xy xz yz pp pp pp
0.0000000000000000e+00 7.6685730000000003e+00 2.5561910000000001e+00
0.0000000000000000e+00 4.4274529999999999e+00 0.0000000000000000e+00
0.0000000000000000e+00 3.6699264999999997e+01 0.0000000000000000e+00
ITEM: ATOMS id type x y z
1 1 1.64821 1.29969 36.5418
2 1 1.87519 0.11491 34.3705
3 1 3.05595 3.44199 0.327495
4 1 4.46262 1.16976 0.343987
5 1 3.66789 1.99401 34.9508
6 1 5.66304 3.81876 36.3689
7 1 2.57725 3.80841 29.8879
8 1 7.29704 3.92127 34.2244
9 1 6.1416 3.6149 31.6273
10 1 2.70109 1.47551 32.0766
11 1 2.16763 0.620841 29.749
12 1 5.7886 2.51372 33.9196
13 1 6.13321 2.22278 28.8677
14 1 5.85313 0.430384 31.878
15 1 4.173 2.23702 30.3322
16 2 1.79874 2.54367 14.8591
17 2 3.29645 0.0120048 17.3581
18 2 4.41556 1.33824 14.8071
19 2 3.06678 2.62396 16.8915
20 2 3.89143 4.33834 9.88544
21 2 4.54819 3.97761 14.7029
22 2 2.30555 1.13204 12.348
23 2 7.31474 4.08579 12.528
24 2 5.53933 1.5501 7.14292
25 2 3.20245 0.263357 7.25344
26 2 6.42338 2.73562 9.65172
27 2 4.5768 2.71401 12.1956
28 2 4.07426 1.13675 9.70672
29 2 3.24637 3.36377 7.61974
30 2 4.28921 2.45054 4.96386
31 2 6.69855 3.55966 4.83572
32 2 4.26661 0.749368 2.7725
33 2 4.45259 3.44822 2.28375
34 2 1.77772 2.36841 2.31228
35 2 1.55076 0.764754 5.07585
ITEM: TIMESTEP
15800
ITEM: NUMBER OF ATOMS
35
ITEM: BOX BOUNDS xy xz yz pp pp pp
0.0000000000000000e+00 7.6685730000000003e+00 2.5561910000000001e+00
0.0000000000000000e+00 4.4274529999999999e+00 0.0000000000000000e+00
0.0000000000000000e+00 3.6699264999999997e+01 0.0000000000000000e+00
ITEM: ATOMS id type x y z
1 1 2.076 0.832827 36.4162
2 1 2.42281 0.157804 33.9477
3 1 3.03505 3.28381 -0.138613
4 1 4.82617 0.866683 0.628762
5 1 3.83094 1.805 34.953
6 1 5.77133 3.13331 36.6884
7 1 2.12115 4.19497 28.9759
8 1 7.72394 4.68988 33.5504
9 1 6.3186 3.5489 31.5727
10 1 3.38604 2.08332 32.8463
11 1 2.69251 0.112579 29.5852
12 1 6.15771 2.35031 33.7705
13 1 5.64953 2.10671 29.1315
14 1 1.24444 -0.440822 31.8963
15 1 3.81352 2.12262 30.5017
16 2 1.7999 2.74662 14.4262
17 2 6.0787 3.97614 17.2582
18 2 4.70453 0.760058 15.0721
19 2 3.05873 2.48516 17.3163
20 2 4.03605 4.34036 10.1379
21 2 4.60271 4.26148 14.6163
22 2 1.94448 1.59853 12.1681
23 2 6.98651 4.4647 12.1963
24 2 5.5446 1.61421 7.4883
25 2 2.86338 0.161101 7.42098
26 2 6.42139 3.08373 9.66085
27 2 4.77543 2.77889 12.2607
28 2 3.82687 1.65108 9.73313
29 2 3.14208 3.08221 7.47291
30 2 4.014 2.39621 5.01693
31 2 6.83462 3.75964 5.12827
32 2 3.79371 0.540692 2.72912
33 2 4.24682 3.4576 2.54709
34 2 1.80111 2.15293 2.23991
35 2 1.77068 0.917119 4.70528
ITEM: TIMESTEP
15900
ITEM: NUMBER OF ATOMS
35
ITEM: BOX BOUNDS xy xz yz pp pp pp
0.0000000000000000e+00 7.6685730000000003e+00 2.5561910000000001e+00
0.0000000000000000e+00 4.4274529999999999e+00 0.0000000000000000e+00
0.0000000000000000e+00 3.6699264999999997e+01 0.0000000000000000e+00
ITEM: ATOMS id type x y z
1 1 2.5407 0.645423 36.6013
2 1 5.04735 4.04633 33.7804
3 1 3.15483 3.4137 36.6406
4 1 4.50806 1.22728 0.803291
5 1 4.78315 1.8636 34.9699
6 1 6.14399 2.79524 -0.00474739
7 1 2.68281 4.1397 28.965
8 1 5.1436 0.109031 33.5769
9 1 6.86379 3.26549 31.3535
10 1 4.11607 2.22802 32.8046
11 1 4.84187 4.11809 28.7962
12 1 1.80106 1.91794 34.1469
13 1 6.03012 1.94955 29.8258
14 1 1.6828 0.379246 31.4812
15 1 3.22319 1.65724 30.4606
16 2 2.13952 2.70376 14.5298
17 2 5.9628 3.30139 16.6322
18 2 4.76753 1.2788 15.4825
19 2 3.55968 2.4081 16.9288
20 2 1.21243 0.263602 9.8866
21 2 2.07379 0.0430792 14.9601
22 2 1.96383 1.70831 11.8364
23 2 4.23312 0.21205 12.085
24 2 5.51494 1.57507 7.58581
25 2 2.60092 -0.000455013 7.37669
26 2 6.48654 3.39121 9.71471
27 2 4.31645 2.99155 12.7749
28 2 3.80729 1.90558 9.93321
29 2 2.75167 2.80999 7.26391
30 2 4.38415 2.15389 4.94997
31 2 6.7587 3.98291 5.26838
32 2 4.02002 0.301899 2.84666
33 2 3.58728 3.64274 2.47043
34 2 1.49989 1.95556 2.30629
35 2 1.51494 0.85068 4.80605
ITEM: TIMESTEP
16000
ITEM: NUMBER OF ATOMS
35
ITEM: BOX BOUNDS xy xz yz pp pp pp
0.0000000000000000e+00 7.6685730000000003e+00 2.5561910000000001e+00
0.0000000000000000e+00 4.4274529999999999e+00 0.0000000000000000e+00
0.0000000000000000e+00 3.6699264999999997e+01 0.0000000000000000e+00
ITEM: ATOMS id type x y z
1 1 2.30565 1.30284 36.7885
2 1 5.68275 3.70662 34.1725
3 1 3.5092 3.72883 36.073
4 1 4.63424 1.58231 0.519432
5 1 4.95264 1.52288 34.8779
6 1 6.27033 3.56327 36.5891
7 1 2.30667 3.58485 29.764
8 1 2.91295 3.86841 34.0999
9 1 6.76791 3.92411 31.9672
10 1 4.67468 2.23988 31.7491
11 1 5.69384 3.40983 28.2102
12 1 2.78072 1.74739 34.3375
13 1 6.13027 1.77238 29.8504
14 1 1.61927 0.812495 32.1021
15 1 3.48746 1.35284 29.5996
16 2 2.41607 2.96394 14.468
17 2 5.96684 2.74696 17.016
18 2 5.00459 1.17385 14.58
19 2 3.40075 2.91959 17.0378
20 2 1.12765 0.427014 9.56861
21 2 2.42033 0.29768 15.0554
22 2 1.59494 1.7434 12.0502
23 2 4.16415 0.204966 12.6583
24 2 4.8884 1.26812 7.26233
25 2 5.19845 4.13876 7.46759
26 2 6.17208 3.70316 9.81889
27 2 4.25873 3.44487 12.5433
28 2 4.06219 2.09656 9.86201
29 2 2.71772 2.64259 7.46829
30 2 4.31491 2.53393 4.66443
31 2 6.76441 3.5073 5.16929
32 2 3.40949 0.32325 2.80348
33 2 3.77931 3.31203 2.26349
34 2 1.17291 1.85118 2.6648
35 2 1.57091 0.63064 5.28639
ITEM: TIMESTEP
16100
ITEM: NUMBER OF ATOMS
35
ITEM: BOX BOUNDS xy xz yz pp pp pp
0.0000000000000000e+00 7.6685730000000003e+00 2.5561910000000001e+00
0.0000000000000000e+00 4.4274529999999999e+00 0.0000000000000000e+00
0.0000000000000000e+00 3.6699264999999997e+01 0.0000000000000000e+00
ITEM: ATOMS id type x y z
1 1 2.29168 1.98581 0.470892
2 1 6.29239 3.48295 34.4662
3 1 3.98668 3.67278 36.2663
4 1 5.12968 1.30919 0.744815
5 1 5.32754 1.19844 34.8704
6 1 6.05161 4.02416 0.327938
7 1 3.0854 3.3949 30.3529
8 1 3.64664 3.60658 33.0246
9 1 6.38146 4.44044 31.8826
10 1 4.6811 2.45557 31.5775
11 1 5.96353 2.98932 28.8285
12 1 2.7109 1.22732 34.6332
13 1 0.9829 1.14363 29.992
14 1 1.92347 1.53875 31.9732
15 1 3.41082 0.827713 29.1396
16 2 2.4705 2.90076 14.5044
17 2 6.03217 2.15317 17.0596
18 2 5.25997 1.81386 14.7836
19 2 3.35989 3.56597 16.7597
20 2 1.15909 0.784687 9.72925
21 2 2.90842 0.16262 15.4579
22 2 1.37123 1.80283 12.2381
23 2 3.99232 0.667762 12.2177
24 2 4.81592 0.95677 6.91497
25 2 5.07754 3.75674 7.56529
26 2 6.39102 3.65152 10.0857
27 2 4.19533 3.4715 12.0396
28 2 3.68111 1.98918 9.97992
29 2 2.36914 2.64428 7.74642
30 2 3.98994 2.09685 4.61362
31 2 6.79411 3.46418 4.88886
32 2 3.28271 0.368825 2.57076
33 2 3.37423 3.45215 2.05301
34 2 6.03512 1.90492 2.91835
35 2 1.81626 0.609655 5.14346
ITEM: TIMESTEP
16200
ITEM: NUMBER OF ATOMS
35
ITEM: BOX BOUNDS xy xz yz pp pp pp
0.0000000000000000e+00 7.6685730000000003e+00 2.5561910000000001e+00
0.0000000000000000e+00 4.4274529999999999e+00 0.0000000000000000e+00
0.0000000000000000e+00 3.6699264999999997e+01 0.0000000000000000e+00
ITEM: ATOMS id type x y z
1 1 2.42566 1.51205 0.489865
2 1 6.46692 3.14989 34.3168
3 1 3.89775 3.4215 35.4646
4 1 4.8988 1.67363 0.29116
5 1 5.32509 1.23478 34.4853
6 1 6.22806 3.65293 -0.103976
7 1 2.88152 2.71623 30.2494
8 1 3.92245 3.88362 33.1398
9 1 6.46113 4.38386 31.7581
10 1 5.26149 2.03496 31.5454
11 1 5.78273 3.19347 29.6668
12 1 2.97513 1.17218 34.5367
13 1 1.30472 0.217366 29.9011
14 1 2.3114 1.98894 32.6754
15 1 3.87567 0.96824 29.5347
16 2 2.84461 3.13062 14.3013
17 2 6.6484 1.80449 17.2124
18 2 5.16013 1.93975 14.7973
19 2 2.98185 4.0026 16.6565
20 2 0.988873 0.704912 9.64582
21 2 3.09363 0.343727 15.5538
22 2 1.40297 2.11362 12.2794
23 2 3.94656 0.83715 12.6562
24 2 4.78714 0.779214 7.26944
25 2 4.66819 3.58238 7.69702
26 2 6.51669 3.54342 9.8784
27 2 3.83679 3.75015 12.0863
28 2 3.71013 1.83066 9.66805
29 2 2.27333 2.34281 7.1586
30 2 4.01788 2.10368 4.79792
31 2 6.80242 3.7015 4.96405
32 2 3.1449 0.37117 2.49145
33 2 3.16039 3.77496 2.39701
34 2 5.93964 2.00255 2.89173
35 2 1.69551 0.294202 5.0779
ITEM: TIMESTEP
16300
ITEM: NUMBER OF ATOMS
35
ITEM: BOX BOUNDS xy xz yz pp pp pp
0.0000000000000000e+00 7.6685730000000003e+00 2.5561910000000001e+00
0.0000000000000000e+00 4.4274529999999999e+00 0.0000000000000000e+00
0.0000000000000000e+00 3.6699264999999997e+01 0.0000000000000000e+00
ITEM: ATOMS id type x y z
1 1 1.6682 1.247 0.208382
2 1 6.63312 3.06922 34.3695
3 1 3.57622 3.52337 35.4095
4 1 4.51523 1.69075 0.416724
5 1 5.3822 0.860866 34.2685
6 1 6.54761 3.84634 0.388515
7 1 2.69219 3.0868 30.2328
8 1 4.04583 3.96839 32.4968
9 1 6.79544 3.79967 32.0094
10 1 5.22004 1.66025 31.9867
11 1 5.15919 2.71928 29.8481
12 1 2.90795 1.31769 35.1008
13 1 1.93421 0.749902 30.4247
14 1 2.99952 1.74135 32.6413
15 1 4.90874 0.469032 29.509
16 2 2.77833 3.3027 14.3623
17 2 1.86482 1.93404 17.242
18 2 5.64001 2.08076 14.9865
19 2 2.97643 4.28889 16.912
20 2 1.16941 0.711087 9.61629
21 2 2.88545 0.389446 15.3623
22 2 6.32235 2.35749 12.0275
23 2 3.86293 0.535745 12.6753
24 2 4.53186 0.542984 7.43711
25 2 4.73503 3.5543 7.53069
26 2 6.23068 3.50288 9.73169
27 2 4.11126 3.97073 11.9055
28 2 3.60455 1.95745 9.9811
29 2 2.08104 1.88842 6.96968
30 2 4.14732 2.07432 4.82737
31 2 6.59394 3.76083 4.84124
32 2 3.17322 0.47845 2.64967
33 2 3.22496 3.54336 2.23493
34 2 5.91555 2.13142 2.69966
35 2 1.43124 0.458793 5.01056
ITEM: TIMESTEP
16400
ITEM: NUMBER OF ATOMS
35
ITEM: BOX BOUNDS xy xz yz pp pp pp
0.0000000000000000e+00 7.6685730000000003e+00 2.5561910000000001e+00
0.0000000000000000e+00 4.4274529999999999e+00 0.0000000000000000e+00
0.0000000000000000e+00 3.6699264999999997e+01 0.0000000000000000e+00
ITEM: ATOMS id type x y z
1 1 1.26584 0.865772 0.489812
2 1 6.10097 3.00347 34.5602
3 1 4.29981 3.5006 35.6877
4 1 3.89835 1.51375 0.349742
5 1 5.20056 0.821474 34.2251
6 1 6.22946 3.45156 0.295874
7 1 2.94678 2.66351 29.6327
8 1 4.2002 3.36182 32.4278
9 1 6.72471 3.79181 32.1599
10 1 5.70423 1.31194 32.0866
11 1 6.09312 3.26576 29.9202
12 1 2.91084 0.751777 35.3815
13 1 2.77471 0.712729 30.8886
14 1 2.94126 1.44791 33.0479
15 1 4.62901 0.920328 29.5981
16 2 3.07613 3.32071 14.5404
17 2 2.10409 2.39516 17.2905
18 2 5.57947 2.07336 14.8167
19 2 0.372451 0.19902 16.7883
20 2 1.08704 0.771249 9.4567
21 2 2.83671 0.334305 14.9975
22 2 1.30673 2.0468 12.2681
23 2 4.08962 0.883056 12.5808
24 2 4.36522 0.449945 7.26662
25 2 4.52757 3.10497 7.11651
26 2 6.16676 3.76087 9.63515
27 2 4.14397 3.78391 12.2961
28 2 3.46868 2.14359 10.3155
29 2 2.05143 2.01847 7.43145
30 2 4.08804 2.09039 4.88301
31 2 6.35805 3.52579 4.929
32 2 3.28231 0.796763 2.58179
33 2 3.3649 3.50583 2.26593
34 2 5.75057 2.11856 2.50726
35 2 1.26398 0.544693 4.52978
ITEM: TIMESTEP
16500
ITEM: NUMBER OF ATOMS
35
ITEM: BOX BOUNDS xy xz yz pp pp pp
0.0000000000000000e+00 7.6685730000000003e+00 2.5561910000000001e+00
0.0000000000000000e+00 4.4274529999999999e+00 0.0000000000000000e+00
0.0000000000000000e+00 3.6699264999999997e+01 0.0000000000000000e+00
ITEM: ATOMS id type x y z
1 1 1.48802 0.423423 0.594938
2 1 5.9762 2.57873 34.6035
3 1 3.04109 2.49965 35.0339
4 1 4.33905 1.40387 0.173325
5 1 5.2401 0.341707 34.7493
6 1 6.55336 3.29923 0.0582941
7 1 4.13803 3.40145 29.3225
8 1 4.80837 3.28778 32.6168
9 1 7.48545 3.57571 32.1769
10 1 5.64221 1.34546 32.1882
11 1 6.25832 3.2879 29.7957
12 1 2.52727 0.148755 35.1209
13 1 2.64385 0.677971 30.6048
14 1 2.99736 1.32193 32.7454
15 1 5.3149 0.979278 29.7421
16 2 3.01522 3.18127 14.718
17 2 2.19464 2.45961 16.8951
18 2 5.4439 1.87202 14.4891
19 2 5.227 1.05635 16.9353
20 2 0.584409 0.524165 9.80015
21 2 3.01764 0.478939 15.0056
22 2 2.00525 2.25486 12.325
23 2 4.32168 0.773296 12.3911
24 2 4.47249 0.399677 7.17332
25 2 4.41189 3.39026 7.51462
26 2 5.78464 3.98018 9.95426
27 2 4.40715 3.84768 12.3778
28 2 3.58405 2.28041 9.81469
29 2 1.9001 1.95198 7.48341
30 2 3.45359 1.88966 4.75737
31 2 6.56579 3.27814 4.9257
32 2 3.3265 0.545059 2.56622
33 2 3.05635 3.70399 2.36002
34 2 5.57859 2.4782 2.61585
35 2 1.15544 0.508979 4.82495
ITEM: TIMESTEP
16600
ITEM: NUMBER OF ATOMS
35
ITEM: BOX BOUNDS xy xz yz pp pp pp
0.0000000000000000e+00 7.6685730000000003e+00 2.5561910000000001e+00
0.0000000000000000e+00 4.4274529999999999e+00 0.0000000000000000e+00
0.0000000000000000e+00 3.6699264999999997e+01 0.0000000000000000e+00
ITEM: ATOMS id type x y z
1 1 2.01182 0.355301 0.0649624
2 1 5.82825 1.78635 34.855
3 1 3.26857 2.08293 34.4843
4 1 4.28063 2.11944 0.308756
5 1 6.90055 3.87588 34.6119
6 1 6.83483 3.16897 0.290474
7 1 4.50645 3.21001 29.8243
8 1 4.89683 3.66239 32.0725
9 1 2.50611 3.45326 32.2968
10 1 1.18001 1.30515 32.3201
11 1 1.84481 2.92041 29.3498
12 1 4.52292 4.30205 34.608
13 1 3.12001 1.02677 30.023
14 1 3.95756 1.45753 32.279
15 1 5.32531 1.22376 29.9823
16 2 3.08921 3.47409 14.5907
17 2 2.22113 2.44234 16.8855
18 2 5.7629 1.94867 14.2788
19 2 4.53171 1.68261 16.952
20 2 0.624067 0.855796 10.0136
21 2 3.10299 0.195477 15.3
22 2 2.40952 2.40481 11.7698
23 2 4.51706 0.695783 12.2391
24 2 4.44873 0.466063 7.44017
25 2 4.57598 3.69261 7.41701
26 2 5.57951 3.79651 10.0112
27 2 4.72812 3.90624 12.505
28 2 3.24784 2.23369 9.45573
29 2 1.57345 1.86489 7.70052
30 2 3.74074 1.82262 5.07974
31 2 5.9569 3.46631 5.17954
32 2 3.08747 0.788202 2.54679
33 2 2.77082 3.3684 2.55769
34 2 5.46525 2.01593 2.67944
35 2 1.10511 0.252549 5.08216
ITEM: TIMESTEP
16700
ITEM: NUMBER OF ATOMS
35
ITEM: BOX BOUNDS xy xz yz pp pp pp
0.0000000000000000e+00 7.6685730000000003e+00 2.5561910000000001e+00
0.0000000000000000e+00 4.4274529999999999e+00 0.0000000000000000e+00
0.0000000000000000e+00 3.6699264999999997e+01 0.0000000000000000e+00
ITEM: ATOMS id type x y z
1 1 1.97209 0.490621 0.188688
2 1 5.61572 1.43924 35.2682
3 1 3.2824 1.57115 34.5038
4 1 4.03378 2.54097 0.491772
5 1 6.19994 3.75767 34.5545
6 1 6.69665 3.08684 0.497362
7 1 4.0184 2.86646 29.5968
8 1 5.69921 3.47317 32.1459
9 1 2.88202 3.72866 31.6537
10 1 2.29237 1.35852 32.3229
11 1 6.80627 3.24519 29.2225
12 1 3.85703 4.02416 33.8666
13 1 3.36004 0.845938 29.8278
14 1 4.64652 1.50098 32.0727
15 1 0.95894 0.659693 30.137
16 2 3.18893 3.59438 14.7545
17 2 1.65846 2.82553 16.9692
18 2 6.26971 1.89699 14.425
19 2 4.54534 1.92232 16.3758
20 2 0.797562 0.898186 9.96511
21 2 3.03731 0.0952236 15.3671
22 2 2.23795 2.31202 11.8803
23 2 4.63451 1.05989 12.594
24 2 4.3411 0.328466 7.76043
25 2 4.22286 3.76147 7.42412
26 2 5.82124 3.77828 9.95256
27 2 4.81279 3.9213 12.5891
28 2 3.47008 2.24294 9.2945
29 2 1.4088 2.14448 7.16742
30 2 3.57559 1.8095 5.58616
31 2 6.12477 3.32326 4.83503
32 2 2.69609 0.397836 2.60344
33 2 2.9767 3.38968 2.92283
34 2 5.43557 1.69123 2.61993
35 2 0.813717 0.458558 4.95638
ITEM: TIMESTEP
16800
ITEM: NUMBER OF ATOMS
35
ITEM: BOX BOUNDS xy xz yz pp pp pp
0.0000000000000000e+00 7.6685730000000003e+00 2.5561910000000001e+00
0.0000000000000000e+00 4.4274529999999999e+00 0.0000000000000000e+00
0.0000000000000000e+00 3.6699264999999997e+01 0.0000000000000000e+00
ITEM: ATOMS id type x y z
1 1 1.89005 0.551882 0.184693
2 1 4.91771 1.16383 35.3366
3 1 2.59539 1.70564 34.8999
4 1 3.7159 2.29711 0.155018
5 1 6.21858 3.50862 34.8689
6 1 6.57964 3.6863 0.766722
7 1 4.69799 2.88595 28.7603
8 1 6.4236 3.6806 32.1808
9 1 3.88193 3.1936 31.4657
10 1 2.20271 1.36362 32.2307
11 1 2.03209 3.09937 29.7851
12 1 3.88008 3.79975 34.1552
13 1 3.0622 0.616332 30.3147
14 1 5.01298 1.15735 32.5634
15 1 0.695556 0.695107 29.3119
16 2 3.18576 3.63271 14.621
17 2 6.93545 3.26222 17.1636
18 2 1.28614 1.96264 14.5229
19 2 4.48841 1.91371 16.2937
20 2 0.947216 0.522912 10.1005
21 2 3.11647 0.0704332 15.0893
22 2 2.22585 2.59106 12.0729
23 2 4.4079 1.21083 12.7247
24 2 4.16444 0.370497 7.5588
25 2 4.34416 3.92747 7.3074
26 2 6.04889 3.86152 10.2201
27 2 4.68061 3.92702 12.4047
28 2 3.51649 2.28035 9.66481
29 2 6.28868 2.24324 7.43667
30 2 3.36471 1.81031 5.42654
31 2 6.15757 3.32002 4.58084
32 2 2.76909 0.330163 2.60738
33 2 3.12052 2.89274 2.7365
34 2 5.20613 1.51033 2.31059
35 2 0.71717 0.627243 4.97897
ITEM: TIMESTEP
16900
ITEM: NUMBER OF ATOMS
35
ITEM: BOX BOUNDS xy xz yz pp pp pp
0.0000000000000000e+00 7.6685730000000003e+00 2.5561910000000001e+00
0.0000000000000000e+00 4.4274529999999999e+00 0.0000000000000000e+00
0.0000000000000000e+00 3.6699264999999997e+01 0.0000000000000000e+00
ITEM: ATOMS id type x y z
1 1 1.49462 0.479952 0.0203202
2 1 4.88021 1.17229 35.4149
3 1 2.0079 1.3743 34.621
4 1 3.78683 2.56624 0.211301
5 1 5.77592 3.38931 34.9811
6 1 6.56659 3.76493 0.346197
7 1 5.40138 3.1464 29.0102
8 1 6.9278 3.34422 32.9038
9 1 5.00161 3.1195 31.4239
10 1 2.66187 0.776264 32.2938
11 1 2.30976 2.78663 30.8556
12 1 3.66522 3.29887 33.8269
13 1 2.9374 0.552076 29.8596
14 1 4.90267 1.27362 33.0908
15 1 0.443588 0.593902 29.1253
16 2 3.38817 3.55866 14.7218
17 2 2.18965 3.52222 16.8611
18 2 6.09493 1.75854 14.5572
19 2 4.4892 2.00819 16.7771
20 2 0.943391 0.749675 10.1272
21 2 3.28747 0.229556 14.8393
22 2 2.0017 2.75745 12.28
23 2 4.32712 1.13976 12.7204
24 2 4.16193 0.875835 7.43518
25 2 3.9932 3.66907 7.26673
26 2 6.12889 3.88949 9.7694
27 2 4.55319 4.18935 12.3752
28 2 3.65577 2.20474 9.88766
29 2 6.61498 2.02936 8.05083
30 2 3.42877 1.99392 4.92686
31 2 5.82626 3.28137 4.9804
32 2 2.69169 0.202821 2.58257
33 2 2.83174 3.17257 2.6411
34 2 5.26934 1.27078 2.08431
35 2 0.758207 0.384421 4.5846
ITEM: TIMESTEP
17000
ITEM: NUMBER OF ATOMS
35
ITEM: BOX BOUNDS xy xz yz pp pp pp
0.0000000000000000e+00 7.6685730000000003e+00 2.5561910000000001e+00
0.0000000000000000e+00 4.4274529999999999e+00 0.0000000000000000e+00
0.0000000000000000e+00 3.6699264999999997e+01 0.0000000000000000e+00
ITEM: ATOMS id type x y z
1 1 1.96985 0.901917 0.459145
2 1 4.50917 0.596522 35.2598
3 1 2.11967 1.11221 34.419
4 1 3.48515 2.74577 0.143706
5 1 5.38187 3.31798 35.436
6 1 6.57354 3.50272 0.46316
7 1 6.4737 2.5766 28.6652
8 1 6.51553 3.33358 33.2604
9 1 4.84004 2.47798 30.7755
10 1 2.65219 0.583486 32.0614
11 1 2.42078 2.83566 31.264
12 1 3.61712 3.06463 33.8071
13 1 3.32077 1.2248 29.7049
14 1 5.55547 1.06428 32.6287
15 1 0.620637 0.0981624 30.1051
16 2 3.72581 2.95983 14.4768
17 2 2.27731 3.69944 16.863
18 2 5.92672 1.7395 14.9317
19 2 4.57309 2.08339 17.1253
20 2 0.853489 0.890761 10.0938
21 2 3.32264 0.591768 15.1378
22 2 1.69875 2.90994 12.3824
23 2 4.52097 1.30059 12.2218
24 2 4.34675 0.854344 6.99273
25 2 3.65266 3.79397 7.37747
26 2 5.98055 3.96892 9.41579
27 2 4.60581 4.28994 12.306
28 2 3.64173 2.48204 10.1513
29 2 1.92157 1.82806 7.51155
30 2 3.26059 1.76701 4.59687
31 2 5.70095 3.23689 5.46952
32 2 5.28491 4.26082 2.77897
33 2 2.47449 3.02318 2.52744
34 2 5.10445 1.88039 2.16426
35 2 0.752399 0.52782 4.78002
ITEM: TIMESTEP
17100
ITEM: NUMBER OF ATOMS
35
ITEM: BOX BOUNDS xy xz yz pp pp pp
0.0000000000000000e+00 7.6685730000000003e+00 2.5561910000000001e+00
0.0000000000000000e+00 4.4274529999999999e+00 0.0000000000000000e+00
0.0000000000000000e+00 3.6699264999999997e+01 0.0000000000000000e+00
ITEM: ATOMS id type x y z
1 1 1.69019 0.969616 0.650203
2 1 4.90645 0.310025 34.9396
3 1 2.16969 0.893441 34.7552
4 1 3.15935 2.67325 0.010026
5 1 5.55977 2.36787 35.5473
6 1 6.24034 4.31692 0.579889
7 1 2.2903 3.10999 29.4348
8 1 6.01617 3.7333 33.5682
9 1 4.89956 2.54574 30.4568
10 1 3.25638 0.0826057 31.4525
11 1 2.10459 2.48379 31.567
12 1 3.755 2.7371 33.046
13 1 3.60424 0.493526 29.2457
14 1 5.1136 0.595594 32.3658
15 1 1.16712 0.438837 30.0754
16 2 3.50392 3.29044 14.2749
17 2 2.61677 3.47196 16.7416
18 2 0.994651 1.6149 15.1094
19 2 4.76587 2.43878 17.2816
20 2 0.877838 1.10915 9.56537
21 2 3.18949 0.0927767 15.2474
22 2 1.71775 2.92049 12.3755
23 2 4.60984 1.17256 12.5098
24 2 4.22648 0.895183 7.23828
25 2 4.16556 3.32419 7.56813
26 2 6.05665 4.05065 9.28047
27 2 2.04954 0.347353 12.1805
28 2 3.11141 2.6909 9.95715
29 2 1.7487 1.85026 7.23415
30 2 3.42318 1.8875 5.05738
31 2 5.86492 3.51168 5.40526
32 2 4.91221 4.39907 2.98839
33 2 2.41122 3.04761 2.66673
34 2 4.82047 1.56908 2.22421
35 2 0.543053 0.568271 4.66464
ITEM: TIMESTEP
17200
ITEM: NUMBER OF ATOMS
35
ITEM: BOX BOUNDS xy xz yz pp pp pp
0.0000000000000000e+00 7.6685730000000003e+00 2.5561910000000001e+00
0.0000000000000000e+00 4.4274529999999999e+00 0.0000000000000000e+00
0.0000000000000000e+00 3.6699264999999997e+01 0.0000000000000000e+00
ITEM: ATOMS id type x y z
1 1 1.07014 0.348354 0.766722
2 1 5.27662 -0.347803 34.9362
3 1 2.83463 1.34675 34.8175
4 1 3.18547 2.50023 0.242648
5 1 5.42062 2.65061 36.3118
6 1 6.18751 4.67529 0.206968
7 1 2.3942 2.96409 29.6
8 1 5.92318 3.36083 33.5028
9 1 4.72888 2.2059 30.4737
10 1 3.25665 -0.0566468 31.2186
11 1 2.0801 2.26328 31.9395
12 1 3.93483 2.24822 33.0892
13 1 3.85595 0.581332 28.5039
14 1 5.62054 0.317681 32.6272
15 1 1.3466 0.922 29.7482
16 2 3.48454 3.12181 14.2054
17 2 2.68596 3.41263 16.7646
18 2 0.972232 1.54907 14.8386
19 2 5.30557 2.38209 17.0553
20 2 0.558556 1.36877 9.8113
21 2 3.31993 0.107339 15.2124
22 2 1.47981 3.10899 12.3071
23 2 4.47141 1.43791 12.5389
24 2 4.51556 0.277586 7.46389
25 2 4.28275 3.55982 7.5766
26 2 5.85003 4.1211 10.0619
27 2 1.92804 0.240096 12.0076
28 2 3.29113 2.48054 10.078
29 2 1.82056 1.90382 7.21392
30 2 3.39355 2.51343 5.03503
31 2 5.80577 3.72695 4.99656
32 2 4.89569 4.289 2.59335
33 2 2.0688 2.99786 2.49221
34 2 4.49599 1.61452 2.4093
35 2 0.56814 0.661577 4.80702
ITEM: TIMESTEP
17300
ITEM: NUMBER OF ATOMS
35
ITEM: BOX BOUNDS xy xz yz pp pp pp
0.0000000000000000e+00 7.6685730000000003e+00 2.5561910000000001e+00
0.0000000000000000e+00 4.4274529999999999e+00 0.0000000000000000e+00
0.0000000000000000e+00 3.6699264999999997e+01 0.0000000000000000e+00
ITEM: ATOMS id type x y z
1 1 1.09228 0.620819 0.191389
2 1 3.58754 3.74788 34.9596
3 1 2.35232 1.29516 34.6512
4 1 2.57369 2.50738 0.112637
5 1 4.94984 2.55046 36.1357
6 1 3.6296 -0.0217949 0.178039
7 1 2.16608 3.27073 29.457
8 1 6.10427 3.68917 34.2411
9 1 4.79622 2.09249 30.8824
10 1 5.99791 4.56898 31.3355
11 1 2.00756 1.83502 31.4839
12 1 4.73316 1.57893 33.4201
13 1 3.82931 1.09778 29.0507
14 1 3.34467 4.09196 32.1603
15 1 1.58694 0.273584 29.575
16 2 3.64261 2.97248 14.5326
17 2 2.95093 3.4941 16.7103
18 2 1.00638 1.4548 14.4644
19 2 5.42418 2.16425 16.7536
20 2 5.78478 1.11657 9.98769
21 2 3.505 0.423081 15.2251
22 2 6.69987 3.19423 12.5735
23 2 4.06466 1.51742 12.1703
24 2 4.5202 0.207411 7.39003
25 2 4.7014 3.45293 7.60634
26 2 5.69694 4.13567 9.92099
27 2 1.37802 0.113773 12.4291
28 2 3.15749 2.73073 9.90528
29 2 1.91759 1.80021 7.48016
30 2 3.15363 2.46544 4.8293
31 2 5.84503 4.03242 4.95516
32 2 4.53159 4.57005 2.41144
33 2 1.71496 2.79811 2.55887
34 2 4.50137 1.61188 2.70695
35 2 0.959521 1.19406 4.91063
ITEM: TIMESTEP
17400
ITEM: NUMBER OF ATOMS
35
ITEM: BOX BOUNDS xy xz yz pp pp pp
0.0000000000000000e+00 7.6685730000000003e+00 2.5561910000000001e+00
0.0000000000000000e+00 4.4274529999999999e+00 0.0000000000000000e+00
0.0000000000000000e+00 3.6699264999999997e+01 0.0000000000000000e+00
ITEM: ATOMS id type x y z
1 1 1.22109 0.240034 36.367
2 1 4.05048 3.18833 33.7742
3 1 2.45698 1.62637 34.0555
4 1 2.36021 2.82846 0.141348
5 1 4.84994 2.19705 36.5338
6 1 3.45952 0.188069 0.394462
7 1 1.63246 3.18515 29.7971
8 1 6.16586 3.76169 34.6244
9 1 5.15916 2.32356 31.2322
10 1 6.51436 4.25299 32.1841
11 1 2.27751 1.69573 31.9262
12 1 4.95157 1.19224 34.0179
13 1 3.46113 1.48008 29.4828
14 1 3.40975 3.8431 31.7562
15 1 4.32002 4.2649 29.55
16 2 4.0226 2.94072 14.4763
17 2 3.07368 3.72597 17.0263
18 2 1.26019 1.42675 14.3983
19 2 5.38657 2.11072 16.9954
20 2 0.74618 1.15876 9.87424
21 2 3.39445 0.131054 15.3743
22 2 6.54305 3.35798 12.4794
23 2 3.49069 1.64223 11.959
24 2 4.66628 0.521077 7.40321
25 2 4.67539 3.04278 7.25911
26 2 5.70516 4.07439 9.77423
27 2 4.16204 4.31168 12.0991
28 2 2.93325 2.89004 9.61282
29 2 2.18491 1.63006 7.48655
30 2 3.47857 2.79454 5.13117
31 2 5.83934 4.28084 4.97594
32 2 1.50786 -0.00832579 2.58369
33 2 6.72603 3.2249 2.51064
34 2 4.28105 1.42784 2.42476
35 2 0.733841 1.24259 5.21949
ITEM: TIMESTEP
17500
ITEM: NUMBER OF ATOMS
35
ITEM: BOX BOUNDS xy xz yz pp pp pp
0.0000000000000000e+00 7.6685730000000003e+00 2.5561910000000001e+00
0.0000000000000000e+00 4.4274529999999999e+00 0.0000000000000000e+00
0.0000000000000000e+00 3.6699264999999997e+01 0.0000000000000000e+00
ITEM: ATOMS id type x y z
1 1 3.40979 4.07112 36.131
2 1 3.94879 3.49411 33.268
3 1 2.87674 1.41017 34.9125
4 1 2.22545 2.18857 0.381493
5 1 4.96872 2.43942 0.422724
6 1 3.44553 0.253245 0.53887
7 1 6.40738 3.49611 30.4945
8 1 6.53723 3.38735 35.2971
9 1 5.10668 1.63946 32.0989
10 1 6.40364 3.80519 33.0351
11 1 2.41201 1.88833 32.0935
12 1 5.65156 1.08466 34.0568
13 1 3.7491 1.66976 29.7481
14 1 3.54392 4.0728 31.1444
15 1 4.327 4.05966 28.857
16 2 3.82833 2.85018 14.5073
17 2 3.27256 3.88671 16.7192
18 2 1.28524 1.2901 14.4046
19 2 5.3451 2.15646 17.1048
20 2 5.53741 1.65406 10.0104
21 2 6.28295 4.19182 15.4613
22 2 6.50661 3.23353 12.3005
23 2 3.9186 1.56306 12.2151
24 2 4.78678 -0.146051 7.63691
25 2 4.80026 3.47305 7.36651
26 2 5.64883 4.31029 9.7798
27 2 3.76399 4.44022 11.8814
28 2 3.33571 2.70897 9.57872
29 2 2.19571 1.69029 6.95678
30 2 3.29004 3.05317 4.77443
31 2 5.99245 4.42685 4.91159
32 2 3.84535 4.45934 2.38461
33 2 6.50909 2.98371 2.67238
34 2 3.93182 1.79029 2.49937
35 2 5.70099 1.37482 4.72454
ITEM: TIMESTEP
17600
ITEM: NUMBER OF ATOMS
35
ITEM: BOX BOUNDS xy xz yz pp pp pp
0.0000000000000000e+00 7.6685730000000003e+00 2.5561910000000001e+00
0.0000000000000000e+00 4.4274529999999999e+00 0.0000000000000000e+00
0.0000000000000000e+00 3.6699264999999997e+01 0.0000000000000000e+00
ITEM: ATOMS id type x y z
1 1 3.89832 3.82881 36.298
2 1 3.7152 3.49745 33.8535
3 1 3.66858 1.19056 34.9015
4 1 2.58807 1.70962 0.315073
5 1 5.03023 1.63638 0.0744824
6 1 6.4638 4.21547 0.697913
7 1 6.16502 3.60639 30.7192
8 1 6.80909 3.34213 35.4974
9 1 4.50879 1.73228 31.9134
10 1 6.18912 4.25019 33.1838
11 1 2.1028 1.0415 32.3558
12 1 5.96696 1.12176 34.5943
13 1 4.31806 1.77322 29.5615
14 1 3.80096 4.13028 30.8344
15 1 4.27952 3.96168 28.4548
16 2 3.66591 2.71391 14.5901
17 2 3.66534 4.08814 16.9692
18 2 1.22607 1.17613 14.6118
19 2 5.49058 2.19483 16.671
20 2 5.84651 1.81976 9.55661
21 2 6.3318 4.23424 14.9187
22 2 6.3853 2.74695 12.3683
23 2 4.06038 1.1776 12.5158
24 2 4.91712 0.348176 7.58061
25 2 4.83089 2.95385 7.02026
26 2 3.27582 0.320854 10.1179
27 2 1.24658 -0.0867479 11.8659
28 2 2.95835 2.976 9.64039
29 2 2.1387 1.78576 6.93446
30 2 3.23968 3.40283 4.89144
31 2 3.167 0.0864322 4.94999
32 2 1.09722 0.325953 2.15856
33 2 5.98818 3.18729 2.68157
34 2 3.57655 1.58431 2.75011
35 2 5.76561 1.46995 4.82542
ITEM: TIMESTEP
17700
ITEM: NUMBER OF ATOMS
35
ITEM: BOX BOUNDS xy xz yz pp pp pp
0.0000000000000000e+00 7.6685730000000003e+00 2.5561910000000001e+00
0.0000000000000000e+00 4.4274529999999999e+00 0.0000000000000000e+00
0.0000000000000000e+00 3.6699264999999997e+01 0.0000000000000000e+00
ITEM: ATOMS id type x y z
1 1 4.77864 3.71318 36.0294
2 1 4.08192 3.55848 33.406
3 1 3.68428 1.03717 34.4682
4 1 2.8891 2.03594 0.42229
5 1 5.58751 1.74873 0.516823
6 1 6.98204 4.24076 0.514775
7 1 5.93684 3.42803 30.1923
8 1 7.32778 3.41941 34.9447
9 1 4.29165 1.6073 31.9056
10 1 6.48388 3.50366 32.4453
11 1 1.68563 1.38077 32.2197
12 1 0.981683 1.18292 34.6675
13 1 4.71276 1.37352 29.497
14 1 3.11076 3.94873 30.7381
15 1 4.47449 4.05111 28.9224
16 2 3.53608 2.69936 14.869
17 2 3.68327 4.23408 17.0133
18 2 1.37368 0.890877 14.3884
19 2 5.87017 2.51559 16.5795
20 2 5.6722 1.99544 9.62147
21 2 6.38496 4.24517 14.7271
22 2 6.45788 2.38807 12.1745
23 2 3.82449 1.10285 12.2291
24 2 4.56167 0.133149 7.30959
25 2 4.74846 3.27789 7.27509
26 2 3.25741 0.242996 9.78714
27 2 4.11169 3.8094 12.2382
28 2 3.32341 3.66676 9.6635
29 2 2.39964 1.63159 7.63216
30 2 2.99508 3.21713 4.9588
31 2 3.13372 0.418156 5.16367
32 2 0.696127 0.158897 2.56336
33 2 5.49302 3.12017 2.72544
34 2 3.24123 1.59899 2.61786
35 2 5.7466 1.87089 4.9116
ITEM: TIMESTEP
17800
ITEM: NUMBER OF ATOMS
35
ITEM: BOX BOUNDS xy xz yz pp pp pp
0.0000000000000000e+00 7.6685730000000003e+00 2.5561910000000001e+00
0.0000000000000000e+00 4.4274529999999999e+00 0.0000000000000000e+00
0.0000000000000000e+00 3.6699264999999997e+01 0.0000000000000000e+00
ITEM: ATOMS id type x y z
1 1 4.8604 4.36172 35.9952
2 1 4.32781 3.79867 33.356
3 1 3.44189 0.98288 34.0232
4 1 3.6032 2.04908 -0.0601441
5 1 6.1145 1.75753 0.352476
6 1 6.86563 4.12909 0.369534
7 1 5.87855 2.92481 30.0447
8 1 2.63851 3.04993 34.4598
9 1 4.47211 1.50882 31.8074
10 1 6.5718 3.47379 32.6648
11 1 1.75549 1.35033 31.1774
12 1 0.764027 1.59789 34.7457
13 1 4.51275 0.666174 29.3497
14 1 3.48716 3.41545 30.9655
15 1 4.18605 4.74782 28.9187
16 2 3.70808 2.25053 14.9199
17 2 3.62707 4.33268 16.6661
18 2 1.14966 1.19286 14.4134
19 2 6.20651 2.62087 16.7548
20 2 5.28701 1.99184 9.77674
21 2 6.52235 4.1288 14.561
22 2 1.83266 2.42965 11.9712
23 2 4.18711 0.919376 12.0946
24 2 4.71276 -0.113636 7.26889
25 2 4.62197 3.40576 7.3794
26 2 3.27902 0.327622 9.78199
27 2 4.18756 3.7043 12.5772
28 2 3.16391 3.68379 10.0313
29 2 2.11066 1.86566 7.90244
30 2 3.007 3.19489 5.05212
31 2 3.10125 0.363409 4.94333
32 2 0.327411 0.173604 2.90433
33 2 5.47788 3.22345 2.54828
34 2 2.79983 1.73577 2.56281
35 2 5.5327 1.93222 5.29418
ITEM: TIMESTEP
17900
ITEM: NUMBER OF ATOMS
35
ITEM: BOX BOUNDS xy xz yz pp pp pp
0.0000000000000000e+00 7.6685730000000003e+00 2.5561910000000001e+00
0.0000000000000000e+00 4.4274529999999999e+00 0.0000000000000000e+00
0.0000000000000000e+00 3.6699264999999997e+01 0.0000000000000000e+00
ITEM: ATOMS id type x y z
1 1 4.85658 4.10158 35.709
2 1 4.20751 3.80534 33.0912
3 1 3.34932 0.931986 33.9114
4 1 4.1712 2.16863 36.6707
5 1 1.0934 1.6132 0.27347
6 1 7.3375 4.0281 0.684716
7 1 5.46896 2.53724 29.8848
8 1 2.26469 3.35258 35.1694
9 1 5.11618 1.15469 31.9806
10 1 6.7855 3.20757 32.1662
11 1 2.56826 0.854029 31.4088
12 1 5.64908 1.97184 34.2996
13 1 4.33503 0.889648 29.7479
14 1 3.29954 3.22673 30.4611
15 1 1.61088 0.681498 28.7901
16 2 3.7762 2.12295 15.1625
17 2 1.16761 0.0356107 16.2583
18 2 1.17704 1.3225 14.2819
19 2 6.4253 2.69484 16.9706
20 2 5.16577 1.95453 9.81969
21 2 6.43321 3.83589 14.605
22 2 2.09847 2.13671 12.0621
23 2 4.62936 0.859989 12.3634
24 2 4.35424 0.752253 7.53249
25 2 4.59035 3.35208 7.4654
26 2 2.81709 0.218119 9.95997
27 2 4.60083 3.74225 12.7404
28 2 3.01654 3.6278 10.0175
29 2 1.97228 1.75196 7.69053
30 2 3.09374 3.13487 5.07225
31 2 2.83873 0.123091 4.97988
32 2 5.21191 0.665785 2.72167
33 2 5.21899 3.45726 2.44611
34 2 2.67854 1.84871 2.26159
35 2 5.71452 1.60145 5.21043
ITEM: TIMESTEP
18000
ITEM: NUMBER OF ATOMS
35
ITEM: BOX BOUNDS xy xz yz pp pp pp
0.0000000000000000e+00 7.6685730000000003e+00 2.5561910000000001e+00
0.0000000000000000e+00 4.4274529999999999e+00 0.0000000000000000e+00
0.0000000000000000e+00 3.6699264999999997e+01 0.0000000000000000e+00
ITEM: ATOMS id type x y z
1 1 5.23435 3.8382 35.6382
2 1 3.94459 3.01597 32.6491
3 1 3.1693 1.37363 34.0645
4 1 3.69119 1.79744 36.6054
5 1 1.265 1.28162 -0.0200907
6 1 7.03187 3.88063 0.509068
7 1 6.11024 2.92474 30.3285
8 1 2.6238 4.0033 34.5784
9 1 5.62794 1.02217 31.9251
10 1 6.69864 2.82108 32.722
11 1 2.70831 0.595817 31.6675
12 1 5.59575 1.70105 34.3233
13 1 3.88898 0.677237 29.286
14 1 3.52062 3.02745 30.1654
15 1 1.33098 0.854683 29.3628
16 2 3.74408 2.15875 15.3755
17 2 1.43464 -0.094932 16.9223
18 2 1.4081 1.11315 14.2157
19 2 6.5568 2.67998 17.0127
20 2 5.23333 1.9982 10.0864
21 2 6.62417 3.98669 14.8142
22 2 2.31636 2.27409 12.0143
23 2 4.58784 0.586916 12.3523
24 2 4.31399 0.688267 7.51465
25 2 4.29838 3.82383 7.34287
26 2 2.69908 0.414461 10.1501
27 2 4.74445 3.36263 12.5815
28 2 2.67716 3.43244 9.47654
29 2 1.66281 2.16347 7.55797
30 2 3.05905 2.89114 4.93081
31 2 3.15674 0.0708124 4.83468
32 2 5.10065 0.944696 2.72407
33 2 4.77955 3.71427 2.10701
34 2 2.65182 1.99676 2.61938
35 2 5.81655 1.63345 5.14463
ITEM: TIMESTEP
18100
ITEM: NUMBER OF ATOMS
35
ITEM: BOX BOUNDS xy xz yz pp pp pp
0.0000000000000000e+00 7.6685730000000003e+00 2.5561910000000001e+00
0.0000000000000000e+00 4.4274529999999999e+00 0.0000000000000000e+00
0.0000000000000000e+00 3.6699264999999997e+01 0.0000000000000000e+00
ITEM: ATOMS id type x y z
1 1 5.10567 3.86437 35.6185
2 1 4.6657 2.63209 32.6083
3 1 2.69349 1.26256 34.4365
4 1 3.52011 1.86476 0.193313
5 1 1.16746 1.17136 0.251403
6 1 7.02592 3.37012 0.369035
7 1 6.34334 3.21507 30.5179
8 1 3.07579 3.55744 34.9578
9 1 5.21242 0.0996294 31.5471
10 1 6.93782 3.12914 33.0972
11 1 2.83702 1.04539 31.9353
12 1 5.44029 1.48389 34.4106
13 1 3.576 0.915568 28.7026
14 1 3.66065 2.74422 30.2713
15 1 1.40277 0.649384 29.8945
16 2 4.09992 2.54303 15.3128
17 2 4.38881 4.28086 17.3203
18 2 1.63527 0.807416 14.6099
19 2 1.46402 2.42949 17.1447
20 2 5.19621 2.12033 9.81506
21 2 6.71993 3.68491 14.9396
22 2 2.30022 2.15794 12.2181
23 2 4.48311 0.713295 12.4262
24 2 4.07676 0.907571 7.26977
25 2 4.23427 4.09914 7.26212
26 2 2.6914 0.415713 9.79349
27 2 4.8256 3.25588 12.5321
28 2 2.77755 3.38225 9.75304
29 2 6.44899 2.65989 7.43432
30 2 3.47625 3.15861 4.94017
31 2 6.11164 4.2714 4.56375
32 2 4.76127 0.740977 2.47691
33 2 4.69621 3.79994 1.76798
34 2 1.99011 2.30299 2.58757
35 2 5.52215 1.59797 5.01083
ITEM: TIMESTEP
18200
ITEM: NUMBER OF ATOMS
35
ITEM: BOX BOUNDS xy xz yz pp pp pp
0.0000000000000000e+00 7.6685730000000003e+00 2.5561910000000001e+00
0.0000000000000000e+00 4.4274529999999999e+00 0.0000000000000000e+00
0.0000000000000000e+00 3.6699264999999997e+01 0.0000000000000000e+00
ITEM: ATOMS id type x y z
1 1 5.42977 3.65761 36.0814
2 1 4.19653 3.13396 32.7435
3 1 2.72727 0.802849 34.3261
4 1 3.59312 1.52045 -0.00274722
5 1 0.933256 1.30218 36.5879
6 1 2.55325 3.64794 0.731818
7 1 5.89766 2.95547 29.9443
8 1 3.46827 2.96301 35.1785
9 1 5.32087 0.642276 32.1699
10 1 6.49616 3.31215 33.4686
11 1 2.63854 1.21814 31.7204
12 1 5.04119 0.888401 34.3375
13 1 4.15446 0.520054 28.9438
14 1 3.64967 2.52043 30.299
15 1 1.52623 0.854489 29.454
16 2 4.3792 2.10749 14.9318
17 2 4.71073 3.90651 17.1576
18 2 1.83894 0.794281 14.978
19 2 1.64953 2.22541 17.346
20 2 5.21846 1.73483 9.7092
21 2 6.94008 3.81146 15.1009
22 2 1.90735 1.72745 12.3325
23 2 4.7286 0.805952 12.422
24 2 3.85321 1.74519 7.18482
25 2 1.18211 0.0161114 7.47097
26 2 2.78511 0.722708 9.60962
27 2 4.90682 3.76097 12.4908
28 2 2.9579 3.55196 10.3395
29 2 6.69085 2.94886 7.38267
30 2 3.35936 3.02942 4.37504
31 2 5.61366 4.35358 4.67499
32 2 4.31247 0.871149 2.42856
33 2 4.53919 3.59546 1.93806
34 2 1.71126 2.30168 2.51273
35 2 0.920189 1.26588 4.62657
ITEM: TIMESTEP
18300
ITEM: NUMBER OF ATOMS
35
ITEM: BOX BOUNDS xy xz yz pp pp pp
0.0000000000000000e+00 7.6685730000000003e+00 2.5561910000000001e+00
0.0000000000000000e+00 4.4274529999999999e+00 0.0000000000000000e+00
0.0000000000000000e+00 3.6699264999999997e+01 0.0000000000000000e+00
ITEM: ATOMS id type x y z
1 1 5.43634 3.28868 36.3253
2 1 3.68053 3.37927 31.8982
3 1 2.07663 0.783661 33.9073
4 1 3.66278 1.29915 36.6803
5 1 1.2236 0.99756 36.494
6 1 3.01343 3.4319 36.6479
7 1 6.08148 3.02065 30.8732
8 1 3.35533 2.94641 34.4413
9 1 4.88192 1.11724 31.6271
10 1 6.16948 3.10349 33.398
11 1 2.40089 0.792412 31.731
12 1 4.73653 1.16238 34.6045
13 1 4.48892 0.55234 29.6262
14 1 3.08681 2.95065 29.8694
15 1 2.29963 0.471863 29.5163
16 2 4.51838 2.08308 14.7961
17 2 4.68672 3.25973 16.9272
18 2 1.98241 0.867929 14.8001
19 2 2.19446 2.01814 17.1399
20 2 5.58494 2.12715 9.72762
21 2 2.23418 3.59531 15.0648
22 2 2.05734 2.37463 12.6329
23 2 4.47202 0.605141 12.5332
24 2 3.95407 2.16192 6.82433
25 2 1.03324 0.505246 7.44776
26 2 2.93049 0.656201 9.7615
27 2 4.7477 3.50714 12.4084
28 2 2.98579 3.48134 10.3483
29 2 6.3381 3.33698 7.41228
30 2 2.96615 2.63678 4.51179
31 2 5.77029 4.22309 5.20574
32 2 4.19257 0.85492 2.59382
33 2 4.54862 3.82678 2.45129
34 2 1.64524 1.98223 1.99075
35 2 5.72472 1.39799 5.04659
ITEM: TIMESTEP
18400
ITEM: NUMBER OF ATOMS
35
ITEM: BOX BOUNDS xy xz yz pp pp pp
0.0000000000000000e+00 7.6685730000000003e+00 2.5561910000000001e+00
0.0000000000000000e+00 4.4274529999999999e+00 0.0000000000000000e+00
0.0000000000000000e+00 3.6699264999999997e+01 0.0000000000000000e+00
ITEM: ATOMS id type x y z
1 1 5.19697 3.38646 36.2951
2 1 3.53133 3.41804 31.4083
3 1 2.0374 0.712435 33.9095
4 1 4.2527 1.1286 0.0507539
5 1 1.528 1.10764 36.5059
6 1 2.54263 3.4451 0.0866892
7 1 6.11675 3.553 31.0004
8 1 3.0344 3.2089 34.0283
9 1 5.05974 1.17653 32.2293
10 1 5.63311 2.99748 33.9838
11 1 2.46286 1.10977 31.56
12 1 4.36677 0.65579 34.5097
13 1 5.11844 1.08285 29.7343
14 1 2.67842 2.44906 28.9449
15 1 1.96166 -0.109052 29.3266
16 2 4.97224 2.06947 14.6315
17 2 4.85389 3.24309 17.1646
18 2 2.12512 0.299792 14.6974
19 2 2.5073 1.64897 16.8994
20 2 5.56893 2.31326 10.2037
21 2 2.16239 3.66264 15.0069
22 2 2.15138 2.15933 12.498
23 2 4.51311 0.757125 12.2807
24 2 3.60665 2.15518 7.38963
25 2 1.19838 0.687907 7.52241
26 2 3.20039 0.76695 9.86766
27 2 4.41069 3.7128 12.3146
28 2 3.1119 3.54471 9.5398
29 2 6.39341 3.60362 7.77235
30 2 2.71788 2.83328 4.65593
31 2 5.61575 4.33189 5.08683
32 2 4.55064 0.361629 2.61031
33 2 4.37236 3.71832 2.74266
34 2 1.52042 2.19169 2.22849
35 2 5.39146 1.43133 4.74614
ITEM: TIMESTEP
18500
ITEM: NUMBER OF ATOMS
35
ITEM: BOX BOUNDS xy xz yz pp pp pp
0.0000000000000000e+00 7.6685730000000003e+00 2.5561910000000001e+00
0.0000000000000000e+00 4.4274529999999999e+00 0.0000000000000000e+00
0.0000000000000000e+00 3.6699264999999997e+01 0.0000000000000000e+00
ITEM: ATOMS id type x y z
1 1 5.68234 3.7151 0.22655
2 1 3.7831 3.40719 31.6421
3 1 1.73207 0.673291 33.6237
4 1 3.89698 1.74235 0.690879
5 1 1.26932 1.32012 0.25341
6 1 2.79473 3.79411 36.2701
7 1 6.56619 3.78396 30.8459
8 1 3.00999 2.76516 33.8874
9 1 4.77614 1.17288 32.3023
10 1 5.35519 2.64483 34.3463
11 1 2.37066 1.41429 31.4378
12 1 4.05844 0.381346 34.5546
13 1 5.25223 1.88046 29.7652
14 1 2.52622 2.06244 29.1316
15 1 4.37384 3.82926 28.7325
16 2 5.13089 1.75577 14.7285
17 2 5.08212 3.32952 17.0415
18 2 2.26069 0.149939 14.4761
19 2 2.827 1.52647 16.7103
20 2 5.70657 2.21294 10.1541
21 2 2.25298 3.54188 15.165
22 2 2.12856 2.1742 12.3893
23 2 4.54317 0.336014 12.3013
24 2 3.90578 2.00365 7.47066
25 2 1.2408 0.920709 7.23353
26 2 3.12286 1.02415 9.99169
27 2 4.44352 3.83571 12.0218
28 2 3.38249 3.96039 9.7255
29 2 6.05166 3.64556 7.31549
30 2 2.83452 2.91799 5.20439
31 2 2.37185 0.120607 4.97865
32 2 4.13359 0.389858 2.47563
33 2 4.28807 3.39406 2.36558
34 2 1.65638 1.9227 2.77316
35 2 5.24582 1.60955 5.04299
ITEM: TIMESTEP
18600
ITEM: NUMBER OF ATOMS
35
ITEM: BOX BOUNDS xy xz yz pp pp pp
0.0000000000000000e+00 7.6685730000000003e+00 2.5561910000000001e+00
0.0000000000000000e+00 4.4274529999999999e+00 0.0000000000000000e+00
0.0000000000000000e+00 3.6699264999999997e+01 0.0000000000000000e+00
ITEM: ATOMS id type x y z
1 1 5.7852 4.10673 0.401633
2 1 4.46293 3.47657 31.5575
3 1 1.27985 0.140023 34.1484
4 1 3.56699 1.71481 36.1259
5 1 1.18879 1.71479 0.512258
6 1 3.07781 3.99228 36.0566
7 1 6.89397 3.87782 30.6966
8 1 2.3588 2.48444 33.6858
9 1 4.73407 1.37877 32.4985
10 1 5.44348 2.32426 34.8214
11 1 1.96746 1.57644 31.6013
12 1 3.79181 0.460707 34.4868
13 1 4.95379 1.72801 30.0971
14 1 2.71615 1.90102 29.231
15 1 4.20361 4.20137 29.1299
16 2 4.90848 1.75045 14.6179
17 2 5.36786 3.21021 16.6363
18 2 2.36748 0.185383 14.413
19 2 3.23913 1.33922 16.8683
20 2 5.93099 2.6313 9.53851
21 2 2.62139 3.38954 15.0816
22 2 2.29386 2.17447 12.7431
23 2 4.50452 0.473995 12.5078
24 2 3.87865 2.09417 7.6303
25 2 1.40715 0.788299 7.44293
26 2 3.22235 1.13542 9.98433
27 2 4.69766 3.02619 11.9434
28 2 2.94158 4.06444 9.58298
29 2 6.12229 3.87531 7.27445
30 2 2.46682 3.31413 5.35045
31 2 2.4849 -0.0455048 4.74976
32 2 4.15887 0.302923 2.81973
33 2 3.89422 3.32825 2.34894
34 2 1.75834 1.86812 2.9277
35 2 4.70195 1.69285 4.87875
ITEM: TIMESTEP
18700
ITEM: NUMBER OF ATOMS
35
ITEM: BOX BOUNDS xy xz yz pp pp pp
0.0000000000000000e+00 7.6685730000000003e+00 2.5561910000000001e+00
0.0000000000000000e+00 4.4274529999999999e+00 0.0000000000000000e+00
0.0000000000000000e+00 3.6699264999999997e+01 0.0000000000000000e+00
ITEM: ATOMS id type x y z
1 1 5.11797 4.25195 0.434928
2 1 5.13308 3.49998 31.9549
3 1 1.18133 -0.0240676 33.756
4 1 3.06832 2.05107 36.2249
5 1 1.10195 1.97176 0.648673
6 1 2.50708 4.28059 0.253245
7 1 6.79507 4.03479 30.772
8 1 2.71523 2.33282 33.8264
9 1 4.57793 1.4309 32.6152
10 1 5.29537 2.12611 35.2243
11 1 2.00938 1.59334 31.7925
12 1 6.09071 4.06772 33.9138
13 1 5.0237 1.97328 30.0192
14 1 2.94859 2.06672 29.3486
15 1 3.9985 4.26034 29.7131
16 2 4.86504 1.78135 14.5017
17 2 5.89737 2.81034 16.892
18 2 2.6189 0.174253 14.4842
19 2 3.62973 1.19906 16.9076
20 2 5.59096 2.57995 9.63283
21 2 2.61463 3.41959 15.0495
22 2 1.97115 1.98255 12.4059
23 2 5.09436 0.0830021 12.0271
24 2 3.54337 2.60402 7.54777
25 2 1.20499 0.98103 7.26127
26 2 3.04391 1.09994 10.2589
27 2 4.68897 3.1081 11.9315
28 2 3.19594 4.15037 9.82596
29 2 6.50565 4.13159 7.33638
30 2 2.37139 3.31693 4.89053
31 2 4.78304 4.45982 4.99762
32 2 4.38463 0.393345 2.35389
33 2 4.08607 2.98819 2.19131
34 2 1.39256 1.92447 3.08406
35 2 4.53953 1.69409 5.00653
ITEM: TIMESTEP
18800
ITEM: NUMBER OF ATOMS
35
ITEM: BOX BOUNDS xy xz yz pp pp pp
0.0000000000000000e+00 7.6685730000000003e+00 2.5561910000000001e+00
0.0000000000000000e+00 4.4274529999999999e+00 0.0000000000000000e+00
0.0000000000000000e+00 3.6699264999999997e+01 0.0000000000000000e+00
ITEM: ATOMS id type x y z
1 1 1.83189 0.205478 -0.310317
2 1 5.05956 3.39297 32.3348
3 1 1.07076 -0.131401 34.099
4 1 3.60749 2.26642 37.0574
5 1 6.10933 2.54882 0.429723
6 1 7.04798 4.506 36.353
7 1 7.24601 4.43667 30.2008
8 1 2.69879 1.8689 34.3513
9 1 4.40803 0.817937 32.42
10 1 5.28124 2.17461 34.9569
11 1 2.01158 1.46183 31.797
12 1 5.98183 4.09269 34.3636
13 1 5.66105 2.36747 29.8832
14 1 2.7573 2.15731 29.5095
15 1 4.42516 4.35911 29.9478
16 2 5.16905 1.82629 14.4633
17 2 6.34283 2.15649 16.8798
18 2 2.7666 0.242479 14.6555
19 2 3.86938 1.20721 16.7138
20 2 5.58128 2.21656 9.61935
21 2 2.74382 3.21632 15.0216
22 2 2.01204 1.69109 12.4915
23 2 4.50986 0.257603 12.4348
24 2 3.55429 2.79289 7.21576
25 2 1.18201 1.60006 7.16917
26 2 3.1555 1.19262 9.88027
27 2 4.71557 3.34398 12.3819
28 2 3.4858 3.99584 9.43068
29 2 6.14255 4.48458 7.47659
30 2 2.245 3.38846 4.83124
31 2 2.28388 0.211243 5.02848
32 2 3.72143 0.0652134 2.37009
33 2 4.0495 3.1815 2.3986
34 2 1.36004 1.33263 2.93448
35 2 4.58779 1.688 5.12029
ITEM: TIMESTEP
18900
ITEM: NUMBER OF ATOMS
35
ITEM: BOX BOUNDS xy xz yz pp pp pp
0.0000000000000000e+00 7.6685730000000003e+00 2.5561910000000001e+00
0.0000000000000000e+00 4.4274529999999999e+00 0.0000000000000000e+00
0.0000000000000000e+00 3.6699264999999997e+01 0.0000000000000000e+00
ITEM: ATOMS id type x y z
1 1 2.04798 0.11561 36.3821
2 1 5.00369 3.05446 31.852
3 1 3.55278 3.86194 33.8625
4 1 3.30438 2.55003 0.389894
5 1 5.89628 2.55334 0.0268784
6 1 4.82292 0.360065 0.257641
7 1 4.52248 -0.142027 29.5882
8 1 1.95393 2.26398 34.8643
9 1 4.83022 0.607604 31.8128
10 1 4.70059 1.84669 34.5716
11 1 1.9958 1.96574 32.3398
12 1 6.1204 4.25906 34.4747
13 1 6.08622 1.8611 30.045
14 1 3.54373 2.36975 30.2132
15 1 4.725 4.73671 30.1994
16 2 5.49793 1.75843 14.4586
17 2 1.62411 1.81593 16.8373
18 2 2.62153 0.0493431 15.037
19 2 4.21574 0.975865 17.1
20 2 6.02415 2.5071 9.99955
21 2 2.92976 3.36223 14.8068
22 2 2.0918 2.05019 12.3421
23 2 4.22516 0.270736 12.2895
24 2 3.73726 2.97841 7.01716
25 2 1.10782 1.85737 7.18123
26 2 3.41473 1.19935 9.98654
27 2 4.34929 3.18419 11.9488
28 2 3.02351 3.91479 9.73475
29 2 3.38764 0.0137357 7.65087
30 2 2.07279 3.31818 4.85511
31 2 2.35105 0.161009 5.21426
32 2 6.12011 4.1553 2.42964
33 2 3.43741 3.14398 2.81464
34 2 1.18586 1.58806 2.31635
35 2 4.78503 1.72833 4.43218
ITEM: TIMESTEP
19000
ITEM: NUMBER OF ATOMS
35
ITEM: BOX BOUNDS xy xz yz pp pp pp
0.0000000000000000e+00 7.6685730000000003e+00 2.5561910000000001e+00
0.0000000000000000e+00 4.4274529999999999e+00 0.0000000000000000e+00
0.0000000000000000e+00 3.6699264999999997e+01 0.0000000000000000e+00
ITEM: ATOMS id type x y z
1 1 2.24662 0.517068 36.9501
2 1 5.35545 2.93892 32.46
3 1 3.04566 4.48615 33.945
4 1 3.19049 2.67125 0.00776808
5 1 5.55512 2.65863 -0.332794
6 1 4.65262 0.177863 -0.0507197
7 1 5.0235 -0.17769 29.05
8 1 2.11783 1.80796 34.7245
9 1 5.04464 0.247746 31.6675
10 1 4.46742 1.7654 34.2284
11 1 2.57757 2.01565 32.6252
12 1 5.86322 4.24756 34.2669
13 1 5.83555 2.16109 29.9693
14 1 3.52147 2.46944 30.6059
15 1 5.28766 4.45653 30.6457
16 2 5.22152 1.72259 14.4718
17 2 1.88242 1.92475 16.8255
18 2 3.10092 0.0445442 14.9828
19 2 4.66499 0.575933 16.9936
20 2 5.79677 2.72472 9.86469
21 2 2.84582 3.23966 14.9273
22 2 1.77043 1.73136 12.4312
23 2 4.57859 0.294351 12.3673
24 2 3.73564 2.85535 7.33086
25 2 0.974383 1.35408 7.54392
26 2 3.11442 1.25823 9.98718
27 2 4.30831 3.51833 12.1476
28 2 3.31723 4.48286 9.60083
29 2 3.72806 0.127208 7.52436
30 2 1.8068 3.11992 5.37588
31 2 2.09816 0.588284 4.8173
32 2 5.76238 4.51809 2.49661
33 2 3.38176 2.97838 2.52913
34 2 1.0045 1.51454 1.85812
35 2 4.87133 1.39632 4.41736
ITEM: TIMESTEP
19100
ITEM: NUMBER OF ATOMS
35
ITEM: BOX BOUNDS xy xz yz pp pp pp
0.0000000000000000e+00 7.6685730000000003e+00 2.5561910000000001e+00
0.0000000000000000e+00 4.4274529999999999e+00 0.0000000000000000e+00
0.0000000000000000e+00 3.6699264999999997e+01 0.0000000000000000e+00
ITEM: ATOMS id type x y z
1 1 1.68079 0.429363 -0.100482
2 1 5.52687 2.559 32.3653
3 1 0.596794 -0.29303 34.0808
4 1 3.07016 2.40395 36.8648
5 1 5.95935 2.66436 36.817
6 1 4.54227 0.631305 36.5275
7 1 2.99796 4.42784 29.0681
8 1 1.64072 1.75101 34.3353
9 1 5.36349 -0.120195 31.7511
10 1 4.3169 1.91403 34.4884
11 1 2.96173 1.85936 32.5253
12 1 5.81308 4.22739 34.1407
13 1 6.31095 2.05168 29.9816
14 1 3.61011 2.57613 30.0291
15 1 2.72943 0.270749 30.7007
16 2 5.37106 1.75722 14.9071
17 2 2.06566 1.86527 16.8117
18 2 2.81071 0.167269 14.7113
19 2 4.91773 0.168601 16.8783
20 2 5.53874 3.0499 9.76004
21 2 3.17532 3.23166 14.6765
22 2 1.91586 1.81739 12.6108
23 2 4.27765 0.404198 12.0733
24 2 3.86691 2.80898 7.34388
25 2 1.22555 1.17122 7.04332
26 2 3.24262 1.7138 9.89998
27 2 4.6592 3.22593 12.5518
28 2 0.759899 -0.0332428 10.0955
29 2 3.58255 0.0146968 7.53373
30 2 6.90788 3.19744 5.14706
31 2 1.96951 0.24462 4.7775
32 2 3.4249 -0.00809173 2.20941
33 2 3.19052 3.11665 2.6238
34 2 0.368726 1.74742 2.23143
35 2 4.34071 1.68656 4.81278
ITEM: TIMESTEP
19200
ITEM: NUMBER OF ATOMS
35
ITEM: BOX BOUNDS xy xz yz pp pp pp
0.0000000000000000e+00 7.6685730000000003e+00 2.5561910000000001e+00
0.0000000000000000e+00 4.4274529999999999e+00 0.0000000000000000e+00
0.0000000000000000e+00 3.6699264999999997e+01 0.0000000000000000e+00
ITEM: ATOMS id type x y z
1 1 1.55796 0.316485 36.6498
2 1 5.70425 2.33006 32.0571
3 1 3.13298 3.8807 34.2958
4 1 3.02616 2.33533 0.27407
5 1 5.48517 2.70246 -0.420107
6 1 4.53721 0.453194 36.6193
7 1 0.471331 0.230386 29.3405
8 1 1.94306 1.94053 34.5325
9 1 2.9231 4.36014 31.607
10 1 4.36118 2.02247 34.5826
11 1 3.12608 1.60755 32.0861
12 1 5.23643 4.23974 33.7786
13 1 2.02547 2.74706 30.1582
14 1 4.51835 1.84713 30.0582
15 1 2.54787 -0.159173 30.5646
16 2 5.62902 1.843 14.9622
17 2 2.62386 1.59872 16.9365
18 2 2.98131 0.260592 14.8201
19 2 7.56215 4.20177 16.9377
20 2 6.01556 2.87087 10.0074
21 2 2.71376 3.53977 14.4383
22 2 1.96865 2.04268 12.3116
23 2 4.08024 0.371511 12.3864
24 2 3.81429 3.06701 7.39663
25 2 1.27281 1.52555 7.0396
26 2 3.13864 1.79306 9.72037
27 2 4.53239 2.96491 12.1896
28 2 0.67062 0.230782 10.0658
29 2 6.32474 4.24762 7.6043
30 2 6.77319 3.3405 4.81954
31 2 1.71973 -0.0877602 4.48829
32 2 5.60501 4.61763 2.14267
33 2 2.98795 3.2853 2.48905
34 2 5.56036 1.66028 3.02988
35 2 4.01645 1.58133 5.15623
ITEM: TIMESTEP
19300
ITEM: NUMBER OF ATOMS
35
ITEM: BOX BOUNDS xy xz yz pp pp pp
0.0000000000000000e+00 7.6685730000000003e+00 2.5561910000000001e+00
0.0000000000000000e+00 4.4274529999999999e+00 0.0000000000000000e+00
0.0000000000000000e+00 3.6699264999999997e+01 0.0000000000000000e+00
ITEM: ATOMS id type x y z
1 1 1.62757 0.23044 36.6371
2 1 6.06624 2.41467 32.1337
3 1 2.54907 4.27667 34.7656
4 1 3.30005 2.62981 35.9849
5 1 5.44679 2.27604 0.60437
6 1 4.04846 0.107039 36.7668
7 1 3.81511 4.17466 28.817
8 1 1.57204 1.75546 34.3699
9 1 2.79733 4.16046 32.27
10 1 4.36368 1.9877 33.9198
11 1 3.17196 1.70397 32.0143
12 1 5.5484 3.96113 33.7625
13 1 2.12785 2.30937 29.9363
14 1 4.80386 2.05569 30.2251
15 1 5.56799 4.28262 30.8197
16 2 5.38328 2.10402 15.153
17 2 3.27142 1.40627 17.1988
18 2 2.66056 0.363344 14.8666
19 2 2.66206 4.19644 16.8011
20 2 5.90551 3.30901 9.73484
21 2 3.12159 3.18979 14.466
22 2 1.67953 1.55251 12.0957
23 2 4.25255 0.26072 12.3918
24 2 3.86625 3.39624 7.6379
25 2 1.22003 1.69477 7.3912
26 2 3.43156 1.34408 9.5102
27 2 4.06816 3.46418 12.0393
28 2 0.849055 0.297771 9.76301
29 2 6.52982 4.53748 7.39723
30 2 6.68198 2.98727 4.9729
31 2 3.99254 4.3345 5.0778
32 2 2.72296 0.515013 2.42093
33 2 2.92734 3.14811 2.03208
34 2 5.525 1.7704 2.71183
35 2 3.74176 1.56899 5.2295
ITEM: TIMESTEP
19400
ITEM: NUMBER OF ATOMS
35
ITEM: BOX BOUNDS xy xz yz pp pp pp
0.0000000000000000e+00 7.6685730000000003e+00 2.5561910000000001e+00
0.0000000000000000e+00 4.4274529999999999e+00 0.0000000000000000e+00
0.0000000000000000e+00 3.6699264999999997e+01 0.0000000000000000e+00
ITEM: ATOMS id type x y z
1 1 1.49124 0.310433 0.213006
2 1 6.02879 1.9614 31.9828
3 1 2.71745 4.20568 34.705
4 1 2.8608 1.9524 36.424
5 1 5.64387 2.74653 36.4909
6 1 4.08199 0.11934 0.643443
7 1 4.0855 3.8554 29.8138
8 1 1.61458 2.20955 34.3089
9 1 2.92583 4.28674 32.1134
10 1 4.35976 2.25946 33.9035
11 1 3.55345 1.94132 31.7084
12 1 2.82765 0.0276118 34.2227
13 1 2.17435 2.23141 29.4043
14 1 4.73854 1.24941 29.4253
15 1 6.12223 4.14295 30.6888
16 2 5.60158 2.01481 15.3925
17 2 3.32695 1.58279 17.0475
18 2 2.49848 0.327191 14.8289
19 2 3.198 4.09363 16.6239
20 2 6.05129 3.21513 9.82175
21 2 2.96187 2.87139 14.2819
22 2 1.44804 1.72897 12.4047
23 2 4.10155 0.477639 12.38
24 2 4.14849 3.01951 7.46247
25 2 1.33787 1.78507 7.52402
26 2 3.50076 1.91602 9.92926
27 2 4.22335 3.01362 11.9628
28 2 0.765276 0.297364 9.76844
29 2 3.81742 0.301219 6.92877
30 2 6.40921 2.73419 4.87606
31 2 0.903597 0.153878 5.15321
32 2 2.78774 0.390299 2.93435
33 2 2.91134 3.11451 2.00093
34 2 5.10592 1.82124 2.74489
35 2 3.93917 1.86753 4.92348
ITEM: TIMESTEP
19500
ITEM: NUMBER OF ATOMS
35
ITEM: BOX BOUNDS xy xz yz pp pp pp
0.0000000000000000e+00 7.6685730000000003e+00 2.5561910000000001e+00
0.0000000000000000e+00 4.4274529999999999e+00 0.0000000000000000e+00
0.0000000000000000e+00 3.6699264999999997e+01 0.0000000000000000e+00
ITEM: ATOMS id type x y z
1 1 4.12054 4.43206 0.748503
2 1 1.2049 1.67979 31.754
3 1 0.710236 0.519653 35.1317
4 1 2.6688 2.50486 36.4483
5 1 5.18321 2.80426 36.0586
6 1 3.77342 0.372434 0.327645
7 1 3.80893 3.97311 30.3691
8 1 1.6458 2.53752 33.8964
9 1 3.07182 4.05213 32.959
10 1 4.09345 2.231 34.0849
11 1 3.81706 1.65896 31.5838
12 1 2.91786 0.283513 34.0553
13 1 2.1765 1.80886 29.515
14 1 5.00808 0.920474 29.067
15 1 6.28199 4.02659 30.5073
16 2 5.53483 1.80086 15.3293
17 2 3.1812 1.37876 16.6464
18 2 5.56916 4.2582 14.7039
19 2 3.32332 4.11882 16.7164
20 2 6.18589 3.29767 10.0207
21 2 2.76184 3.40862 14.335
22 2 1.49821 1.65114 12.5402
23 2 4.04445 0.367389 12.4263
24 2 3.93561 3.03986 7.40126
25 2 1.63399 1.6262 7.30982
26 2 3.35627 1.80667 9.78044
27 2 4.37748 3.33083 12.3043
28 2 0.692909 0.552967 9.82347
29 2 3.80411 0.000335871 7.38587
30 2 6.28416 3.22183 4.97773
31 2 0.762658 0.418488 4.84647
32 2 2.64132 -0.03213 3.04748
33 2 2.70523 2.92165 2.701
34 2 5.6053 1.92384 1.6487
35 2 3.56657 1.95412 4.88402
ITEM: TIMESTEP
19600
ITEM: NUMBER OF ATOMS
35
ITEM: BOX BOUNDS xy xz yz pp pp pp
0.0000000000000000e+00 7.6685730000000003e+00 2.5561910000000001e+00
0.0000000000000000e+00 4.4274529999999999e+00 0.0000000000000000e+00
0.0000000000000000e+00 3.6699264999999997e+01 0.0000000000000000e+00
ITEM: ATOMS id type x y z
1 1 3.60148 3.91437 1.00845
2 1 1.4806 1.55135 31.6438
3 1 0.935877 0.68175 35.4152
4 1 2.32201 2.54896 36.2706
5 1 5.02973 3.32021 35.897
6 1 3.81285 0.741289 0.10275
7 1 3.71502 3.50399 30.5509
8 1 1.69474 2.28816 33.8907
9 1 2.8439 4.33398 33.1877
10 1 4.21541 2.14937 33.9523
11 1 3.92707 1.53245 31.5928
12 1 2.90994 0.111946 33.5239
13 1 2.69297 1.44835 29.6535
14 1 4.91316 1.42989 29.6571
15 1 6.25028 3.44783 30.4842
16 2 5.27194 1.52242 14.8793
17 2 3.00721 1.4341 16.8445
18 2 5.44968 4.34332 14.4722
19 2 3.37852 3.987 17.1823
20 2 5.82221 3.28565 10.0788
21 2 3.06801 3.12533 14.6144
22 2 1.80992 1.73648 12.6266
23 2 4.47012 0.719225 12.014
24 2 3.95101 3.2508 7.44133
25 2 1.26691 1.47562 7.22058
26 2 3.24584 1.75706 9.80872
27 2 4.1835 3.29854 11.9975
28 2 0.947361 0.538859 9.83415
29 2 4.21895 0.0391618 7.82673
30 2 5.88626 3.4222 5.32457
31 2 0.821405 0.57819 4.55016
32 2 3.11576 0.15232 2.56497
33 2 2.62246 2.94164 2.65863
34 2 5.35769 1.91777 1.72447
35 2 3.61806 1.80187 5.05117
ITEM: TIMESTEP
19700
ITEM: NUMBER OF ATOMS
35
ITEM: BOX BOUNDS xy xz yz pp pp pp
0.0000000000000000e+00 7.6685730000000003e+00 2.5561910000000001e+00
0.0000000000000000e+00 4.4274529999999999e+00 0.0000000000000000e+00
0.0000000000000000e+00 3.6699264999999997e+01 0.0000000000000000e+00
ITEM: ATOMS id type x y z
1 1 3.87993 4.7151 0.727727
2 1 1.57942 1.37786 31.8356
3 1 0.542424 0.251629 35.0866
4 1 1.96333 2.42205 36.8645
5 1 5.37238 3.57012 35.7934
6 1 4.0988 1.17962 -0.267568
7 1 3.53 3.69247 30.7614
8 1 1.72243 2.38627 34.0432
9 1 2.86371 4.03572 32.8807
10 1 4.16069 1.94028 34.2285
11 1 4.00423 1.5347 31.7931
12 1 2.43163 -0.666632 33.2565
13 1 2.69929 0.86183 29.3243
14 1 5.67873 1.63017 29.6966
15 1 6.07682 3.67845 30.7537
16 2 5.34607 1.33696 14.7615
17 2 2.86218 1.30465 17.0636
18 2 5.44786 4.34683 14.3287
19 2 3.49217 4.16815 16.9431
20 2 5.93589 2.94102 9.92214
21 2 2.88419 2.75629 14.9182
22 2 1.84268 2.19038 12.3748
23 2 4.48086 0.445131 12.2089
24 2 4.12945 3.1283 7.39638
25 2 1.43418 1.71944 7.08031
26 2 3.17333 2.16166 9.65552
27 2 4.19065 3.48922 12.304
28 2 1.03815 0.237452 9.69467
29 2 3.95652 0.278082 7.78429
30 2 5.79849 3.66151 5.21752
31 2 1.15181 0.361926 4.0517
32 2 3.111 0.219883 2.36416
33 2 2.47661 2.76681 2.98958
34 2 5.18463 2.09709 2.41386
35 2 3.4852 1.85521 5.26054
ITEM: TIMESTEP
19800
ITEM: NUMBER OF ATOMS
35
ITEM: BOX BOUNDS xy xz yz pp pp pp
0.0000000000000000e+00 7.6685730000000003e+00 2.5561910000000001e+00
0.0000000000000000e+00 4.4274529999999999e+00 0.0000000000000000e+00
0.0000000000000000e+00 3.6699264999999997e+01 0.0000000000000000e+00
ITEM: ATOMS id type x y z
1 1 0.663157 0.395611 0.977676
2 1 1.90525 1.31593 32.0437
3 1 3.16734 3.54876 34.7495
4 1 1.86456 2.88083 0.317941
5 1 5.40048 3.98795 36.0386
6 1 4.17548 2.16409 0.389135
7 1 3.43344 3.8238 29.6267
8 1 1.34946 1.61505 35.1396
9 1 2.58804 3.8815 32.5482
10 1 3.72953 1.0675 34.1722
11 1 4.43864 1.87485 31.8044
12 1 5.18811 3.72868 33.5383
13 1 3.03064 0.984635 29.659
14 1 5.24698 1.61401 29.5747
15 1 5.96772 3.50906 30.7107
16 2 5.54501 1.29761 14.611
17 2 3.35552 1.19751 17.0582
18 2 5.59293 4.29873 15.1366
19 2 3.24262 4.26577 16.7843
20 2 5.67416 3.14194 9.64477
21 2 2.56028 2.64495 14.5362
22 2 1.44771 1.91776 12.0621
23 2 4.21052 0.591748 12.2136
24 2 4.10212 3.50297 7.24069
25 2 1.60892 1.75443 6.95833
26 2 3.45744 1.70116 10.0224
27 2 4.41279 3.56863 12.5693
28 2 0.937547 0.382351 9.64115
29 2 3.93533 0.357994 7.68034
30 2 6.18415 3.41577 4.85927
31 2 1.02684 0.462784 4.47259
32 2 3.19677 0.40093 1.99891
33 2 2.62524 2.91848 2.96295
34 2 4.8545 2.06438 2.77895
35 2 3.80663 1.80655 5.07655
ITEM: TIMESTEP
19900
ITEM: NUMBER OF ATOMS
35
ITEM: BOX BOUNDS xy xz yz pp pp pp
0.0000000000000000e+00 7.6685730000000003e+00 2.5561910000000001e+00
0.0000000000000000e+00 4.4274529999999999e+00 0.0000000000000000e+00
0.0000000000000000e+00 3.6699264999999997e+01 0.0000000000000000e+00
ITEM: ATOMS id type x y z
1 1 0.557821 0.386732 0.595794
2 1 2.18576 1.06326 32.4352
3 1 2.27377 2.68682 34.6787
4 1 1.40856 2.65747 0.386127
5 1 3.08862 0.938649 36.1694
6 1 4.27812 2.82529 0.0610678
7 1 3.50589 3.79935 29.4575
8 1 0.724559 0.507011 35.0506
9 1 3.12355 3.67263 31.9409
10 1 3.7897 0.837051 33.8651
11 1 4.57486 1.65084 31.7922
12 1 5.10409 3.06666 33.86
13 1 2.30805 1.77202 30.2067
14 1 5.1138 1.46224 29.4722
15 1 6.23346 3.73729 30.8279
16 2 5.19245 1.26027 14.5949
17 2 3.96649 1.78256 17.1412
18 2 5.48456 3.77589 15.3729
19 2 3.05246 4.08269 16.8835
20 2 5.74119 3.34556 9.57721
21 2 2.85125 2.65193 14.2179
22 2 1.41615 1.83353 11.878
23 2 3.96646 0.357544 12.5291
24 2 3.87687 3.41645 7.14687
25 2 1.5586 1.99104 7.39166
26 2 3.35127 1.72073 9.97863
27 2 4.33608 3.56045 12.2867
28 2 0.667652 0.264482 9.78364
29 2 4.37206 0.628206 7.40499
30 2 6.30195 3.49963 5.07796
31 2 1.43331 0.401146 4.84259
32 2 2.86479 0.386663 2.13312
33 2 2.54674 3.27532 2.46161
34 2 5.41871 2.05126 2.71371
35 2 3.84227 1.7237 5.06452
ITEM: TIMESTEP
20000
ITEM: NUMBER OF ATOMS
35
ITEM: BOX BOUNDS xy xz yz pp pp pp
0.0000000000000000e+00 7.6685730000000003e+00 2.5561910000000001e+00
0.0000000000000000e+00 4.4274529999999999e+00 0.0000000000000000e+00
0.0000000000000000e+00 3.6699264999999997e+01 0.0000000000000000e+00
ITEM: ATOMS id type x y z
1 1 5.21102 0.833017 0.277787
2 1 1.60144 1.00728 32.6153
3 1 2.27716 2.43262 34.3548
4 1 1.75625 2.85123 0.0592257
5 1 2.66434 0.799145 36.1963
6 1 4.17819 3.4048 0.023783
7 1 4.13219 3.75188 29.8679
8 1 1.13388 0.110983 34.5067
9 1 3.08706 3.185 32.1836
10 1 4.07634 0.100257 33.6499
11 1 4.73844 1.88107 31.462
12 1 4.5288 2.16399 33.9519
13 1 1.96176 1.94143 30.178
14 1 4.42076 1.38197 29.1566
15 1 5.82024 4.40012 31.4195
16 2 5.50791 0.983417 14.57
17 2 4.40658 1.95975 16.9336
18 2 5.30216 4.00092 15.3655
19 2 2.80396 4.08264 16.8873
20 2 5.65572 3.47253 9.69451
21 2 2.76238 2.37213 14.6757
22 2 1.36895 2.02656 11.8812
23 2 4.06998 0.176582 12.4995
24 2 4.21429 3.471 7.42733
25 2 1.73383 1.98777 7.67139
26 2 3.30926 1.84343 9.77347
27 2 3.93985 3.33785 12.0269
28 2 0.400158 0.113009 9.84441
29 2 4.14504 0.674141 7.33071
30 2 6.62422 3.21546 5.175
31 2 1.55876 0.36619 4.84528
32 2 2.72888 0.530671 2.42779
33 2 3.12002 3.47635 2.49119
34 2 5.49116 2.06537 2.6719
35 2 3.72862 2.14071 4.6027
