
     Program PWSCF v.7.5 starts on  4Dec2025 at 10:49: 1 

     This program is part of the open-source Quantum ESPRESSO suite
     for quantum simulation of materials; please cite
         "P. Giannozzi et al., J. Phys.:Condens. Matter 21 395502 (2009);
         "P. Giannozzi et al., J. Phys.:Condens. Matter 29 465901 (2017);
         "P. Giannozzi et al., J. Chem. Phys. 152 154105 (2020);
          URL http://www.quantum-espresso.org", 
     in publications or presentations arising from this work. More details at
     http://www.quantum-espresso.org/quote

     Parallel version (MPI & OpenMP), running on      16 processor cores
     Number of MPI processes:                 4
     Threads/MPI process:                     4

     MPI processes distributed on     1 nodes
     417494 MiB available memory on the printing compute node when the environment starts

     Reading input from qe/Ta/ta_slab.in
Warning: card &CELL ignored
Warning: card &FCP ignored
Warning: card &RISM ignored

     Current dimensions of program PWSCF are:
     Max number of different atomic species (ntypx) = 10
     Max number of k-points (npk) =  40000
     Max angular momentum in pseudopotentials (lmaxx) =  4
     Found identity + (  0.3333  0.3333  0.0000) symmetry
     This is a supercell, fractional translations are disabled
     Message from routine setup:
     using ibrav=0 with symmetry is DISCOURAGED, use correct ibrav instead

     R & G space division:  proc/nbgrp/npool/nimage =       4
     Subspace diagonalization in iterative solution of the eigenvalue problem:
     a serial algorithm will be used


     Parallelization info
     --------------------
     sticks:   dense  smooth     PW     G-vecs:    dense   smooth      PW
     Min         480     289     73                67038    31201    3897
     Max         481     290     74                67053    31218    3902
     Sum        1921    1159    295               268181   124847   15603

     Using Slab Decomposition



     bravais-lattice index     =            0
     lattice parameter (alat)  =       9.6610  a.u.
     unit-cell volume          =    3054.9480 (a.u.)^3
     number of atoms/cell      =            3
     number of atomic types    =            1
     number of electrons       =        39.00
     number of Kohn-Sham states=           24
     kinetic-energy cutoff     =      45.0000  Ry
     charge density cutoff     =     300.0000  Ry
     scf convergence threshold =      1.0E-04
     mixing beta               =       0.3000
     number of iterations used =            8  plain     mixing
     Exchange-correlation= SLA  PW   PBE  PBE
                           (   1   4   3   4   0   0   0)

     celldm(1)=   9.661002  celldm(2)=   0.000000  celldm(3)=   0.000000
     celldm(4)=   0.000000  celldm(5)=   0.000000  celldm(6)=   0.000000

     crystal axes: (cart. coord. in units of alat)
               a(1) = (   1.000000   0.000000   0.000000 )  
               a(2) = (   0.500000   0.866025   0.000000 )  
               a(3) = (   0.000000   0.000000   3.912071 )  

     reciprocal axes: (cart. coord. in units 2 pi/alat)
               b(1) = (  1.000000 -0.577350  0.000000 )  
               b(2) = (  0.000000  1.154701  0.000000 )  
               b(3) = (  0.000000  0.000000  0.255619 )  


     PseudoPot. # 1 for Ta read from file:
     /apps/QE/pseudo/efficiency/Ta_pbe_v1.uspp.F.UPF
     MD5 check sum: f8bbe9446314a3b8ea5d9f3e3836c939
     Pseudo is Ultrasoft + core correction, Zval = 13.0
     Generated by new atomic code, or converted to UPF format
     Using radial grid of  921 points,  7 beta functions with: 
                l(1) =   0
                l(2) =   0
                l(3) =   1
                l(4) =   1
                l(5) =   2
                l(6) =   2
                l(7) =   3
     Q(r) pseudized with  6 coefficients,  rinner =    1.300   1.300   1.300
                                                       1.300   1.300   1.300
                                                       1.300

     atomic species   valence    mass     pseudopotential
     Ta               13.00   180.94788     Ta( 1.00)

     12 Sym. Ops. (no inversion) found



   Cartesian axes

     site n.     atom                  positions (alat units)
         1        Ta     tau(   1) = (   0.0000000   0.0000000   3.0737699  )
         2        Ta     tau(   2) = (   0.5000000   0.2886751   3.0737699  )
         3        Ta     tau(   3) = (   1.0000000   0.5773503   3.0737699  )

     number of k points=     1  Methfessel-Paxton smearing, width (Ry)=  0.0200
                       cart. coord. in units 2pi/alat
        k(    1) = (   0.0000000   0.0000000   0.0000000), wk =   2.0000000

     Dense  grid:   268181 G-vectors     FFT dimensions: (  54,  54, 216)

     Smooth grid:   124847 G-vectors     FFT dimensions: (  45,  45, 162)

     Estimated max dynamical RAM per process >     410.06 MB

     Estimated total dynamical RAM >       1.60 GB

     Check: negative core charge=   -0.000001

     Initial potential from superposition of free atoms

     starting charge      38.9967, renormalised to      39.0000

     negative rho (up, down):  2.881E-01 0.000E+00
     Starting wfcs are   39 randomized atomic wfcs

     total cpu time spent up to now is       10.6 secs

     per-process dynamical memory:    67.1 Mb

     Self-consistent Calculation

     iteration #  1     ecut=    45.00 Ry     beta= 0.30
     Davidson diagonalization with overlap
     ethr =  1.00E-02,  avg # of iterations =  2.0

     Threshold (ethr) on eigenvalues was too large:
     Diagonalizing with lowered threshold

     Davidson diagonalization with overlap
     ethr =  7.95E-04,  avg # of iterations =  1.0

     negative rho (up, down):  2.930E-01 0.000E+00

     total cpu time spent up to now is       31.9 secs

     total energy              =    -424.49217121 Ry
     estimated scf accuracy    <       0.31998137 Ry

     iteration #  2     ecut=    45.00 Ry     beta= 0.30
     Davidson diagonalization with overlap
     ethr =  8.20E-04,  avg # of iterations =  1.0

     negative rho (up, down):  3.030E-01 0.000E+00

     total cpu time spent up to now is       44.1 secs

     total energy              =    -424.40917303 Ry
     estimated scf accuracy    <       0.14663541 Ry

     iteration #  3     ecut=    45.00 Ry     beta= 0.30
     Davidson diagonalization with overlap
     ethr =  3.76E-04,  avg # of iterations =  2.0

     negative rho (up, down):  2.994E-01 0.000E+00

     total cpu time spent up to now is       57.7 secs

     total energy              =    -424.41698003 Ry
     estimated scf accuracy    <       0.57058987 Ry

     iteration #  4     ecut=    45.00 Ry     beta= 0.30
     Davidson diagonalization with overlap
     ethr =  3.76E-04,  avg # of iterations =  1.0

     negative rho (up, down):  2.990E-01 0.000E+00

     total cpu time spent up to now is       69.1 secs

     total energy              =    -424.45491462 Ry
     estimated scf accuracy    <       0.02939572 Ry

     iteration #  5     ecut=    45.00 Ry     beta= 0.30
     Davidson diagonalization with overlap
     ethr =  7.54E-05,  avg # of iterations =  1.0

     negative rho (up, down):  3.024E-01 0.000E+00

     total cpu time spent up to now is       80.8 secs

     total energy              =    -424.46796670 Ry
     estimated scf accuracy    <       0.00492803 Ry

     iteration #  6     ecut=    45.00 Ry     beta= 0.30
     Davidson diagonalization with overlap
     ethr =  1.26E-05,  avg # of iterations =  4.0

     negative rho (up, down):  3.030E-01 0.000E+00

     total cpu time spent up to now is       97.2 secs

     total energy              =    -424.46355728 Ry
     estimated scf accuracy    <       0.14687754 Ry

     iteration #  7     ecut=    45.00 Ry     beta= 0.30
     Davidson diagonalization with overlap
     ethr =  1.26E-05,  avg # of iterations =  3.0

     negative rho (up, down):  3.030E-01 0.000E+00
