
     Program PWSCF v.7.5 starts on  4Dec2025 at 10:24:58 

     This program is part of the open-source Quantum ESPRESSO suite
     for quantum simulation of materials; please cite
         "P. Giannozzi et al., J. Phys.:Condens. Matter 21 395502 (2009);
         "P. Giannozzi et al., J. Phys.:Condens. Matter 29 465901 (2017);
         "P. Giannozzi et al., J. Chem. Phys. 152 154105 (2020);
          URL http://www.quantum-espresso.org", 
     in publications or presentations arising from this work. More details at
     http://www.quantum-espresso.org/quote

     Parallel version (MPI & OpenMP), running on      16 processor cores
     Number of MPI processes:                 4
     Threads/MPI process:                     4

     MPI processes distributed on     1 nodes
     418476 MiB available memory on the printing compute node when the environment starts

     Reading input from qe/gap9/cu_ta_gap9.in
Warning: card &CELL ignored
Warning: card &FCP ignored
Warning: card &RISM ignored

     Current dimensions of program PWSCF are:
     Max number of different atomic species (ntypx) = 10
     Max number of k-points (npk) =  40000
     Max angular momentum in pseudopotentials (lmaxx) =  4
     file Cu.paw.z_11.ld1.psl.v1.0.0-low.upf: wavefunction(s)  4S 3D renormalized
     Message from routine setup:
     using ibrav=0 with symmetry is DISCOURAGED, use correct ibrav instead

     R & G space division:  proc/nbgrp/npool/nimage =       4
     Subspace diagonalization in iterative solution of the eigenvalue problem:
     a serial algorithm will be used


     Parallelization info
     --------------------
     sticks:   dense  smooth     PW     G-vecs:    dense   smooth      PW
     Min         480     289     73                63676    29611    3707
     Max         481     290     75                63689    29626    3714
     Sum        1921    1159    295               254729   118479   14843

     Using Slab Decomposition



     bravais-lattice index     =            0
     lattice parameter (alat)  =       9.6610  a.u.
     unit-cell volume          =    2902.2006 (a.u.)^3
     number of atoms/cell      =            7
     number of atomic types    =            2
     number of electrons       =        83.00
     number of Kohn-Sham states=           50
     kinetic-energy cutoff     =      45.0000  Ry
     charge density cutoff     =     300.0000  Ry
     scf convergence threshold =      1.0E-04
     mixing beta               =       0.3000
     number of iterations used =            8  plain     mixing
     Exchange-correlation= SLA  PW   PBX  PBC
                           (   1   4   3   4   0   0   0)

     celldm(1)=   9.661002  celldm(2)=   0.000000  celldm(3)=   0.000000
     celldm(4)=   0.000000  celldm(5)=   0.000000  celldm(6)=   0.000000

     crystal axes: (cart. coord. in units of alat)
               a(1) = (   1.000000   0.000000   0.000000 )  
               a(2) = (   0.500000   0.866025   0.000000 )  
               a(3) = (   0.000000   0.000000   3.716467 )  

     reciprocal axes: (cart. coord. in units 2 pi/alat)
               b(1) = (  1.000000 -0.577350  0.000000 )  
               b(2) = (  0.000000  1.154701  0.000000 )  
               b(3) = (  0.000000  0.000000  0.269073 )  


     PseudoPot. # 1 for Ta read from file:
     /apps/QE/pseudo/efficiency/Ta_pbe_v1.uspp.F.UPF
     MD5 check sum: f8bbe9446314a3b8ea5d9f3e3836c939
     Pseudo is Ultrasoft + core correction, Zval = 13.0
     Generated by new atomic code, or converted to UPF format
     Using radial grid of  921 points,  7 beta functions with: 
                l(1) =   0
                l(2) =   0
                l(3) =   1
                l(4) =   1
                l(5) =   2
                l(6) =   2
                l(7) =   3
     Q(r) pseudized with  6 coefficients,  rinner =    1.300   1.300   1.300
                                                       1.300   1.300   1.300
                                                       1.300

     PseudoPot. # 2 for Cu read from file:
     /apps/QE/pseudo/efficiency/Cu.paw.z_11.ld1.psl.v1.0.0-low.upf
     MD5 check sum: 619f40885d92a09a85a8b37550532d0c
     Pseudo is Projector augmented-wave + core cor, Zval = 11.0
     Generated using &quot;atomic&quot; code by A. Dal Corso  v.6.3MaX
     Shape of augmentation charge: PSQ
     Using radial grid of 1199 points,  6 beta functions with: 
                l(1) =   0
                l(2) =   0
                l(3) =   1
                l(4) =   1
                l(5) =   2
                l(6) =   2
     Q(r) pseudized with 0 coefficients 


     atomic species   valence    mass     pseudopotential
     Ta               13.00   180.94788     Ta( 1.00)
     Cu               11.00    63.54600     Cu( 1.00)

     12 Sym. Ops. (no inversion) found ( 6 have fractional translation)



   Cartesian axes

     site n.     atom                  positions (alat units)
         1        Ta     tau(   1) = (   0.0000000   0.0000000   2.8641946  )
         2        Ta     tau(   2) = (   0.5000000   0.2886751   2.8641946  )
         3        Ta     tau(   3) = (   1.0000000   0.5773503   2.8641946  )
         4        Cu     tau(   4) = (   0.7500000   0.1443376   1.1037628  )
         5        Cu     tau(   5) = (   0.2500000   0.1443376   1.1037628  )
         6        Cu     tau(   6) = (   1.0000000   0.5773503   1.1037628  )
         7        Cu     tau(   7) = (   0.5000000   0.5773503   1.1037628  )

     number of k points=     1  Methfessel-Paxton smearing, width (Ry)=  0.0200
                       cart. coord. in units 2pi/alat
        k(    1) = (   0.0000000   0.0000000   0.0000000), wk =   2.0000000

     Dense  grid:   254729 G-vectors     FFT dimensions: (  54,  54, 200)

     Smooth grid:   118479 G-vectors     FFT dimensions: (  45,  45, 160)

     Estimated max dynamical RAM per process >     400.38 MB

     Estimated total dynamical RAM >       1.56 GB

     Check: negative core charge=   -0.000002

     Initial potential from superposition of free atoms

     starting charge      82.9958, renormalised to      83.0000

     negative rho (up, down):  2.879E-01 0.000E+00
     Starting wfcs are   75 randomized atomic wfcs
     Checking if some PAW data can be deallocated... 

     total cpu time spent up to now is        9.4 secs

     per-process dynamical memory:    93.1 Mb

     Self-consistent Calculation

     iteration #  1     ecut=    45.00 Ry     beta= 0.30
     Davidson diagonalization with overlap
     ethr =  1.00E-02,  avg # of iterations =  2.0

     negative rho (up, down):  2.933E-01 0.000E+00

     total cpu time spent up to now is       20.8 secs

     total energy              =   -1273.96746815 Ry
     estimated scf accuracy    <       5.01805509 Ry

     iteration #  2     ecut=    45.00 Ry     beta= 0.30
     Davidson diagonalization with overlap
     ethr =  6.05E-03,  avg # of iterations = 11.0

     negative rho (up, down):  2.933E-01 0.000E+00

     total cpu time spent up to now is       37.9 secs

     total energy              =   -1272.41297515 Ry
     estimated scf accuracy    <     260.80794590 Ry

     iteration #  3     ecut=    45.00 Ry     beta= 0.30
     Davidson diagonalization with overlap
     ethr =  6.05E-03,  avg # of iterations = 18.0

     negative rho (up, down):  2.944E-01 0.000E+00

     total cpu time spent up to now is       56.4 secs

     total energy              =   -1275.76418651 Ry
     estimated scf accuracy    <      15.30427465 Ry

     iteration #  4     ecut=    45.00 Ry     beta= 0.30
     Davidson diagonalization with overlap
     ethr =  6.05E-03,  avg # of iterations =  1.0
     Minimization algorithm failed to find Fermi energy: reverting to bisection
     Possible cause: smearing is larger than the electronic band-gap.

     negative rho (up, down):  2.958E-01 0.000E+00

     total cpu time spent up to now is       68.0 secs

     total energy              =   -1275.97296599 Ry
     estimated scf accuracy    <       1.50439615 Ry

     iteration #  5     ecut=    45.00 Ry     beta= 0.30
     Davidson diagonalization with overlap
     ethr =  1.81E-03,  avg # of iterations =  1.0

     negative rho (up, down):  3.065E-01 0.000E+00

     total cpu time spent up to now is       79.6 secs

     total energy              =   -1275.91924498 Ry
     estimated scf accuracy    <       1.25979710 Ry

     iteration #  6     ecut=    45.00 Ry     beta= 0.30
     Davidson diagonalization with overlap
     ethr =  1.52E-03,  avg # of iterations =  2.0

     negative rho (up, down):  3.081E-01 0.000E+00

     total cpu time spent up to now is       91.8 secs

     total energy              =   -1275.86788639 Ry
     estimated scf accuracy    <      10.18271709 Ry

     iteration #  7     ecut=    45.00 Ry     beta= 0.30
     Davidson diagonalization with overlap
     ethr =  1.52E-03,  avg # of iterations =  9.0

     negative rho (up, down):  3.058E-01 0.000E+00

     total cpu time spent up to now is      105.9 secs

     total energy              =   -1276.10814090 Ry
     estimated scf accuracy    <       1.20011867 Ry

     iteration #  8     ecut=    45.00 Ry     beta= 0.30
     Davidson diagonalization with overlap
     ethr =  1.45E-03,  avg # of iterations =  1.0
     Minimization algorithm failed to find Fermi energy: reverting to bisection
     Possible cause: smearing is larger than the electronic band-gap.

     negative rho (up, down):  3.055E-01 0.000E+00

     total cpu time spent up to now is      117.6 secs

     total energy              =   -1276.04534145 Ry
     estimated scf accuracy    <       2.28560456 Ry

     iteration #  9     ecut=    45.00 Ry     beta= 0.30
     Davidson diagonalization with overlap
     ethr =  1.45E-03,  avg # of iterations =  2.0

     negative rho (up, down):  3.058E-01 0.000E+00

     total cpu time spent up to now is      129.2 secs

     total energy              =   -1276.09679060 Ry
     estimated scf accuracy    <       0.21397602 Ry

     iteration # 10     ecut=    45.00 Ry     beta= 0.30
     Davidson diagonalization with overlap
     ethr =  2.58E-04,  avg # of iterations = 16.0

     negative rho (up, down):  3.038E-01 0.000E+00

     total cpu time spent up to now is      143.1 secs

     total energy              =   -1276.22579883 Ry
     estimated scf accuracy    <       5.05945805 Ry

     iteration # 11     ecut=    45.00 Ry     beta= 0.30
     Davidson diagonalization with overlap
     ethr =  2.58E-04,  avg # of iterations =  2.0

     negative rho (up, down):  3.055E-01 0.000E+00

     total cpu time spent up to now is      154.9 secs

     total energy              =   -1276.48997461 Ry
     estimated scf accuracy    <       3.58453283 Ry

     iteration # 12     ecut=    45.00 Ry     beta= 0.30
     Davidson diagonalization with overlap
     ethr =  2.58E-04,  avg # of iterations =  2.0

     negative rho (up, down):  3.055E-01 0.000E+00

     total cpu time spent up to now is      166.0 secs

     total energy              =   -1276.61553864 Ry
     estimated scf accuracy    <      33.38095015 Ry

     iteration # 13     ecut=    45.00 Ry     beta= 0.30
     Davidson diagonalization with overlap
     ethr =  2.58E-04,  avg # of iterations =  1.0

     negative rho (up, down):  3.058E-01 0.000E+00

     total cpu time spent up to now is      177.2 secs

     total energy              =   -1276.53888536 Ry
     estimated scf accuracy    <      33.08293840 Ry

     iteration # 14     ecut=    45.00 Ry     beta= 0.30
     Davidson diagonalization with overlap
     ethr =  2.58E-04,  avg # of iterations =  1.0

     negative rho (up, down):  3.072E-01 0.000E+00

     total cpu time spent up to now is      188.9 secs

     total energy              =   -1276.36392255 Ry
     estimated scf accuracy    <      23.14026095 Ry

     iteration # 15     ecut=    45.00 Ry     beta= 0.30
     Davidson diagonalization with overlap
     ethr =  2.58E-04,  avg # of iterations =  1.0

     negative rho (up, down):  3.076E-01 0.000E+00

     total cpu time spent up to now is      200.6 secs

     total energy              =   -1276.42684346 Ry
     estimated scf accuracy    <       4.24616423 Ry

     iteration # 16     ecut=    45.00 Ry     beta= 0.30
     Davidson diagonalization with overlap
     ethr =  2.58E-04,  avg # of iterations =  1.0

     negative rho (up, down):  3.077E-01 0.000E+00

     total cpu time spent up to now is      212.2 secs

     total energy              =   -1276.48826162 Ry
     estimated scf accuracy    <       4.27951353 Ry

     iteration # 17     ecut=    45.00 Ry     beta= 0.30
     Davidson diagonalization with overlap
     ethr =  2.58E-04,  avg # of iterations =  1.0

     negative rho (up, down):  3.086E-01 0.000E+00

     total cpu time spent up to now is      224.0 secs

     total energy              =   -1276.29595574 Ry
     estimated scf accuracy    <      11.28201784 Ry

     iteration # 18     ecut=    45.00 Ry     beta= 0.30
     Davidson diagonalization with overlap
     ethr =  2.58E-04,  avg # of iterations =  2.0

     negative rho (up, down):  2.973E-01 0.000E+00

     total cpu time spent up to now is      236.7 secs

     total energy              =   -1275.59620832 Ry
     estimated scf accuracy    <       4.49035386 Ry

     iteration # 19     ecut=    45.00 Ry     beta= 0.30
     Davidson diagonalization with overlap
     ethr =  2.58E-04,  avg # of iterations =  4.0

     negative rho (up, down):  3.021E-01 0.000E+00

     total cpu time spent up to now is      250.2 secs

     total energy              =   -1276.29560952 Ry
     estimated scf accuracy    <      45.14294204 Ry

     iteration # 20     ecut=    45.00 Ry     beta= 0.30
     Davidson diagonalization with overlap
     ethr =  2.58E-04,  avg # of iterations =  3.0

     negative rho (up, down):  3.058E-01 0.000E+00

     total cpu time spent up to now is      262.8 secs

     total energy              =   -1275.44402162 Ry
     estimated scf accuracy    <      42.00370914 Ry

     iteration # 21     ecut=    45.00 Ry     beta= 0.30
     Davidson diagonalization with overlap
     ethr =  2.58E-04,  avg # of iterations =  2.0

     negative rho (up, down):  3.027E-01 0.000E+00

     total cpu time spent up to now is      274.5 secs

     total energy              =   -1276.16614416 Ry
     estimated scf accuracy    <       4.01653659 Ry

     iteration # 22     ecut=    45.00 Ry     beta= 0.30
     Davidson diagonalization with overlap
     ethr =  2.58E-04,  avg # of iterations =  1.0

     negative rho (up, down):  3.036E-01 0.000E+00

     total cpu time spent up to now is      286.2 secs

     total energy              =   -1276.19338020 Ry
     estimated scf accuracy    <       0.22772728 Ry

     iteration # 23     ecut=    45.00 Ry     beta= 0.30
     Davidson diagonalization with overlap
     ethr =  2.58E-04,  avg # of iterations =  1.0

     negative rho (up, down):  3.043E-01 0.000E+00

     total cpu time spent up to now is      297.1 secs

     total energy              =   -1276.18090332 Ry
     estimated scf accuracy    <       0.93566972 Ry

     iteration # 24     ecut=    45.00 Ry     beta= 0.30
     Davidson diagonalization with overlap
     ethr =  2.58E-04,  avg # of iterations =  1.0

     negative rho (up, down):  3.047E-01 0.000E+00

     total cpu time spent up to now is      308.3 secs

     total energy              =   -1276.17865102 Ry
     estimated scf accuracy    <       0.18298164 Ry

     iteration # 25     ecut=    45.00 Ry     beta= 0.30
     Davidson diagonalization with overlap
     ethr =  2.20E-04,  avg # of iterations =  1.0

     negative rho (up, down):  3.048E-01 0.000E+00

     total cpu time spent up to now is      319.8 secs

     total energy              =   -1276.17713106 Ry
     estimated scf accuracy    <       0.18954571 Ry

     iteration # 26     ecut=    45.00 Ry     beta= 0.30
     Davidson diagonalization with overlap
     ethr =  2.20E-04,  avg # of iterations =  1.0

     negative rho (up, down):  3.049E-01 0.000E+00

     total cpu time spent up to now is      331.5 secs

     total energy              =   -1276.18619541 Ry
     estimated scf accuracy    <       0.10276799 Ry

     iteration # 27     ecut=    45.00 Ry     beta= 0.30
     Davidson diagonalization with overlap
     ethr =  1.24E-04,  avg # of iterations =  1.0

     negative rho (up, down):  3.045E-01 0.000E+00

     total cpu time spent up to now is      343.6 secs

     total energy              =   -1276.17471879 Ry
     estimated scf accuracy    <       4.74946021 Ry

     iteration # 28     ecut=    45.00 Ry     beta= 0.30
     Davidson diagonalization with overlap
     ethr =  1.24E-04,  avg # of iterations =  1.0

     negative rho (up, down):  3.044E-01 0.000E+00

     total cpu time spent up to now is      355.5 secs

     total energy              =   -1276.17093131 Ry
     estimated scf accuracy    <       1.38354072 Ry

     iteration # 29     ecut=    45.00 Ry     beta= 0.30
     Davidson diagonalization with overlap
     ethr =  1.24E-04,  avg # of iterations =  1.0

     negative rho (up, down):  3.059E-01 0.000E+00

     total cpu time spent up to now is      366.3 secs

     total energy              =   -1276.13623753 Ry
     estimated scf accuracy    <       0.25989099 Ry

     iteration # 30     ecut=    45.00 Ry     beta= 0.30
     Davidson diagonalization with overlap
     ethr =  1.24E-04,  avg # of iterations =  2.0

     negative rho (up, down):  3.048E-01 0.000E+00

     total cpu time spent up to now is      378.5 secs

     total energy              =   -1275.96861622 Ry
     estimated scf accuracy    <      19.06142957 Ry

     iteration # 31     ecut=    45.00 Ry     beta= 0.30
     Davidson diagonalization with overlap
     ethr =  1.24E-04,  avg # of iterations =  2.0

     negative rho (up, down):  3.049E-01 0.000E+00

     total cpu time spent up to now is      390.6 secs

     total energy              =   -1276.16242834 Ry
     estimated scf accuracy    <       0.68404563 Ry

     iteration # 32     ecut=    45.00 Ry     beta= 0.30
     Davidson diagonalization with overlap
     ethr =  1.24E-04,  avg # of iterations =  1.0

     negative rho (up, down):  3.048E-01 0.000E+00

     total cpu time spent up to now is      402.3 secs

     total energy              =   -1276.15941209 Ry
     estimated scf accuracy    <       0.34844210 Ry

     iteration # 33     ecut=    45.00 Ry     beta= 0.30
     Davidson diagonalization with overlap
     ethr =  1.24E-04,  avg # of iterations =  1.0

     negative rho (up, down):  3.050E-01 0.000E+00

     total cpu time spent up to now is      413.9 secs

     total energy              =   -1276.15444698 Ry
     estimated scf accuracy    <       0.45697922 Ry

     iteration # 34     ecut=    45.00 Ry     beta= 0.30
     Davidson diagonalization with overlap
     ethr =  1.24E-04,  avg # of iterations =  1.0

     negative rho (up, down):  3.050E-01 0.000E+00

     total cpu time spent up to now is      425.3 secs

     total energy              =   -1276.15000733 Ry
     estimated scf accuracy    <       0.42401932 Ry

     iteration # 35     ecut=    45.00 Ry     beta= 0.30
     Davidson diagonalization with overlap
     ethr =  1.24E-04,  avg # of iterations =  1.0

     negative rho (up, down):  3.049E-01 0.000E+00

     total cpu time spent up to now is      436.2 secs

     total energy              =   -1276.14794511 Ry
     estimated scf accuracy    <       0.20303204 Ry

     iteration # 36     ecut=    45.00 Ry     beta= 0.30
     Davidson diagonalization with overlap
     ethr =  1.24E-04,  avg # of iterations =  1.0

     negative rho (up, down):  3.048E-01 0.000E+00

     total cpu time spent up to now is      448.1 secs

     total energy              =   -1276.14918929 Ry
     estimated scf accuracy    <       0.00029040 Ry

     iteration # 37     ecut=    45.00 Ry     beta= 0.30
     Davidson diagonalization with overlap
     ethr =  3.50E-07,  avg # of iterations =  6.0

     negative rho (up, down):  3.048E-01 0.000E+00

     total cpu time spent up to now is      462.9 secs

     total energy              =   -1276.14871138 Ry
     estimated scf accuracy    <       0.12680597 Ry

     iteration # 38     ecut=    45.00 Ry     beta= 0.30
     Davidson diagonalization with overlap
     ethr =  3.50E-07,  avg # of iterations =  2.0

     negative rho (up, down):  3.048E-01 0.000E+00

     total cpu time spent up to now is      475.0 secs

     total energy              =   -1276.14922624 Ry
     estimated scf accuracy    <       0.00135690 Ry

     iteration # 39     ecut=    45.00 Ry     beta= 0.30
     Davidson diagonalization with overlap
     ethr =  3.50E-07,  avg # of iterations =  1.0

     negative rho (up, down):  3.047E-01 0.000E+00

     total cpu time spent up to now is      485.6 secs

     total energy              =   -1276.14918888 Ry
     estimated scf accuracy    <       0.00433213 Ry

     iteration # 40     ecut=    45.00 Ry     beta= 0.30
     Davidson diagonalization with overlap
     ethr =  3.50E-07,  avg # of iterations =  1.0

     negative rho (up, down):  3.046E-01 0.000E+00

     total cpu time spent up to now is      497.1 secs

     total energy              =   -1276.14922677 Ry
     estimated scf accuracy    <       0.00078957 Ry

     iteration # 41     ecut=    45.00 Ry     beta= 0.30
     Davidson diagonalization with overlap
     ethr =  3.50E-07,  avg # of iterations =  1.0

     negative rho (up, down):  3.046E-01 0.000E+00

     total cpu time spent up to now is      508.9 secs

     total energy              =   -1276.14922478 Ry
     estimated scf accuracy    <       0.00086806 Ry

     iteration # 42     ecut=    45.00 Ry     beta= 0.30
     Davidson diagonalization with overlap
     ethr =  3.50E-07,  avg # of iterations =  1.0

     negative rho (up, down):  3.046E-01 0.000E+00

     total cpu time spent up to now is      520.4 secs

     total energy              =   -1276.14922407 Ry
     estimated scf accuracy    <       0.00037118 Ry

     iteration # 43     ecut=    45.00 Ry     beta= 0.30
     Davidson diagonalization with overlap
     ethr =  3.50E-07,  avg # of iterations =  1.0

     negative rho (up, down):  3.046E-01 0.000E+00

     total cpu time spent up to now is      531.6 secs

     End of self-consistent calculation

          k = 0.0000 0.0000 0.0000 ( 14843 PWs)   bands (ev):

   -67.2480 -67.1743 -67.1740 -34.0759 -33.9414 -33.9412 -33.7333 -33.7333
   -33.7331 -33.7331 -33.1424 -33.1424  -6.9103  -5.2576  -4.3825  -4.3825
    -4.3825  -3.1087  -3.1087  -3.1087  -2.9090  -2.9090  -2.5064  -1.9321
    -1.9321  -1.9321  -1.8684  -1.8684  -1.8684  -1.6984  -1.6984  -1.5526
    -1.5526  -1.5525  -0.2998   0.2694   0.2843   0.2843   0.2844   0.2844
     0.4160   0.4160   0.4160   0.4160   0.6024   0.6026   0.6026   0.6596
     1.6099   1.6099

     the Fermi energy is     0.4174 ev

!    total energy              =   -1276.14914073 Ry
     estimated scf accuracy    <       0.00008572 Ry
     smearing contrib. (-TS)   =      -0.03278215 Ry
     internal energy E=F+TS    =   -1276.11635858 Ry

     The total energy is F=E-TS. E is the sum of the following terms:
     one-electron contribution =   -1326.50982341 Ry
     hartree contribution      =     702.74221712 Ry
     xc contribution           =    -304.50020564 Ry
     ewald contribution        =      11.32844943 Ry
     one-center paw contrib.   =    -359.17699608 Ry

     convergence has been achieved in  43 iterations

     Writing all to output data dir ./tmp/CuTa_gap9.save/ :
     XML data file, charge density, pseudopotentials, collected wavefunctions

     init_run     :      4.46s CPU      8.96s WALL (       1 calls)
     electrons    :    256.22s CPU    522.17s WALL (       1 calls)

     Called by init_run:
     wfcinit      :      1.70s CPU      3.84s WALL (       1 calls)
     potinit      :      1.39s CPU      2.87s WALL (       1 calls)
     hinit0       :      0.62s CPU      1.09s WALL (       1 calls)

     Called by electrons:
     c_bands      :    124.38s CPU    285.36s WALL (      43 calls)
     sum_band     :     54.51s CPU     99.71s WALL (      43 calls)
     v_of_rho     :      9.49s CPU     20.13s WALL (      44 calls)
     newd         :     29.13s CPU     45.52s WALL (      44 calls)
     PAW_pot      :     34.29s CPU     61.24s WALL (      44 calls)
     mix_rho      :      4.04s CPU      9.42s WALL (      43 calls)

     Called by c_bands:
     init_us_2    :      0.43s CPU      0.65s WALL (      87 calls)
     cegterg      :    123.21s CPU    284.11s WALL (      43 calls)

     Called by *egterg:
     cdiaghg      :      1.70s CPU      3.67s WALL (     156 calls)
     h_psi        :    111.65s CPU    256.01s WALL (     157 calls)
     s_psi        :      0.65s CPU      1.16s WALL (     157 calls)
     g_psi        :      0.10s CPU      0.23s WALL (     113 calls)

     Called by h_psi:
     h_psi:calbec :      4.44s CPU     10.68s WALL (     157 calls)
     vloc_psi     :    106.18s CPU    242.95s WALL (     157 calls)
                                        0.00s GPU  (     157 calls)
     add_vuspsi   :      0.77s CPU      1.52s WALL (     157 calls)

     General routines
     calbec       :      5.83s CPU     14.03s WALL (     200 calls)
     fft          :      7.55s CPU     17.95s WALL (     570 calls)
     ffts         :      1.01s CPU      2.31s WALL (      87 calls)
     fftw         :    126.08s CPU    289.81s WALL (   11662 calls)
     interpolate  :      1.64s CPU      3.21s WALL (      44 calls)

     Parallel routines

     PWSCF        :   4m21.19s CPU   8m51.88s WALL


   This run was terminated on:  10:33:49   4Dec2025            

=------------------------------------------------------------------------------=
   JOB DONE.
=------------------------------------------------------------------------------=
