LAMMPS (29 Aug 2024)
  using 4 OpenMP thread(s) per MPI task
# LAMMPS input generated from LammpsInputFile with pymatgen v2025.10.7

units metal
atom_style atomic
boundary p p p
read_data interface_gap8.data
Reading data file ...
  triclinic box = (0 0 0) to (5.112382 4.427453 35.699265) with tilt (2.556191 0 0)
WARNING: Triclinic box skew is large. LAMMPS will run inefficiently. (src/domain.cpp:221)
  1 by 1 by 1 MPI processor grid
  reading atoms ...
  35 atoms
  read_data CPU = 0.001 seconds
pair_style eam/alloy
pair_coeff * * ../../CuTa.eam.alloy Cu Ta
Reading eam/alloy potential file ../../CuTa.eam.alloy with DATE: 2015-12-09
neighbor 2.0 bin
neigh_modify delay 0 every 1 check yes
thermo 200
timestep 0.001
velocity all create 2000.0 12345 mom yes rot no dist gaussian
fix 1 all nvt temp 2000.0 2000.0 0.1
dump 1 all custom 100 traj.lammpstrj id type x y z
dump_modify 1 sort id
run 20000

CITE-CITE-CITE-CITE-CITE-CITE-CITE-CITE-CITE-CITE-CITE-CITE-CITE

Your simulation uses code contributions which should be cited:

- Type Label Framework: https://doi.org/10.1021/acs.jpcb.3c08419

@Article{Gissinger24,
 author = {Jacob R. Gissinger, Ilia Nikiforov, Yaser Afshar, Brendon Waters, Moon-ki Choi, Daniel S. Karls, Alexander Stukowski, Wonpil Im, Hendrik Heinz, Axel Kohlmeyer, and Ellad B. Tadmor},
 title = {Type Label Framework for Bonded Force Fields in LAMMPS},
 journal = {J. Phys. Chem. B},
 year =    2024,
 volume =  128,
 number =  13,
 pages =   {3282–-3297}
}

CITE-CITE-CITE-CITE-CITE-CITE-CITE-CITE-CITE-CITE-CITE-CITE-CITE

Neighbor list info ...
  update: every = 1 steps, delay = 0 steps, check = yes
  max neighbors/atom: 2000, page size: 100000
  master list distance cutoff = 8.3953371
  ghost atom cutoff = 8.3953371
  binsize = 4.1976686, bins = 2 2 9
  1 neighbor lists, perpetual/occasional/extra = 1 0 0
  (1) pair eam/alloy, perpetual
      attributes: half, newton on
      pair build: half/bin/atomonly/newton/tri
      stencil: half/bin/3d/tri
      bin: standard
Per MPI rank memory allocation (min/avg/max) = 5.989 | 5.989 | 5.989 Mbytes
   Step          Temp          E_pair         E_mol          TotEng         Press     
         0   2000          -158.21922      0             -149.42953      383497.62    
       200   2663.3405     -179.00616      0             -167.30119      103116.84    
       400   1901.7418     -185.461        0             -177.10314     -9899.857     
       600   1886.5867     -185.89289      0             -177.60164     -17313.513    
       800   2229.322      -187.04088      0             -177.24336      34343.185    
      1000   1565.747      -188.36931      0             -181.48809      40898.354    
      1200   2182.7145     -188.32944      0             -178.73675      24533.726    
      1400   1977.8716     -190.64299      0             -181.95055     -9901.6872    
      1600   2453.3687     -190.19526      0             -179.41309     -11950.138    
      1800   1910.181      -188.2241       0             -179.82915     -48415.143    
      2000   1936.0515     -189.37886      0             -180.87021     -22523.278    
      2200   1691.693      -191.59054      0             -184.15581      14199.966    
      2400   2621.6078     -191.48128      0             -179.95972     -32779.94     
      2600   1717.4162     -189.22545      0             -181.67767     -19773.705    
      2800   2263.985      -188.72683      0             -178.77697     -5630.2617    
      3000   1856.6021     -188.82705      0             -180.66757     -13761.13     
      3200   1543.3212     -189.97299      0             -183.19033     -10004.99     
      3400   2348.2292     -188.58058      0             -178.26048     -1441.4708    
      3600   2060.9315     -191.64621      0             -182.58873     -48288.757    
      3800   2157.3128     -192.61692      0             -183.13586     -32743.384    
      4000   1958.8612     -189.81744      0             -181.20855      20298.918    
      4200   1676.6721     -191.53762      0             -184.16891      23998.071    
      4400   1855.3146     -190.13819      0             -181.98437     -48002.871    
      4600   2341.2903     -188.92261      0             -178.63301     -7486.8129    
      4800   2374.2092     -192.62806      0             -182.19378      12451.283    
      5000   2021.7272     -191.37861      0             -182.49343      6176.6697    
      5200   2087.1177     -190.74766      0             -181.57511     -15806.781    
      5400   1780.271      -192.12152      0             -184.29751     -25477.654    
      5600   2168.0504     -191.25121      0             -181.72296      15844.961    
      5800   1949.7699     -191.8245       0             -183.25556      2477.7559    
      6000   2029.2624     -194.28327      0             -185.36498     -13494.103    
      6200   2102.8736     -190.66715      0             -181.42535     -13532.099    
      6400   1997.7236     -191.97662      0             -183.19694      7192.5203    
      6600   2032.045      -192.83436      0             -183.90384      25748.427    
      6800   2908.3572     -190.96045      0             -178.17868      16707.449    
      7000   2036.2898     -190.40082      0             -181.45164     -43611.384    
      7200   2146.1542     -190.75193      0             -181.31992     -11439.341    
      7400   1927.9496     -193.18521      0             -184.71217      4472.5029    
      7600   1473.4332     -190.25702      0             -183.78151      34415.41     
      7800   2229.3741     -191.25159      0             -181.45384     -21715.495    
      8000   1776.0086     -190.37633      0             -182.57105     -9374.6667    
      8200   1631.466      -191.81348      0             -184.64344      668.74382    
      8400   2370.0916     -190.80476      0             -180.38857      8755.2204    
      8600   1758.2645     -189.44452      0             -181.71722     -47541.057    
      8800   1804.5649     -189.81679      0             -181.886       -13584.188    
      9000   2195.3753     -190.01907      0             -180.37073     -23559.5      
      9200   2109.5938     -193.12908      0             -183.85774     -918.55098    
      9400   1828.7376     -192.31236      0             -184.27534      9394.011     
      9600   1910.7187     -188.81532      0             -180.41801     -44611.334    
      9800   1980.52       -190.78774      0             -182.08366     -21551.081    
     10000   1983.2443     -191.16896      0             -182.45291      6488.5072    
     10200   1416.07       -190.87153      0             -184.64812      9335.2018    
     10400   2343.2177     -191.13057      0             -180.83249     -20517.413    
     10600   2008.6992     -191.37411      0             -182.54619     -47062.451    
     10800   1989.7959     -194.4781       0             -185.73326     -7662.399     
     11000   1803.4668     -196.06186      0             -188.1359       14414.145    
     11200   1552.7383     -197.89075      0             -191.06671      11053.786    
     11400   1677.9155     -195.54809      0             -188.17391     -5555.9647    
     11600   1620.3547     -192.97682      0             -185.85561     -13247.324    
     11800   2187.4872     -192.21979      0             -182.60612     -37985.121    
     12000   2067.0677     -193.79949      0             -184.71505     -24095.78     
     12200   1888.4252     -195.58762      0             -187.28828      1012.3573    
     12400   1653.182      -196.50936      0             -189.24388      30462.841    
     12600   2294.5479     -195.05667      0             -184.97249      16147.589    
     12800   1804.2545     -195.61265      0             -187.68323     -28242.993    
     13000   2070.2499     -192.79111      0             -183.69268     -36637.977    
     13200   2326.7055     -193.65519      0             -183.42968     -32293.327    
     13400   1914.3022     -196.08531      0             -187.67225     -21477.209    
     13600   1993.0992     -195.79407      0             -187.03471      23739.402    
     13800   2878.0353     -195.02471      0             -182.37619      19440.391    
     14000   1770.2137     -195.36611      0             -187.5863      -15951.289    
     14200   2090.2086     -195.65185      0             -186.46571     -34339.449    
     14400   2184.825      -192.11992      0             -182.51795     -32477.298    
     14600   1736.1633     -190.63784      0             -183.00768     -31205.171    
     14800   2047.6155     -194.32411      0             -185.32516     -41696.938    
     15000   2039.5401     -196.71034      0             -187.74688     -5755.7236    
     15200   2246.0563     -195.47733      0             -185.60627      42893.943    
     15400   1660.731      -195.17053      0             -187.87187      18148.02     
     15600   2143.5724     -197.25324      0             -187.83257     -19343.12     
     15800   1910.7602     -194.55753      0             -186.16004     -25278.925    
     16000   2079.9668     -193.08776      0             -183.94663     -16621.058    
     16200   2368.0687     -195.16472      0             -184.75743      2672.5176    
     16400   1933.7337     -196.47217      0             -187.97371     -11210.704    
     16600   2500.1318     -197.84576      0             -186.85806      2354.9181    
     16800   2138.0544     -194.05462      0             -184.6582       15983.14     
     17000   1829.5765     -196.15621      0             -188.11551     -3524.7986    
     17200   2199.6402     -196.55561      0             -186.88853     -16436.131    
     17400   1941.6854     -195.21462      0             -186.68121     -19136.126    
     17600   1922.1206     -195.47362      0             -187.0262       5544.2099    
     17800   1644.2809     -196.12306      0             -188.8967      -14008.824    
     18000   2120.2588     -194.86935      0             -185.55114     -814.77901    
     18200   1916.0995     -195.70431      0             -187.28335     -41030.096    
     18400   2380.6132     -194.42547      0             -183.96305     -8360.8403    
     18600   2102.2766     -193.99097      0             -184.75179     -4517.2785    
     18800   2066.5116     -195.43071      0             -186.34871      4416.7536    
     19000   2282.621      -196.92111      0             -186.88934     -3894.406     
     19200   1826.7839     -197.40691      0             -189.37848     -11996.404    
     19400   2309.2272     -194.33729      0             -184.18859     -7468.948     
     19600   1868.7764     -194.37112      0             -186.15814     -1843.1469    
     19800   2101.8741     -195.99135      0             -186.75394     -14843.808    
     20000   2011.2071     -191.79381      0             -182.95487     -6518.5085    
Loop time of 7.53506 on 4 procs for 20000 steps with 35 atoms

Performance: 229.328 ns/day, 0.105 hours/ns, 2654.258 timesteps/s, 92.899 katom-step/s
34.7% CPU use with 1 MPI tasks x 4 OpenMP threads

MPI task timing breakdown:
Section |  min time  |  avg time  |  max time  |%varavg| %total
---------------------------------------------------------------
Pair    | 5.1301     | 5.1301     | 5.1301     |   0.0 | 68.08
Neigh   | 0.047249   | 0.047249   | 0.047249   |   0.0 |  0.63
Comm    | 0.45473    | 0.45473    | 0.45473    |   0.0 |  6.03
Output  | 0.039231   | 0.039231   | 0.039231   |   0.0 |  0.52
Modify  | 0.043639   | 0.043639   | 0.043639   |   0.0 |  0.58
Other   |            | 1.82       |            |       | 24.16

Nlocal:             35 ave          35 max          35 min
Histogram: 1 0 0 0 0 0 0 0 0 0
Nghost:           1284 ave        1284 max        1284 min
Histogram: 1 0 0 0 0 0 0 0 0 0
Neighs:           2216 ave        2216 max        2216 min
Histogram: 1 0 0 0 0 0 0 0 0 0

Total # of neighbors = 2216
Ave neighs/atom = 63.314286
Neighbor list builds = 196
Dangerous builds = 0
Total wall time: 0:00:07
