ITEM: TIMESTEP
0
ITEM: NUMBER OF ATOMS
35
ITEM: BOX BOUNDS xy xz yz pp pp pp
0.0000000000000000e+00 7.6685730000000003e+00 2.5561910000000001e+00
0.0000000000000000e+00 4.4274529999999999e+00 0.0000000000000000e+00
0.0000000000000000e+00 3.5699264999999997e+01 0.0000000000000000e+00
ITEM: ATOMS id type x y z
1 1 2.55619 1.47582 32.1534
2 1 5.11238 2.95164 32.1534
3 1 0 0 32.1534
4 1 5.11238 1.47582 29.8157
5 1 2.55619 2.95164 29.8157
6 1 2.55619 0 29.8157
7 1 2.55619 1.47582 27.478
8 1 5.11238 2.95164 27.478
9 1 0 0 27.478
10 1 5.11238 1.47582 25.1403
11 1 2.55619 2.95164 25.1403
12 1 2.55619 0 25.1403
13 1 2.55619 1.47582 22.8026
14 1 5.11238 2.95164 22.8026
15 1 0 0 22.8026
16 2 1.2781 2.21373 14.8026
17 2 0 0 14.8026
18 2 3.83429 2.21373 14.8026
19 2 2.55619 0 14.8026
20 2 3.83429 3.68954 12.7155
21 2 2.55619 1.47582 12.7155
22 2 6.39048 3.68954 12.7155
23 2 5.11238 1.47582 12.7155
24 2 5.11238 2.95164 10.6284
25 2 3.83429 0.737909 10.6284
26 2 2.55619 2.95164 10.6284
27 2 1.2781 0.737909 10.6284
28 2 1.2781 2.21373 8.54124
29 2 0 0 8.54124
30 2 3.83429 2.21373 8.54124
31 2 2.55619 0 8.54124
32 2 3.83429 3.68954 6.45412
33 2 2.55619 1.47582 6.45412
34 2 6.39048 3.68954 6.45412
35 2 5.11238 1.47582 6.45412
ITEM: TIMESTEP
100
ITEM: NUMBER OF ATOMS
35
ITEM: BOX BOUNDS xy xz yz pp pp pp
0.0000000000000000e+00 7.6685730000000003e+00 2.5561910000000001e+00
0.0000000000000000e+00 4.4274529999999999e+00 0.0000000000000000e+00
0.0000000000000000e+00 3.5699264999999997e+01 0.0000000000000000e+00
ITEM: ATOMS id type x y z
1 1 2.9913 1.6711 31.5078
2 1 5.07226 3.15385 31.6974
3 1 5.11068 0.0217079 31.573
4 1 4.95324 1.52393 29.7616
5 1 2.3709 2.89136 29.5764
6 1 4.5084 4.3827 29.7164
7 1 2.47572 1.56666 27.5477
8 1 5.11326 3.1302 27.7706
9 1 7.44492 4.27286 27.9456
10 1 5.46549 1.3726 26.2389
11 1 3.40773 2.37734 25.244
12 1 4.71698 4.37589 25.1856
13 1 2.6581 1.39623 23.2649
14 1 4.68132 2.96836 23.4636
15 1 5.05016 0.797644 23.0738
16 2 1.26922 2.08255 15.4272
17 2 7.54343 4.33504 15.5944
18 2 3.85517 2.09684 15.9357
19 2 5.0669 4.36727 16.0674
20 2 3.64858 3.76576 13.2027
21 2 2.41957 1.5783 13.0844
22 2 6.17996 3.71001 13.0353
23 2 4.90879 1.52423 13.0657
24 2 5.21117 2.8829 10.6501
25 2 3.89716 0.647858 10.5737
26 2 2.64765 2.93264 10.5698
27 2 1.40403 0.700625 10.6312
28 2 1.27801 2.19215 8.1884
29 2 5.1452 0.0162772 8.13001
30 2 3.88961 2.21411 7.94576
31 2 5.13749 4.42871 8.04425
32 2 4.01484 3.78141 5.21174
33 2 2.69707 1.5757 5.39728
34 2 6.51728 3.67246 5.70903
35 2 5.22169 1.50341 5.61257
ITEM: TIMESTEP
200
ITEM: NUMBER OF ATOMS
35
ITEM: BOX BOUNDS xy xz yz pp pp pp
0.0000000000000000e+00 7.6685730000000003e+00 2.5561910000000001e+00
0.0000000000000000e+00 4.4274529999999999e+00 0.0000000000000000e+00
0.0000000000000000e+00 3.5699264999999997e+01 0.0000000000000000e+00
ITEM: ATOMS id type x y z
1 1 3.24407 1.13886 31.2404
2 1 5.37938 3.10426 31.3435
3 1 2.70985 4.22772 31.2589
4 1 4.44152 1.91232 29.4255
5 1 1.7819 2.91697 29.7635
6 1 1.52317 0.193023 29.5988
7 1 2.82611 1.48363 27.7939
8 1 4.8897 3.25274 27.7857
9 1 7.17441 4.18602 27.6726
10 1 5.72545 1.85356 25.7867
11 1 3.32666 2.33747 25.6855
12 1 2.592 -0.0621943 25.6189
13 1 2.33139 1.54338 23.6291
14 1 4.75128 3.50237 23.6403
15 1 5.33141 0.23946 24.3502
16 2 6.17746 2.13525 16.0124
17 2 2.49255 4.3064 16.3543
18 2 3.65153 2.02288 17.032
19 2 5.05836 4.27796 17.3218
20 2 3.65941 3.63189 14.1995
21 2 2.29107 1.50959 13.7931
22 2 6.17632 3.80592 13.3948
23 2 4.81889 1.64361 13.373
24 2 5.30419 2.89323 10.6983
25 2 3.97839 0.664091 10.3134
26 2 2.61937 2.85348 10.4429
27 2 1.39672 0.617695 10.8438
28 2 1.28803 2.20904 7.89119
29 2 2.6533 4.46795 7.78483
30 2 3.92894 2.20898 6.99608
31 2 2.53693 0.0300352 7.1106
32 2 3.98134 3.69524 3.80569
33 2 2.79041 1.46507 4.23454
34 2 6.67277 3.8051 5.17782
35 2 5.47809 1.64031 4.93601
ITEM: TIMESTEP
300
ITEM: NUMBER OF ATOMS
35
ITEM: BOX BOUNDS xy xz yz pp pp pp
0.0000000000000000e+00 7.6685730000000003e+00 2.5561910000000001e+00
0.0000000000000000e+00 4.4274529999999999e+00 0.0000000000000000e+00
0.0000000000000000e+00 3.5699264999999997e+01 0.0000000000000000e+00
ITEM: ATOMS id type x y z
1 1 2.51289 1.08526 31.3263
2 1 5.06065 3.01917 31.3192
3 1 2.86757 4.12528 31.5872
4 1 4.59576 1.41993 29.4912
5 1 1.5483 2.9825 29.3819
6 1 1.32659 0.165703 29.4412
7 1 2.51884 1.42864 27.7363
8 1 4.90862 3.29239 27.639
9 1 7.58429 4.41006 27.2644
10 1 6.12175 2.23284 25.9794
11 1 3.76369 2.55477 25.8795
12 1 5.46788 4.9362 25.8543
13 1 2.05729 1.73049 23.9421
14 1 4.91434 2.94677 23.6992
15 1 -0.00872045 0.181751 24.7896
16 2 5.94976 2.33297 16.2546
17 2 7.24878 4.46712 16.8001
18 2 3.39602 2.14424 17.6221
19 2 4.79004 4.18151 18.1206
20 2 3.9264 3.70575 15.0193
21 2 2.44707 1.54324 14.2978
22 2 6.30901 3.62769 13.0003
23 2 4.84279 1.46981 13.1559
24 2 5.31739 2.82282 10.7397
25 2 3.78111 0.638917 9.59825
26 2 2.74698 2.83494 10.6482
27 2 1.39328 0.641191 11.6682
28 2 1.30835 2.24699 8.34153
29 2 0.104679 0.0348876 7.68907
30 2 3.58395 2.32197 6.1954
31 2 2.39241 0.118186 6.25315
32 2 4.21972 3.71426 3.07372
33 2 3.03044 1.41637 3.35128
34 2 7.17262 3.59576 4.93661
35 2 5.63107 1.50821 4.69126
ITEM: TIMESTEP
400
ITEM: NUMBER OF ATOMS
35
ITEM: BOX BOUNDS xy xz yz pp pp pp
0.0000000000000000e+00 7.6685730000000003e+00 2.5561910000000001e+00
0.0000000000000000e+00 4.4274529999999999e+00 0.0000000000000000e+00
0.0000000000000000e+00 3.5699264999999997e+01 0.0000000000000000e+00
ITEM: ATOMS id type x y z
1 1 2.1029 1.5692 31.1387
2 1 4.91032 2.67765 31.211
3 1 2.4011 4.21271 31.6941
4 1 4.26165 1.20767 29.5372
5 1 6.81651 3.27919 29.6855
6 1 1.29868 -0.248412 29.6016
7 1 2.37885 1.62051 28.2159
8 1 5.2246 3.18485 27.8645
9 1 5.1544 0.385704 27.0409
10 1 6.49666 2.37426 26.1431
11 1 3.45667 2.60617 26.146
12 1 2.65932 -0.0460681 25.5074
13 1 2.43181 1.88794 23.8298
14 1 5.25406 2.77634 23.8062
15 1 5.32343 0.367642 24.4835
16 2 5.78678 2.15631 16.3441
17 2 4.2088 0.205955 16.7466
18 2 2.79525 2.37597 17.8675
19 2 4.50555 4.39385 18.3812
20 2 3.96246 3.83364 15.3861
21 2 2.68053 1.56497 15.0432
22 2 6.68116 3.49556 13.2196
23 2 4.53561 1.85609 13.1704
24 2 5.1463 2.5174 10.4863
25 2 3.32399 0.749381 9.31756
26 2 2.7133 3.13618 10.9327
27 2 2.00699 0.376951 12.3044
28 2 6.35421 2.23137 8.08001
29 2 0.228967 -0.0952919 7.20395
30 2 3.9608 2.00058 6.27523
31 2 2.51629 -0.0691827 5.62015
32 2 4.51042 3.60501 3.11785
33 2 3.4038 1.31898 2.95199
34 2 7.10011 3.70686 4.31425
35 2 5.79036 1.50907 4.4923
ITEM: TIMESTEP
500
ITEM: NUMBER OF ATOMS
35
ITEM: BOX BOUNDS xy xz yz pp pp pp
0.0000000000000000e+00 7.6685730000000003e+00 2.5561910000000001e+00
0.0000000000000000e+00 4.4274529999999999e+00 0.0000000000000000e+00
0.0000000000000000e+00 3.5699264999999997e+01 0.0000000000000000e+00
ITEM: ATOMS id type x y z
1 1 2.29621 1.48004 30.9817
2 1 4.82332 2.75632 31.5604
3 1 4.66313 0.339742 31.7798
4 1 4.40059 1.40912 29.3857
5 1 6.47958 3.33662 29.7724
6 1 3.81395 4.05762 29.7008
7 1 2.05616 1.32821 27.8956
8 1 5.20294 3.30941 27.7539
9 1 4.90591 0.305148 27.2719
10 1 6.22086 2.05661 25.6254
11 1 3.67152 2.40574 26.3146
12 1 2.74632 0.27316 25.7937
13 1 3.29643 2.08428 24.1684
14 1 5.26541 2.91059 23.6148
15 1 0.172086 -0.0256269 24.7827
16 2 5.24483 2.13033 16.4765
17 2 3.90978 -0.128045 16.8164
18 2 2.50616 2.64671 18.1897
19 2 1.71381 0.111609 18.0445
20 2 3.72459 4.15694 15.5058
21 2 2.80617 1.62438 15.2829
22 2 6.95912 3.57065 14.0186
23 2 4.71389 1.98264 13.1136
24 2 5.42514 1.81763 10.3495
25 2 2.78756 0.712269 8.85944
26 2 2.42264 3.75125 10.6486
27 2 2.37126 0.476795 12.5157
28 2 6.23122 2.25818 7.40126
29 2 2.90642 4.14005 7.40176
30 2 3.86144 1.90456 6.24029
31 2 5.23624 4.20732 5.85439
32 2 4.83008 3.56645 3.0707
33 2 3.5466 1.28307 2.87574
34 2 2.45655 3.51238 3.93937
35 2 6.05697 1.51166 4.47637
ITEM: TIMESTEP
600
ITEM: NUMBER OF ATOMS
35
ITEM: BOX BOUNDS xy xz yz pp pp pp
0.0000000000000000e+00 7.6685730000000003e+00 2.5561910000000001e+00
0.0000000000000000e+00 4.4274529999999999e+00 0.0000000000000000e+00
0.0000000000000000e+00 3.5699264999999997e+01 0.0000000000000000e+00
ITEM: ATOMS id type x y z
1 1 2.46357 1.17442 30.6596
2 1 4.73026 3.2093 31.7336
3 1 4.86397 0.794244 31.1987
4 1 4.24333 1.77627 29.0263
5 1 6.30826 3.08938 29.9974
6 1 3.5628 4.00666 29.6285
7 1 1.84953 1.39977 28.3846
8 1 5.39181 3.4691 27.8983
9 1 7.57439 4.37241 27.6238
10 1 6.12113 1.98514 25.7793
11 1 3.61744 2.44078 26.6172
12 1 5.15882 4.42365 25.6891
13 1 3.24855 1.65287 23.9889
14 1 5.86563 3.60733 23.6615
15 1 2.52957 4.07666 25.0033
16 2 4.96591 2.13952 16.5893
17 2 6.57812 4.08676 17.0011
18 2 2.66088 2.30177 18.6631
19 2 1.32444 0.190617 18.0898
20 2 3.74338 4.30321 15.1215
21 2 2.86911 1.94228 14.9589
22 2 6.50061 3.93858 13.6534
23 2 5.03393 1.90345 13.1034
24 2 5.51245 1.97758 10.1108
25 2 2.682 0.58455 9.07719
26 2 2.29219 3.51721 10.6319
27 2 2.31693 0.832768 11.8537
28 2 6.08865 2.29081 7.45848
29 2 3.02314 3.94948 7.91359
30 2 3.60258 1.98785 5.70506
31 2 5.30631 3.99072 5.67943
32 2 5.36906 3.29485 2.94036
33 2 3.7528 1.36886 3.12106
34 2 2.47974 3.69263 4.40986
35 2 1.1061 1.31158 4.82789
ITEM: TIMESTEP
700
ITEM: NUMBER OF ATOMS
35
ITEM: BOX BOUNDS xy xz yz pp pp pp
0.0000000000000000e+00 7.6685730000000003e+00 2.5561910000000001e+00
0.0000000000000000e+00 4.4274529999999999e+00 0.0000000000000000e+00
0.0000000000000000e+00 3.5699264999999997e+01 0.0000000000000000e+00
ITEM: ATOMS id type x y z
1 1 2.84419 1.11126 30.8003
2 1 4.03202 3.56522 31.8238
3 1 5.39169 1.28083 31.148
4 1 4.25409 1.27366 28.9907
5 1 6.23622 3.2569 30.2588
6 1 3.35491 3.5585 29.5309
7 1 1.65994 1.88392 28.0407
8 1 5.45107 3.70155 28.1764
9 1 2.71229 4.31154 27.2736
10 1 5.83682 2.43473 25.7569
11 1 3.66154 1.81189 26.7672
12 1 2.197 -0.0282015 25.7814
13 1 3.38082 1.66958 24.3652
14 1 6.02864 3.44838 23.85
15 1 2.64459 3.96219 24.88
16 2 5.01064 2.13112 16.4582
17 2 6.52884 4.23624 16.7867
18 2 3.20979 1.8057 18.3487
19 2 1.16148 0.143752 17.9514
20 2 1.19566 -0.0129588 14.4446
21 2 2.49072 2.05355 14.8054
22 2 6.22314 4.17019 13.577
23 2 5.13085 1.91144 12.7127
24 2 4.54748 2.49659 10.083
25 2 3.28513 0.575848 8.91919
26 2 2.66899 3.57574 10.9922
27 2 2.19955 0.880914 11.5497
28 2 6.022 1.92055 7.89759
29 2 2.97632 3.73553 7.94874
30 2 3.88277 1.68926 6.42393
31 2 5.16408 3.87702 5.96272
32 2 5.62647 3.06705 2.91677
33 2 3.43276 1.4905 3.35468
34 2 2.66976 3.77285 4.50229
35 2 1.28702 1.58948 5.07957
ITEM: TIMESTEP
800
ITEM: NUMBER OF ATOMS
35
ITEM: BOX BOUNDS xy xz yz pp pp pp
0.0000000000000000e+00 7.6685730000000003e+00 2.5561910000000001e+00
0.0000000000000000e+00 4.4274529999999999e+00 0.0000000000000000e+00
0.0000000000000000e+00 3.5699264999999997e+01 0.0000000000000000e+00
ITEM: ATOMS id type x y z
1 1 2.78527 1.44713 30.8938
2 1 3.37308 3.46129 31.83
3 1 5.6049 1.28903 31.2699
4 1 4.72943 0.924462 29.0591
5 1 6.20119 3.72457 30.8768
6 1 3.41566 3.13782 29.381
7 1 1.64894 1.85701 28.5659
8 1 5.21493 4.20629 28.1289
9 1 2.5466 3.9159 26.8809
10 1 6.21251 2.27967 26.0164
11 1 3.99491 1.8505 26.8432
12 1 2.32253 0.384047 25.7755
13 1 3.81185 1.59519 24.4659
14 1 4.9499 3.241 23.534
15 1 2.69281 4.12683 24.4979
16 2 5.05078 2.06871 15.3851
17 2 6.34388 4.10464 16.1491
18 2 3.47167 1.826 17.7438
19 2 1.26208 0.134657 17.3211
20 2 3.62104 4.23202 14.1276
21 2 2.44558 2.00158 15.1259
22 2 6.19732 4.35951 13.8281
23 2 4.77149 2.30543 12.6258
24 2 4.46224 2.68666 9.97718
25 2 3.32724 0.0413546 9.04853
26 2 7.11725 4.2575 11.5102
27 2 2.25155 0.779228 11.5221
28 2 1.3172 1.73038 8.57539
29 2 3.02548 3.53178 7.75113
30 2 4.11253 1.46312 6.53038
31 2 5.18163 3.84134 6.30226
32 2 5.60156 2.9008 3.29812
33 2 3.19472 1.21568 3.67312
34 2 3.24786 4.01802 4.43977
35 2 1.33026 1.96961 5.57845
ITEM: TIMESTEP
900
ITEM: NUMBER OF ATOMS
35
ITEM: BOX BOUNDS xy xz yz pp pp pp
0.0000000000000000e+00 7.6685730000000003e+00 2.5561910000000001e+00
0.0000000000000000e+00 4.4274529999999999e+00 0.0000000000000000e+00
0.0000000000000000e+00 3.5699264999999997e+01 0.0000000000000000e+00
ITEM: ATOMS id type x y z
1 1 2.57685 1.34356 30.7517
2 1 3.57602 3.54853 31.6304
3 1 4.95501 1.53645 31.3524
4 1 4.7221 0.581426 29.2816
5 1 6.22063 3.47476 30.8168
6 1 3.95087 3.25832 29.4885
7 1 1.37809 2.16122 28.7978
8 1 5.53124 4.07346 27.9362
9 1 2.68291 4.1489 26.9407
10 1 6.23571 2.26893 25.4443
11 1 4.04917 2.07955 27.2312
12 1 4.68399 4.34025 25.9843
13 1 3.74617 1.62247 24.6852
14 1 5.03834 3.71773 23.7665
15 1 2.56046 3.88046 24.3969
16 2 4.90611 2.01234 15.0913
17 2 6.28831 3.74556 16.928
18 2 3.74646 2.23556 17.4465
19 2 1.18803 0.221357 16.4572
20 2 3.4863 4.27542 14.0083
21 2 2.33965 1.98972 15.098
22 2 3.55921 -0.0163627 13.5365
23 2 4.54623 2.51087 12.2766
24 2 3.88711 2.51661 9.87735
25 2 6.16163 4.38829 9.01723
26 2 7.44109 3.91575 11.1634
27 2 1.67327 1.43962 11.6117
28 2 1.40132 1.42614 9.04954
29 2 2.96192 3.66645 7.62861
30 2 4.5825 1.556 6.30308
31 2 5.21307 4.04685 6.63223
32 2 5.53171 2.51985 3.86514
33 2 3.31173 0.83975 3.93536
34 2 3.12312 4.15013 4.368
35 2 2.03835 1.9692 6.04862
ITEM: TIMESTEP
1000
ITEM: NUMBER OF ATOMS
35
ITEM: BOX BOUNDS xy xz yz pp pp pp
0.0000000000000000e+00 7.6685730000000003e+00 2.5561910000000001e+00
0.0000000000000000e+00 4.4274529999999999e+00 0.0000000000000000e+00
0.0000000000000000e+00 3.5699264999999997e+01 0.0000000000000000e+00
ITEM: ATOMS id type x y z
1 1 2.201 1.12604 30.4286
2 1 3.56062 4.09048 31.8159
3 1 4.46714 1.50155 31.7126
4 1 5.19572 0.513925 29.524
5 1 6.20951 3.35521 30.7986
6 1 4.09909 2.79071 29.4838
7 1 1.64631 1.99319 27.9631
8 1 5.36743 4.48214 28.2541
9 1 2.48645 4.17676 27.0076
10 1 5.95791 2.07261 25.5155
11 1 3.97232 2.11988 27.187
12 1 4.78289 4.22601 25.8368
13 1 3.66778 1.7602 25.0521
14 1 5.55397 3.93113 23.6394
15 1 2.6049 4.04359 24.7118
16 2 4.8668 2.38763 15.039
17 2 6.24527 3.45396 17.2732
18 2 3.83973 2.06775 17.6196
19 2 1.23407 0.489062 16.6474
20 2 3.33891 4.37851 13.5649
21 2 2.25325 2.33863 14.6361
22 2 3.29206 -0.123453 13.5128
23 2 4.3434 2.33309 11.953
24 2 3.86159 2.33222 9.16629
25 2 5.77799 4.27092 9.12247
26 2 7.38846 4.20648 11.0669
27 2 1.91906 1.57314 12.1468
28 2 1.09051 1.64495 9.13353
29 2 3.17015 3.91322 7.73125
30 2 4.91926 1.33996 6.57492
31 2 5.57892 3.94004 6.28162
32 2 5.56929 2.23695 4.10686
33 2 3.05783 0.725718 3.85549
34 2 3.18535 3.83198 4.5857
35 2 2.50246 2.01655 6.17496
ITEM: TIMESTEP
1100
ITEM: NUMBER OF ATOMS
35
ITEM: BOX BOUNDS xy xz yz pp pp pp
0.0000000000000000e+00 7.6685730000000003e+00 2.5561910000000001e+00
0.0000000000000000e+00 4.4274529999999999e+00 0.0000000000000000e+00
0.0000000000000000e+00 3.5699264999999997e+01 0.0000000000000000e+00
ITEM: ATOMS id type x y z
1 1 2.13313 1.23497 30.3221
2 1 3.29772 4.047 31.5845
3 1 4.10599 1.59728 31.9282
4 1 5.18169 0.256547 29.4104
5 1 6.11391 3.33292 30.7434
6 1 4.00825 2.70127 29.6378
7 1 1.57774 2.06968 27.8842
8 1 2.87842 -0.346988 28.627
9 1 2.64602 4.48085 27.1363
10 1 6.14148 2.00307 25.0732
11 1 4.04151 2.13108 27.4372
12 1 5.14531 4.48616 26.2868
13 1 3.1809 1.76406 24.5894
14 1 5.63161 3.85544 24.0466
15 1 2.99222 4.29713 24.671
16 2 4.64711 2.30225 15.1933
17 2 6.46335 3.38658 17.0754
18 2 3.606 1.72607 17.4759
19 2 1.31405 0.381042 16.7292
20 2 3.15451 4.83273 13.6414
21 2 2.22992 2.18548 14.9631
22 2 5.73426 4.37129 13.928
23 2 5.01958 2.81789 11.8646
24 2 3.95774 1.64612 9.37264
25 2 4.92632 3.96753 9.30916
26 2 7.43834 4.38027 10.8497
27 2 2.288 1.8386 11.7349
28 2 1.31258 2.04391 9.42528
29 2 3.1051 4.1566 7.7837
30 2 4.76118 1.64668 6.38801
31 2 5.89699 3.78798 5.97467
32 2 5.61266 2.02272 3.71615
33 2 3.01306 0.808443 3.57063
34 2 3.35914 3.74994 4.5194
35 2 2.20017 1.67839 6.5208
ITEM: TIMESTEP
1200
ITEM: NUMBER OF ATOMS
35
ITEM: BOX BOUNDS xy xz yz pp pp pp
0.0000000000000000e+00 7.6685730000000003e+00 2.5561910000000001e+00
0.0000000000000000e+00 4.4274529999999999e+00 0.0000000000000000e+00
0.0000000000000000e+00 3.5699264999999997e+01 0.0000000000000000e+00
ITEM: ATOMS id type x y z
1 1 1.92794 1.2103 30.7512
2 1 3.13874 3.79328 31.7124
3 1 4.17344 1.35216 31.5853
4 1 5.06221 0.577925 29.378
5 1 5.68319 3.45568 31.3077
6 1 3.71883 2.63164 29.5048
7 1 1.63071 1.82711 28.3801
8 1 5.50491 3.96105 28.6113
9 1 0.204773 -0.0174894 26.7915
10 1 6.08838 1.96654 25.704
11 1 4.11998 2.51795 26.8035
12 1 2.81204 0.397815 26.3294
13 1 4.06721 1.75465 24.5693
14 1 5.3683 4.13266 24.141
15 1 2.86246 4.09341 24.3052
16 2 4.63281 2.14653 15.3469
17 2 6.43018 3.53445 17.1082
18 2 3.35555 1.52193 17.5886
19 2 1.16764 -0.0822001 16.5885
20 2 0.5946 0.419126 13.4372
21 2 2.13364 2.37742 14.6622
22 2 5.91077 4.53467 14.6866
23 2 5.55248 3.45874 12.0766
24 2 3.96247 1.1826 8.9789
25 2 4.43498 4.08847 9.42428
26 2 7.95486 4.15183 11.2182
27 2 3.15984 1.60171 12.2333
28 2 1.49777 2.41842 9.05699
29 2 2.51602 3.84788 7.53774
30 2 4.26961 2.31262 6.20296
31 2 6.01538 3.94225 5.65419
32 2 5.83202 1.99376 3.37298
33 2 3.31129 0.971665 3.57807
34 2 3.20241 3.67507 4.43644
35 2 1.60453 1.14584 6.67258
ITEM: TIMESTEP
1300
ITEM: NUMBER OF ATOMS
35
ITEM: BOX BOUNDS xy xz yz pp pp pp
0.0000000000000000e+00 7.6685730000000003e+00 2.5561910000000001e+00
0.0000000000000000e+00 4.4274529999999999e+00 0.0000000000000000e+00
0.0000000000000000e+00 3.5699264999999997e+01 0.0000000000000000e+00
ITEM: ATOMS id type x y z
1 1 1.73896 1.38136 30.951
2 1 2.81502 3.26951 31.5665
3 1 4.39536 1.22059 31.445
4 1 5.03087 0.562283 29.3645
5 1 5.41462 3.48117 31.0936
6 1 3.44521 2.61699 29.3813
7 1 1.51113 1.67384 28.1692
8 1 5.49139 4.09162 28.9193
9 1 5.06494 0.107363 27.1448
10 1 1.89876 2.65816 25.879
11 1 4.2996 2.63185 26.9118
12 1 2.70221 0.4776 26.3847
13 1 4.57886 1.87105 24.5696
14 1 5.14354 4.06013 24.1856
15 1 2.68311 3.71508 24.383
16 2 4.87333 2.33341 15.2372
17 2 5.99674 2.89981 17.6907
18 2 3.26805 1.7934 17.7048
19 2 0.78703 0.207304 16.5691
20 2 0.9904 0.260623 13.7452
21 2 2.25396 2.5727 14.2185
22 2 3.22787 0.213833 15.4009
23 2 5.79058 2.97706 12.2218
24 2 4.00369 1.37899 8.94458
25 2 4.58767 3.94339 8.86338
26 2 2.78438 4.1779 10.9087
27 2 3.81509 1.5982 12.1331
28 2 1.32693 2.12166 9.87533
29 2 2.09544 3.67033 7.59909
30 2 4.0818 2.12933 6.41367
31 2 6.0441 3.91355 5.42797
32 2 5.99881 2.23384 3.64777
33 2 3.40216 1.24493 3.38857
34 2 3.20858 3.96393 3.74366
35 2 1.38621 1.12358 5.96094
ITEM: TIMESTEP
1400
ITEM: NUMBER OF ATOMS
35
ITEM: BOX BOUNDS xy xz yz pp pp pp
0.0000000000000000e+00 7.6685730000000003e+00 2.5561910000000001e+00
0.0000000000000000e+00 4.4274529999999999e+00 0.0000000000000000e+00
0.0000000000000000e+00 3.5699264999999997e+01 0.0000000000000000e+00
ITEM: ATOMS id type x y z
1 1 1.78339 1.15418 30.7009
2 1 2.80379 3.55422 31.4599
3 1 3.87087 1.32816 31.859
4 1 4.87863 0.122152 29.417
5 1 5.37104 3.32395 31.0102
6 1 3.71365 2.39723 29.4483
7 1 1.49544 2.31673 28.5204
8 1 5.27215 4.21533 28.7257
9 1 0.247332 0.0402651 26.6372
10 1 6.44165 2.62907 25.885
11 1 4.14598 2.49485 27.2041
12 1 2.74589 0.40001 26.5124
13 1 4.60711 1.5194 24.9686
14 1 3.04156 0.0746065 24.1942
15 1 3.10538 3.96729 24.2294
16 2 4.94811 2.4225 15.0041
17 2 5.64748 2.81433 17.9469
18 2 3.24421 1.93187 17.5071
19 2 0.53473 0.20916 16.9608
20 2 1.32837 0.16887 13.2666
21 2 2.38386 2.65916 14.8262
22 2 3.31015 0.259951 15.4203
23 2 5.92551 3.13924 12.5605
24 2 4.05182 1.60536 9.27819
25 2 4.46335 4.28855 8.12336
26 2 3.04669 3.89454 10.7862
27 2 3.39848 1.3552 12.0727
28 2 1.51907 1.70589 10.321
29 2 1.87942 3.02743 8.14082
30 2 3.9071 2.25895 6.14209
31 2 6.25545 4.05222 5.48501
32 2 5.83781 2.53902 3.22049
33 2 3.4086 1.25804 3.22268
34 2 3.53945 4.06001 3.38565
35 2 1.34002 1.0561 5.87563
ITEM: TIMESTEP
1500
ITEM: NUMBER OF ATOMS
35
ITEM: BOX BOUNDS xy xz yz pp pp pp
0.0000000000000000e+00 7.6685730000000003e+00 2.5561910000000001e+00
0.0000000000000000e+00 4.4274529999999999e+00 0.0000000000000000e+00
0.0000000000000000e+00 3.5699264999999997e+01 0.0000000000000000e+00
ITEM: ATOMS id type x y z
1 1 1.55889 1.12152 30.9788
2 1 2.86935 3.83974 31.5223
3 1 3.95082 1.23037 31.8913
4 1 4.91675 0.127905 29.0969
5 1 5.68805 3.28561 31.1808
6 1 3.75325 1.98655 29.6137
7 1 1.12909 2.32478 28.3956
8 1 4.75266 4.49327 28.714
9 1 0.303994 0.215581 26.8306
10 1 6.5567 2.68779 25.8668
11 1 4.24093 2.29437 27.3022
12 1 2.71602 0.530242 26.3393
13 1 4.44375 1.89727 24.7641
14 1 3.20797 -0.285777 23.9786
15 1 3.30609 3.93024 24.7082
16 2 4.95895 1.87502 15.0086
17 2 5.77027 3.49064 17.5467
18 2 2.88655 1.66713 17.7972
19 2 0.922736 0.209255 17.0162
20 2 0.69419 0.255573 13.3483
21 2 2.45669 2.77488 15.4284
22 2 3.05256 0.227011 15.0966
23 2 6.08379 3.14194 12.6724
24 2 4.4706 1.55479 9.03618
25 2 4.14047 4.64548 7.96376
26 2 3.4354 3.31473 10.7478
27 2 3.72399 1.44905 12.6055
28 2 1.32895 1.50086 10.7605
29 2 1.88204 2.77198 8.00916
30 2 3.85115 2.81137 5.84938
31 2 6.56715 3.79607 5.47342
32 2 5.90778 2.74643 2.96668
33 2 3.39116 1.12522 3.46869
34 2 3.5816 4.10401 3.33703
35 2 0.909131 1.19507 5.26952
ITEM: TIMESTEP
1600
ITEM: NUMBER OF ATOMS
35
ITEM: BOX BOUNDS xy xz yz pp pp pp
0.0000000000000000e+00 7.6685730000000003e+00 2.5561910000000001e+00
0.0000000000000000e+00 4.4274529999999999e+00 0.0000000000000000e+00
0.0000000000000000e+00 3.5699264999999997e+01 0.0000000000000000e+00
ITEM: ATOMS id type x y z
1 1 1.48767 1.54334 30.9445
2 1 2.97495 3.20039 31.7394
3 1 4.41504 1.27096 31.6438
4 1 7.30344 4.44883 29.6484
5 1 5.20633 3.72036 30.8115
6 1 3.53664 2.27883 29.2845
7 1 6.35465 2.06465 28.6779
8 1 4.96357 4.35722 28.5752
9 1 5.17345 0.526037 27.2701
10 1 1.70974 2.54481 26.1999
11 1 3.7527 2.88854 26.8367
12 1 2.78584 0.319047 26.2871
13 1 4.39297 1.78142 24.86
14 1 5.9344 3.5226 24.2554
15 1 3.49154 4.21652 24.5803
16 2 4.8058 1.96702 15.6216
17 2 6.01462 3.49727 17.3396
18 2 3.41259 1.7867 18.1779
19 2 0.806077 0.305998 17.2913
20 2 0.711847 -0.205215 13.2623
21 2 2.4655 2.81351 15.396
22 2 2.58061 0.132564 15.0303
23 2 6.0664 3.20718 12.8004
24 2 4.30109 1.15798 8.15674
25 2 1.70633 -0.185243 7.99576
26 2 3.7535 3.04888 10.337
27 2 3.65366 1.81701 12.8999
28 2 1.45078 1.25178 10.8456
29 2 1.54236 3.08332 8.05042
30 2 3.93401 2.88109 5.78557
31 2 6.3826 4.32732 5.66791
32 2 6.09631 2.74074 2.82429
33 2 3.40878 1.37042 3.66651
34 2 3.31879 3.82982 2.89383
35 2 1.09513 1.34853 5.20723
ITEM: TIMESTEP
1700
ITEM: NUMBER OF ATOMS
35
ITEM: BOX BOUNDS xy xz yz pp pp pp
0.0000000000000000e+00 7.6685730000000003e+00 2.5561910000000001e+00
0.0000000000000000e+00 4.4274529999999999e+00 0.0000000000000000e+00
0.0000000000000000e+00 3.5699264999999997e+01 0.0000000000000000e+00
ITEM: ATOMS id type x y z
1 1 1.96859 1.73509 30.9841
2 1 2.85646 3.5442 32.2284
3 1 3.98355 1.29455 31.5883
4 1 2.74482 4.01712 29.5797
5 1 4.92783 3.62119 30.9581
6 1 3.71922 2.02905 29.0852
7 1 6.42701 2.53935 28.7034
8 1 2.49224 0.240358 28.6361
9 1 4.75384 0.612523 27.2604
10 1 6.11731 2.21382 26.4014
11 1 3.64794 3.21712 26.8575
12 1 2.71739 0.375112 26.0595
13 1 4.25725 1.60195 24.7945
14 1 6.51945 3.12488 24.2972
15 1 3.63316 4.26593 24.6906
16 2 4.92879 1.69932 15.5644
17 2 6.22661 3.45664 18.13
18 2 3.94932 2.06819 17.9789
19 2 1.14187 0.233015 18.0844
20 2 0.608269 0.376316 12.6334
21 2 2.01772 3.06442 15.3463
22 2 2.61998 0.175693 15.4816
23 2 5.64624 3.09293 12.4623
24 2 4.11714 1.43487 7.85349
25 2 4.16279 4.36488 7.9731
26 2 4.03297 2.48482 10.171
27 2 3.3255 1.49383 12.9414
28 2 1.67349 1.17986 10.4428
29 2 6.48705 2.34836 8.35993
30 2 3.7408 2.99575 5.49819
31 2 3.9849 -0.0260366 5.47602
32 2 5.74751 2.7315 3.12665
33 2 3.35858 1.2673 2.96714
34 2 3.31895 4.36329 2.93217
35 2 1.58713 1.30986 5.6482
ITEM: TIMESTEP
1800
ITEM: NUMBER OF ATOMS
35
ITEM: BOX BOUNDS xy xz yz pp pp pp
0.0000000000000000e+00 7.6685730000000003e+00 2.5561910000000001e+00
0.0000000000000000e+00 4.4274529999999999e+00 0.0000000000000000e+00
0.0000000000000000e+00 3.5699264999999997e+01 0.0000000000000000e+00
ITEM: ATOMS id type x y z
1 1 1.54356 1.70171 30.9007
2 1 3.00568 3.8056 32.204
3 1 3.95765 1.30488 31.6347
4 1 2.93548 4.37641 29.8862
5 1 5.33345 3.61378 31.1346
6 1 4.3308 1.96731 29.3601
7 1 6.39098 2.8475 28.7266
8 1 2.1566 0.280599 28.3754
9 1 4.63757 0.324653 27.446
10 1 5.83139 2.2454 26.5801
11 1 3.28422 2.37691 27.0214
12 1 2.6135 0.301691 25.9958
13 1 4.29815 1.96483 24.5194
14 1 6.74599 2.94156 24.4535
15 1 0.991364 0.120181 24.3725
16 2 5.22829 1.58824 15.1959
17 2 6.56323 3.47299 18.4036
18 2 3.89511 1.8915 17.6443
19 2 1.45095 0.723207 18.2742
20 2 0.42697 0.251147 12.7843
21 2 2.42678 3.37573 15.2939
22 2 4.63108 4.32497 15.8861
23 2 5.44615 3.28179 12.647
24 2 3.89849 1.26116 7.79409
25 2 3.8957 3.96609 7.70305
26 2 4.33697 2.13696 10.5603
27 2 2.79166 1.47372 13.143
28 2 1.94918 0.747272 10.2521
29 2 6.70831 3.16414 7.92916
30 2 3.86622 2.63707 5.15127
31 2 6.70665 4.35916 5.24591
32 2 5.63771 2.80353 3.43373
33 2 3.19985 1.25053 2.55997
34 2 0.787943 0.261233 3.28084
35 2 1.43846 1.51276 5.71763
ITEM: TIMESTEP
1900
ITEM: NUMBER OF ATOMS
35
ITEM: BOX BOUNDS xy xz yz pp pp pp
0.0000000000000000e+00 7.6685730000000003e+00 2.5561910000000001e+00
0.0000000000000000e+00 4.4274529999999999e+00 0.0000000000000000e+00
0.0000000000000000e+00 3.5699264999999997e+01 0.0000000000000000e+00
ITEM: ATOMS id type x y z
1 1 1.53908 1.6631 31.0823
2 1 3.30216 3.77714 32.2208
3 1 4.3564 1.44454 31.6183
4 1 2.82985 4.42918 30.138
5 1 5.52467 3.96317 30.7132
6 1 3.92294 2.28018 29.2363
7 1 6.31472 2.46473 28.8847
8 1 2.15724 0.349757 28.2999
9 1 4.93199 -0.070049 27.1657
10 1 5.62844 2.07433 26.7485
11 1 3.05068 2.28978 26.9246
12 1 2.9726 -0.0557642 25.8273
13 1 3.92631 2.41807 24.8479
14 1 6.77927 2.7744 24.7749
15 1 0.678617 0.525434 24.5771
16 2 4.9569 1.73398 15.027
17 2 6.75116 3.59279 17.8745
18 2 3.91705 1.875 17.3435
19 2 1.2835 0.881218 18.0222
20 2 0.268111 -0.179029 12.6754
21 2 2.48035 3.21289 15.6505
22 2 5.3595 4.45049 15.9428
23 2 5.43143 3.39283 13.1919
24 2 3.86908 1.50495 7.94742
25 2 4.15835 4.11582 7.52715
26 2 4.45544 2.0942 10.4671
27 2 2.65904 1.72606 13.3707
28 2 2.08723 0.315515 10.1615
29 2 6.32056 2.69672 8.13905
30 2 3.75538 2.81225 5.26405
31 2 6.31395 4.29607 5.48182
32 2 6.11999 3.04629 2.78231
33 2 3.13347 1.54301 2.97457
34 2 0.753667 -0.10314 3.31178
35 2 1.26119 1.42084 5.58775
ITEM: TIMESTEP
2000
ITEM: NUMBER OF ATOMS
35
ITEM: BOX BOUNDS xy xz yz pp pp pp
0.0000000000000000e+00 7.6685730000000003e+00 2.5561910000000001e+00
0.0000000000000000e+00 4.4274529999999999e+00 0.0000000000000000e+00
0.0000000000000000e+00 3.5699264999999997e+01 0.0000000000000000e+00
ITEM: ATOMS id type x y z
1 1 2.30544 2.14606 31.5673
2 1 3.51088 4.05657 31.8568
3 1 4.57533 1.61622 31.5848
4 1 0.168525 0.169671 29.3972
5 1 5.33441 4.17478 30.7462
6 1 3.51396 2.04451 29.5372
7 1 6.35845 2.19768 29.1385
8 1 2.44109 -0.346604 28.1315
9 1 7.26978 4.06316 27.2846
10 1 5.42573 2.43093 26.8238
11 1 3.03358 1.91717 27.143
12 1 2.46397 0.241823 25.5281
13 1 4.35919 2.75075 24.6019
14 1 1.82488 2.63558 24.8475
15 1 0.0776545 0.382858 25.3143
16 2 5.25341 1.11286 15.0435
17 2 6.47853 3.72423 18.0508
18 2 4.16237 2.38966 17.9542
19 2 1.24345 0.681254 17.4558
20 2 2.86449 4.63398 12.3094
21 2 2.92494 3.04795 15.285
22 2 2.54078 0.404731 15.3001
23 2 5.26357 3.2801 13.1732
24 2 3.76088 1.39772 7.93033
25 2 3.86545 4.20042 7.84752
26 2 4.45027 2.02915 10.7295
27 2 2.70561 1.62085 12.8824
28 2 2.3803 0.253858 10.4246
29 2 6.44204 2.34116 8.6502
30 2 3.5875 2.98841 5.5666
31 2 6.07927 4.13137 5.47027
32 2 6.02655 3.15037 2.7964
33 2 3.47916 1.43349 3.47749
34 2 3.46708 4.55134 2.95151
35 2 0.964976 1.42954 5.2887
ITEM: TIMESTEP
2100
ITEM: NUMBER OF ATOMS
35
ITEM: BOX BOUNDS xy xz yz pp pp pp
0.0000000000000000e+00 7.6685730000000003e+00 2.5561910000000001e+00
0.0000000000000000e+00 4.4274529999999999e+00 0.0000000000000000e+00
0.0000000000000000e+00 3.5699264999999997e+01 0.0000000000000000e+00
ITEM: ATOMS id type x y z
1 1 2.09117 2.15697 31.7301
2 1 3.66011 4.22889 31.8486
3 1 4.81446 2.25068 31.5963
4 1 0.0995712 -0.23065 29.4941
5 1 5.83807 4.34228 30.8029
6 1 3.92164 2.09517 29.415
7 1 6.36652 2.25262 29.3862
8 1 1.89654 0.0209705 28.3446
9 1 6.89769 4.06456 27.3768
10 1 5.52762 1.87869 26.9323
11 1 3.12523 1.81749 27.0952
12 1 2.58858 0.0252087 25.563
13 1 4.11001 2.62794 24.575
14 1 1.72161 2.65603 24.9484
15 1 -0.122333 0.432804 24.7948
16 2 5.1953 1.38047 15.0947
17 2 6.44723 4.01299 17.5928
18 2 3.94215 2.60167 17.9449
19 2 1.42568 0.89141 17.4677
20 2 2.7536 4.53333 12.4624
21 2 2.82025 2.76847 15.1479
22 2 2.89812 -0.171313 15.0807
23 2 5.42259 2.88727 12.8436
24 2 3.81253 0.980737 7.85987
25 2 3.62109 3.96255 8.28307
26 2 4.53355 2.25105 10.3051
27 2 2.63907 1.9254 12.5651
28 2 2.59216 0.260278 10.4728
29 2 6.5431 3.00521 8.8293
30 2 3.11766 2.84823 5.60978
31 2 6.04287 4.31499 5.65722
32 2 5.86058 2.95601 3.46094
33 2 3.7238 1.46276 3.27359
34 2 3.70912 4.64586 2.90592
35 2 0.884543 1.23643 5.58927
ITEM: TIMESTEP
2200
ITEM: NUMBER OF ATOMS
35
ITEM: BOX BOUNDS xy xz yz pp pp pp
0.0000000000000000e+00 7.6685730000000003e+00 2.5561910000000001e+00
0.0000000000000000e+00 4.4274529999999999e+00 0.0000000000000000e+00
0.0000000000000000e+00 3.5699264999999997e+01 0.0000000000000000e+00
ITEM: ATOMS id type x y z
1 1 2.35379 2.49908 31.4526
2 1 3.27247 4.72456 32.0257
3 1 4.90311 2.16467 31.5532
4 1 2.78059 4.311 29.7524
5 1 3.1773 0.124841 30.8461
6 1 3.84893 1.99207 29.1049
7 1 1.27472 2.0718 29.4126
8 1 2.37195 -0.0829719 28.3471
9 1 7.0477 4.07176 27.155
10 1 5.62766 1.57127 27.1113
11 1 3.24067 2.30176 26.9684
12 1 4.81239 4.4539 25.8177
13 1 3.72647 2.27587 24.7703
14 1 1.21395 2.36811 25.0204
15 1 5.32928 0.321807 24.9199
16 2 5.24713 1.42938 15.2136
17 2 6.73879 4.2459 17.2248
18 2 3.92741 2.50199 17.3512
19 2 1.5586 1.26878 17.4121
20 2 2.74026 4.45401 12.7472
21 2 2.68634 2.87981 15.1969
22 2 5.18176 4.10026 14.8478
23 2 5.24853 3.03338 12.3259
24 2 3.74101 1.28506 7.81666
25 2 3.98607 4.41422 8.15151
26 2 4.58201 1.93189 10.2451
27 2 2.84403 1.47032 12.9735
28 2 2.42347 0.621258 10.5278
29 2 6.69206 2.66113 8.42361
30 2 3.25099 2.76145 5.58366
31 2 5.52087 4.22287 5.86066
32 2 6.20869 2.7155 3.58157
33 2 3.49908 1.47047 3.14525
34 2 1.13496 -0.0586284 3.54614
35 2 0.812189 1.30174 6.14716
ITEM: TIMESTEP
2300
ITEM: NUMBER OF ATOMS
35
ITEM: BOX BOUNDS xy xz yz pp pp pp
0.0000000000000000e+00 7.6685730000000003e+00 2.5561910000000001e+00
0.0000000000000000e+00 4.4274529999999999e+00 0.0000000000000000e+00
0.0000000000000000e+00 3.5699264999999997e+01 0.0000000000000000e+00
ITEM: ATOMS id type x y z
1 1 2.24971 2.72384 31.5198
2 1 3.5531 4.91001 31.9739
3 1 4.7542 2.58389 31.3565
4 1 2.80217 4.34666 29.4957
5 1 3.0927 0.417105 31.0479
6 1 3.774 1.69917 29.2935
7 1 1.5217 2.30974 29.4277
8 1 2.34508 -0.56091 28.5338
9 1 6.98671 4.12504 27.3834
10 1 6.04731 1.80184 27.193
11 1 3.55851 2.21911 26.8244
12 1 4.81104 4.64619 26.087
13 1 3.59911 1.71777 24.4644
14 1 0.732807 2.54343 24.927
15 1 5.0386 -0.188136 25.0917
16 2 5.20849 1.42455 14.8414
17 2 6.74197 4.23786 17.3181
18 2 4.53982 2.84548 17.288
19 2 1.69331 1.29459 17.3944
20 2 2.75986 4.39837 12.4183
21 2 2.2914 3.05799 14.9204
22 2 4.72253 4.15246 15.2106
23 2 5.53895 2.97609 12.7032
24 2 3.98198 1.42845 7.99919
25 2 3.98507 4.05462 8.29668
26 2 4.72931 1.59455 10.1937
27 2 3.20851 1.47355 12.8673
28 2 1.92383 0.828531 10.7217
29 2 6.68758 2.96386 8.24737
30 2 2.9885 2.56087 5.69677
31 2 5.71871 4.13974 5.74598
32 2 6.23178 2.66388 3.41715
33 2 3.65347 1.11928 3.49208
34 2 0.984579 -0.0854037 3.79269
35 2 0.47469 1.53751 5.63009
ITEM: TIMESTEP
2400
ITEM: NUMBER OF ATOMS
35
ITEM: BOX BOUNDS xy xz yz pp pp pp
0.0000000000000000e+00 7.6685730000000003e+00 2.5561910000000001e+00
0.0000000000000000e+00 4.4274529999999999e+00 0.0000000000000000e+00
0.0000000000000000e+00 3.5699264999999997e+01 0.0000000000000000e+00
ITEM: ATOMS id type x y z
1 1 2.17761 3.15045 32.1254
2 1 1.14665 0.914626 31.886
3 1 4.63912 3.09919 31.4408
4 1 2.68041 4.03891 29.7383
5 1 3.7515 0.749099 31.4648
6 1 3.67649 1.52396 28.7919
7 1 1.19384 2.12049 29.6906
8 1 4.8444 3.9606 28.5036
9 1 7.22157 4.19596 27.4478
10 1 6.31707 1.84912 27.1466
11 1 3.48805 2.44163 26.4322
12 1 2.7754 -0.20413 26.1746
13 1 2.74075 1.28114 24.4465
14 1 5.325 2.15177 24.8562
15 1 2.75276 4.17112 24.9061
16 2 4.56976 1.37887 15.0995
17 2 7.32173 4.46523 17.4343
18 2 4.57856 2.74483 17.7438
19 2 2.02445 1.49734 17.4304
20 2 3.09578 3.94862 11.8594
21 2 1.91834 3.05496 15.1605
22 2 4.59964 4.53661 15.0093
23 2 5.86227 2.91124 12.6498
24 2 3.9661 1.13199 7.80508
25 2 3.87839 4.18497 8.19237
26 2 4.63509 1.91178 10.6996
27 2 3.21199 1.6041 12.9362
28 2 2.43611 0.803693 10.2961
29 2 6.32791 2.98262 8.68956
30 2 2.6415 2.64359 5.93651
31 2 5.64132 4.22155 5.83054
32 2 6.08361 2.79677 2.92825
33 2 3.73247 1.07849 3.40864
34 2 3.80876 3.97921 3.23588
35 2 5.44693 1.16544 5.69763
ITEM: TIMESTEP
2500
ITEM: NUMBER OF ATOMS
35
ITEM: BOX BOUNDS xy xz yz pp pp pp
0.0000000000000000e+00 7.6685730000000003e+00 2.5561910000000001e+00
0.0000000000000000e+00 4.4274529999999999e+00 0.0000000000000000e+00
0.0000000000000000e+00 3.5699264999999997e+01 0.0000000000000000e+00
ITEM: ATOMS id type x y z
1 1 2.42914 3.54106 32.1198
2 1 1.32614 1.33514 32.2664
3 1 4.78275 3.76564 31.0249
4 1 2.33135 3.66313 29.9155
5 1 3.8407 1.32835 31.2633
6 1 3.58002 1.67852 28.9099
7 1 5.85594 1.52828 29.854
8 1 4.88949 3.97889 28.7132
9 1 8.00198 4.28745 27.3693
10 1 1.27317 1.86232 27.2404
11 1 3.69967 1.95102 26.4886
12 1 5.36335 4.06528 26.196
13 1 2.15029 1.11863 24.4562
14 1 5.07732 2.14392 24.783
15 1 2.54943 3.77291 24.8824
16 2 4.23512 1.53297 15.7218
17 2 5.22997 0.0950033 17.8031
18 2 4.7535 3.03209 17.7008
19 2 2.33629 1.5851 17.6049
20 2 3.14003 4.23755 11.4156
21 2 1.90057 2.98026 15.3205
22 2 1.24687 -0.0600229 14.6515
23 2 6.13794 2.89799 12.7602
24 2 3.76206 1.4171 7.90651
25 2 3.45845 4.41914 8.23025
26 2 4.71968 2.25913 10.4365
27 2 3.26337 1.19455 12.919
28 2 2.86202 0.60178 10.3466
29 2 6.75753 2.62072 8.82487
30 2 2.63754 2.81444 5.8335
31 2 4.94634 3.7108 5.64746
32 2 6.42586 2.44618 3.01753
33 2 3.62051 1.27336 3.23149
34 2 3.76931 3.90337 3.04957
35 2 5.51318 1.17309 5.47037
ITEM: TIMESTEP
2600
ITEM: NUMBER OF ATOMS
35
ITEM: BOX BOUNDS xy xz yz pp pp pp
0.0000000000000000e+00 7.6685730000000003e+00 2.5561910000000001e+00
0.0000000000000000e+00 4.4274529999999999e+00 0.0000000000000000e+00
0.0000000000000000e+00 3.5699264999999997e+01 0.0000000000000000e+00
ITEM: ATOMS id type x y z
1 1 2.61182 4.01232 31.9581
2 1 1.20177 1.84711 31.836
3 1 5.18506 4.02165 31.2651
4 1 1.87578 3.45312 29.6438
5 1 3.80755 1.89405 31.5269
6 1 3.48183 1.7914 29.3089
7 1 6.15659 0.949319 29.5648
8 1 4.81008 3.73262 28.6898
9 1 2.88692 4.32295 27.4609
10 1 1.47064 2.10874 27.3403
11 1 4.029 1.53192 26.4919
12 1 5.11966 3.76704 26.2415
13 1 2.01943 1.14194 24.9132
14 1 4.89848 2.2622 24.4634
15 1 2.35452 3.32581 25.1882
16 2 4.18111 1.52175 15.7081
17 2 0.0302053 -0.0283362 17.9044
18 2 5.44279 3.59463 17.6044
19 2 2.27771 1.59374 17.7239
20 2 2.87777 4.30062 11.4039
21 2 1.15282 2.91859 15.4449
22 2 3.67011 4.25782 14.4571
23 2 6.10413 2.47728 12.8955
24 2 4.02586 1.32727 7.44902
25 2 1.27879 0.191096 8.49851
26 2 4.72199 2.37965 10.1633
27 2 3.8018 1.32133 13.1348
28 2 2.98097 0.362087 10.4989
29 2 1.49773 2.91158 8.41931
30 2 2.37785 2.61794 5.64233
31 2 5.11197 3.99632 5.53067
32 2 6.41545 2.50836 3.24932
33 2 3.66786 0.831173 3.51924
34 2 3.66539 4.16328 3.13452
35 2 5.25446 0.838663 5.36584
ITEM: TIMESTEP
2700
ITEM: NUMBER OF ATOMS
35
ITEM: BOX BOUNDS xy xz yz pp pp pp
0.0000000000000000e+00 7.6685730000000003e+00 2.5561910000000001e+00
0.0000000000000000e+00 4.4274529999999999e+00 0.0000000000000000e+00
0.0000000000000000e+00 3.5699264999999997e+01 0.0000000000000000e+00
ITEM: ATOMS id type x y z
1 1 2.72368 4.73497 31.6128
2 1 1.40805 2.52947 31.6734
3 1 5.09451 4.59952 31.1898
4 1 2.20589 3.21043 29.4681
5 1 3.89006 2.30067 31.9462
6 1 3.52062 0.809409 29.1876
7 1 0.833849 1.14443 29.4467
8 1 4.9194 3.10101 28.9314
9 1 2.81207 4.05262 27.5362
10 1 1.86808 1.83451 27.4508
11 1 3.85344 1.42352 26.4667
12 1 5.06396 3.53237 26.5163
13 1 1.46254 0.983686 25.1781
14 1 4.66644 2.2324 24.3249
15 1 2.34297 3.81695 25.3798
16 2 3.76103 1.2788 16.0385
17 2 0.340209 0.308563 17.3853
18 2 4.89383 3.26499 17.9264
19 2 2.19885 2.16079 17.6698
20 2 3.02907 3.67632 11.5291
21 2 6.4858 2.92193 15.0149
22 2 4.06035 4.29115 14.6367
23 2 6.19368 2.31832 12.2882
24 2 4.04164 1.5281 7.94945
25 2 1.55015 0.159857 8.10812
26 2 4.91347 2.17098 10.0913
27 2 3.61834 1.40593 13.3173
28 2 2.65924 0.788005 10.7784
29 2 6.51533 3.30041 8.06313
30 2 2.70551 2.34637 5.83029
31 2 5.27715 3.95209 5.90954
32 2 6.12992 2.64446 3.25858
33 2 3.42144 1.00495 3.28605
34 2 3.63292 3.8268 3.10963
35 2 5.37965 0.685548 5.41135
ITEM: TIMESTEP
2800
ITEM: NUMBER OF ATOMS
35
ITEM: BOX BOUNDS xy xz yz pp pp pp
0.0000000000000000e+00 7.6685730000000003e+00 2.5561910000000001e+00
0.0000000000000000e+00 4.4274529999999999e+00 0.0000000000000000e+00
0.0000000000000000e+00 3.5699264999999997e+01 0.0000000000000000e+00
ITEM: ATOMS id type x y z
1 1 4.98405 0.762281 31.6602
2 1 6.4395 3.02256 32.1059
3 1 2.68675 0.679005 31.2518
4 1 2.38111 2.49147 30.0212
5 1 4.18274 3.04493 31.5907
6 1 3.53579 0.33753 28.6166
7 1 0.826766 0.532332 29.5682
8 1 4.81426 2.73119 29.1476
9 1 3.19044 3.94644 27.2255
10 1 1.71434 2.02335 27.6237
11 1 4.04382 1.28261 26.607
12 1 5.37562 3.59923 26.6152
13 1 1.50098 0.951745 25.243
14 1 4.12947 2.79935 24.7443
15 1 1.83043 3.40254 24.7378
16 2 3.33673 1.30544 15.768
17 2 0.654938 0.572799 16.9169
18 2 4.69638 3.01457 17.6228
19 2 2.13601 2.68327 18.0252
20 2 3.15362 3.46836 11.3248
21 2 6.64053 2.87285 15.0745
22 2 3.99252 4.22601 14.6231
23 2 5.83465 2.59735 12.9961
24 2 3.75768 1.87185 8.16575
25 2 1.35733 0.250442 8.07391
26 2 5.48698 2.08588 10.0782
27 2 3.80592 1.0771 13.1344
28 2 2.58155 0.724101 10.6096
29 2 6.91349 3.31682 8.5435
30 2 2.93393 2.09467 5.63275
31 2 5.6923 3.47273 5.72614
32 2 6.00689 2.57406 3.37612
33 2 3.19938 1.07228 3.20425
34 2 3.4455 3.81192 3.28766
35 2 5.23108 0.887233 5.26029
ITEM: TIMESTEP
2900
ITEM: NUMBER OF ATOMS
35
ITEM: BOX BOUNDS xy xz yz pp pp pp
0.0000000000000000e+00 7.6685730000000003e+00 2.5561910000000001e+00
0.0000000000000000e+00 4.4274529999999999e+00 0.0000000000000000e+00
0.0000000000000000e+00 3.5699264999999997e+01 0.0000000000000000e+00
ITEM: ATOMS id type x y z
1 1 5.51752 1.17686 31.7298
2 1 6.65565 3.12449 32.3212
3 1 2.9267 1.11701 31.5157
4 1 1.76595 2.61846 30.1046
5 1 3.8425 3.38995 31.4449
6 1 3.39646 0.271435 29.3345
7 1 1.05109 -0.207485 29.2407
8 1 4.52807 2.08679 29.0195
9 1 2.97559 3.80988 26.952
10 1 2.05054 1.36676 27.4569
11 1 4.55155 1.63659 26.6488
12 1 5.84282 3.88914 26.9233
13 1 1.44978 1.13444 25.3622
14 1 3.73472 3.07857 24.685
15 1 6.30749 3.28027 24.5017
16 2 3.65906 1.19507 15.6229
17 2 0.889187 0.812555 16.781
18 2 4.51661 3.14045 17.1639
19 2 2.20227 3.11654 18.4189
20 2 2.91313 3.44821 11.0246
21 2 6.70169 3.25941 16.0069
22 2 3.31574 3.85697 13.7728
23 2 5.73656 2.74131 12.9983
24 2 4.09561 1.80638 7.93793
25 2 1.60161 0.501738 7.94716
26 2 5.44225 1.63619 10.6233
27 2 3.85164 0.753125 12.9311
28 2 3.13806 0.510932 10.4832
29 2 6.79666 3.64342 8.55449
30 2 2.89943 2.28691 5.51732
31 2 5.44143 3.73713 6.04183
32 2 5.90102 2.44093 3.01456
33 2 3.16763 0.616682 3.18464
34 2 3.25597 3.93316 3.36993
35 2 5.38523 0.484146 5.87985
ITEM: TIMESTEP
3000
ITEM: NUMBER OF ATOMS
35
ITEM: BOX BOUNDS xy xz yz pp pp pp
0.0000000000000000e+00 7.6685730000000003e+00 2.5561910000000001e+00
0.0000000000000000e+00 4.4274529999999999e+00 0.0000000000000000e+00
0.0000000000000000e+00 3.5699264999999997e+01 0.0000000000000000e+00
ITEM: ATOMS id type x y z
1 1 5.54542 1.22089 31.1936
2 1 6.9396 3.70454 32.2788
3 1 2.92168 1.18571 32.0311
4 1 2.03537 2.3118 29.7401
5 1 4.20018 3.28543 31.3266
6 1 5.59003 4.33596 29.933
7 1 2.87679 4.36468 29.18
8 1 4.4919 2.12908 29.0647
9 1 3.29939 3.68703 26.8126
10 1 2.16488 1.637 27.5841
11 1 4.79234 1.55118 26.3689
12 1 5.94631 3.67917 27.4565
13 1 1.64762 1.08375 25.02
14 1 3.34106 2.6631 24.6003
15 1 5.77415 3.9445 25.1011
16 2 3.53906 1.45245 15.2561
17 2 1.14471 1.26587 16.7334
18 2 4.30757 2.92816 17.387
19 2 2.06136 3.45553 18.6405
20 2 3.1259 2.94282 10.7066
21 2 2.02469 3.44928 15.7266
22 2 3.35128 3.92361 13.4878
23 2 6.01877 2.41021 13.3937
24 2 4.44718 2.40291 8.11153
25 2 1.80515 0.708407 8.47517
26 2 5.62082 1.49032 10.7721
27 2 3.23582 1.15664 12.8374
28 2 2.75406 0.162394 10.5849
29 2 1.90586 3.13964 7.92056
30 2 2.62292 2.22279 5.47552
31 2 5.28669 3.66295 5.61712
32 2 5.61757 1.91901 3.44081
33 2 3.31777 0.725175 3.53138
34 2 3.12461 3.67148 3.21629
35 2 5.42414 0.776916 5.80181
ITEM: TIMESTEP
3100
ITEM: NUMBER OF ATOMS
35
ITEM: BOX BOUNDS xy xz yz pp pp pp
0.0000000000000000e+00 7.6685730000000003e+00 2.5561910000000001e+00
0.0000000000000000e+00 4.4274529999999999e+00 0.0000000000000000e+00
0.0000000000000000e+00 3.5699264999999997e+01 0.0000000000000000e+00
ITEM: ATOMS id type x y z
1 1 5.36426 1.29289 31.2406
2 1 6.74166 3.64255 31.6756
3 1 2.6125 1.24955 32.4218
4 1 2.0969 2.12677 29.7696
5 1 4.2634 3.27531 31.5296
6 1 3.13947 0.091095 30.0452
7 1 0.512812 0.192715 28.9678
8 1 4.30845 2.39588 28.8025
9 1 3.78454 3.7386 26.7942
10 1 2.33332 1.59654 27.0429
11 1 4.56925 1.38782 26.5867
12 1 6.13127 3.61784 27.9248
13 1 1.1374 1.11982 24.813
14 1 3.32745 2.65736 24.9056
15 1 6.00687 3.68093 25.5671
16 2 3.54859 1.63444 15.2193
17 2 1.44283 1.17252 16.7667
18 2 4.31779 2.73833 17.6147
19 2 6.75925 3.8966 18.0261
20 2 2.90657 2.66158 10.3564
21 2 7.26808 3.90241 15.8028
22 2 3.6276 4.35156 13.3354
23 2 5.91536 2.6539 13.9274
24 2 4.56123 2.21817 8.35342
25 2 1.80519 0.62688 8.12438
26 2 5.58177 1.13075 10.7788
27 2 3.22155 1.34064 12.6308
28 2 5.81333 3.64815 10.7909
29 2 6.92821 3.81178 7.94057
30 2 2.76573 2.19559 5.7373
31 2 5.03411 3.63964 5.59114
32 2 5.68455 1.98468 3.4222
33 2 3.12845 0.55632 3.28134
34 2 3.06414 3.32066 3.26995
35 2 5.29874 0.76139 6.008
ITEM: TIMESTEP
3200
ITEM: NUMBER OF ATOMS
35
ITEM: BOX BOUNDS xy xz yz pp pp pp
0.0000000000000000e+00 7.6685730000000003e+00 2.5561910000000001e+00
0.0000000000000000e+00 4.4274529999999999e+00 0.0000000000000000e+00
0.0000000000000000e+00 3.5699264999999997e+01 0.0000000000000000e+00
ITEM: ATOMS id type x y z
1 1 5.21826 1.21065 31.2374
2 1 6.57797 3.13399 32.15
3 1 2.71079 0.940266 32.0022
4 1 1.7168 2.885 29.837
5 1 3.73326 3.46398 31.3961
6 1 3.13806 0.366887 29.8989
7 1 0.869344 0.318633 29.0914
8 1 4.26475 2.40311 29.3368
9 1 4.123 3.7332 26.8875
10 1 2.38184 1.69642 27.0376
11 1 4.88699 1.53748 26.9562
12 1 6.42067 4.11191 27.4814
13 1 0.788059 0.725119 24.8901
14 1 3.32469 2.39747 25.0148
15 1 6.05922 3.26854 25.237
16 2 3.55201 1.78514 15.0099
17 2 1.76205 1.02566 16.7771
18 2 4.35367 2.4266 17.4107
19 2 3.64958 0.147471 18.0088
20 2 2.97838 2.11472 9.9811
21 2 2.40152 4.25027 15.6231
22 2 3.38486 4.45556 13.3168
23 2 5.62116 3.06556 14.1142
24 2 4.81213 2.21588 8.19275
25 2 1.87365 0.655955 8.23398
26 2 0.657014 0.239731 10.8158
27 2 3.80041 1.64659 12.4472
28 2 5.53487 3.71677 11.1898
29 2 6.80898 3.90794 8.45424
30 2 2.77614 2.00179 5.97918
31 2 5.17862 3.71924 5.81348
32 2 5.71286 1.9345 3.32626
33 2 2.99228 0.377827 3.1102
34 2 3.01246 3.41227 3.54487
35 2 5.07017 0.674451 5.49892
ITEM: TIMESTEP
3300
ITEM: NUMBER OF ATOMS
35
ITEM: BOX BOUNDS xy xz yz pp pp pp
0.0000000000000000e+00 7.6685730000000003e+00 2.5561910000000001e+00
0.0000000000000000e+00 4.4274529999999999e+00 0.0000000000000000e+00
0.0000000000000000e+00 3.5699264999999997e+01 0.0000000000000000e+00
ITEM: ATOMS id type x y z
1 1 4.94915 1.10612 31.4562
2 1 6.03108 3.1236 32.3276
3 1 2.50629 1.11853 31.9133
4 1 1.85405 2.45816 29.8085
5 1 3.73423 3.44629 31.5231
6 1 3.04564 0.621116 29.2796
7 1 0.355165 0.558626 29.2357
8 1 4.70612 2.86852 28.9655
9 1 3.83275 4.07497 27.2797
10 1 2.87383 1.91575 27.5521
11 1 5.6315 1.81252 27.0077
12 1 6.55441 4.02969 27.2975
13 1 0.417151 0.131228 25.0301
14 1 3.72678 1.75376 25.0994
15 1 5.87409 3.30692 25.0638
16 2 3.1052 1.6996 14.6528
17 2 1.58354 1.58528 16.6708
18 2 4.52738 2.98302 16.9454
19 2 3.83729 -0.089855 18.149
20 2 3.10772 1.49998 9.9207
21 2 2.30181 4.09146 16.0508
22 2 3.44771 4.91373 13.3924
23 2 5.64065 3.4052 14.5054
24 2 4.86103 2.33399 8.05701
25 2 1.63119 0.289257 7.93525
26 2 0.569556 0.372129 10.5218
27 2 3.74985 1.80293 12.3321
28 2 5.82864 3.22904 11.4203
29 2 7.13469 3.6926 8.42889
30 2 2.37051 2.12011 6.24783
31 2 5.47079 3.45491 5.55203
32 2 5.6724 2.08256 3.21437
33 2 2.87575 0.456023 3.48138
34 2 3.16388 3.08493 3.60855
35 2 5.09587 0.720287 5.62642
ITEM: TIMESTEP
3400
ITEM: NUMBER OF ATOMS
35
ITEM: BOX BOUNDS xy xz yz pp pp pp
0.0000000000000000e+00 7.6685730000000003e+00 2.5561910000000001e+00
0.0000000000000000e+00 4.4274529999999999e+00 0.0000000000000000e+00
0.0000000000000000e+00 3.5699264999999997e+01 0.0000000000000000e+00
ITEM: ATOMS id type x y z
1 1 4.55694 1.2112 31.889
2 1 5.99118 3.57352 31.7267
3 1 1.78908 1.29566 31.8024
4 1 1.92957 2.79103 29.6682
5 1 3.45763 3.31848 31.4718
6 1 3.09427 0.56524 29.8914
7 1 5.82629 0.300192 29.2212
8 1 4.55371 2.40077 29.6215
9 1 4.71971 4.5282 27.0099
10 1 3.18994 2.29581 27.7783
11 1 5.77716 1.94401 26.8412
12 1 7.02682 4.14243 27.2321
13 1 0.481492 -0.669926 25.0166
14 1 3.43194 1.31683 25.257
15 1 5.231 3.47443 24.8814
16 2 2.94843 1.90357 14.8594
17 2 1.60478 1.70548 17.2506
18 2 4.52481 3.37199 17.0263
19 2 6.76962 4.4122 18.3451
20 2 2.76076 1.13467 9.67948
21 2 7.39685 4.62658 15.7064
22 2 0.602972 0.757315 13.553
23 2 5.18499 3.50896 14.1968
24 2 4.88239 1.61817 8.24737
25 2 2.06164 0.135206 7.51409
26 2 0.736187 0.32376 10.8045
27 2 3.45768 1.87765 12.0791
28 2 6.53597 2.94169 11.3757
29 2 6.73102 3.34169 8.36739
30 2 2.92948 2.30747 6.0208
31 2 5.16688 3.25862 5.48581
32 2 5.7743 1.97782 3.01893
33 2 2.82753 0.51214 3.64322
34 2 3.18708 3.32806 3.67351
35 2 5.05644 0.627211 5.70089
ITEM: TIMESTEP
3500
ITEM: NUMBER OF ATOMS
35
ITEM: BOX BOUNDS xy xz yz pp pp pp
0.0000000000000000e+00 7.6685730000000003e+00 2.5561910000000001e+00
0.0000000000000000e+00 4.4274529999999999e+00 0.0000000000000000e+00
0.0000000000000000e+00 3.5699264999999997e+01 0.0000000000000000e+00
ITEM: ATOMS id type x y z
1 1 3.99763 1.53343 32.3198
2 1 5.49698 3.5939 31.7725
3 1 1.81228 1.28951 31.5892
4 1 1.905 2.84818 29.1646
5 1 2.78852 3.77463 31.6048
6 1 3.50058 0.483629 29.6731
7 1 1.11964 0.141584 29.2597
8 1 4.75818 2.22837 30.0182
9 1 2.28105 -0.0637081 27.0251
10 1 3.64452 2.17247 27.3485
11 1 6.08265 2.32894 27.0115
12 1 7.32084 4.76204 27.4633
13 1 2.45696 3.47127 25.603
14 1 3.2394 1.10377 25.0845
15 1 5.39599 2.97782 24.8277
16 2 2.27669 2.4164 15.1058
17 2 1.93835 1.79002 17.7565
18 2 4.62673 3.36791 17.2884
19 2 7.2326 4.7068 18.1766
20 2 2.87673 1.14952 9.87728
21 2 4.52887 0.962577 15.7966
22 2 0.497181 0.535729 13.2857
23 2 5.14282 3.55609 13.8034
24 2 4.99188 1.37856 8.37478
25 2 1.98559 -0.0840678 7.37578
26 2 0.77533 -0.369423 10.8686
27 2 3.47262 1.74616 12.3199
28 2 5.77133 3.26646 11.309
29 2 7.24146 3.17148 8.46658
30 2 2.75505 1.89847 5.92541
31 2 5.69617 2.96019 5.42841
32 2 5.7051 1.92152 3.14716
33 2 3.13242 0.741393 3.45706
34 2 2.91221 3.71727 3.0032
35 2 5.07508 0.354264 5.62157
ITEM: TIMESTEP
3600
ITEM: NUMBER OF ATOMS
35
ITEM: BOX BOUNDS xy xz yz pp pp pp
0.0000000000000000e+00 7.6685730000000003e+00 2.5561910000000001e+00
0.0000000000000000e+00 4.4274529999999999e+00 0.0000000000000000e+00
0.0000000000000000e+00 3.5699264999999997e+01 0.0000000000000000e+00
ITEM: ATOMS id type x y z
1 1 3.83612 1.58971 32.0777
2 1 4.9583 3.78025 32.2624
3 1 1.42349 1.79846 31.4487
4 1 2.63721 2.2964 29.2838
5 1 2.32563 3.96181 31.5865
6 1 3.64047 0.159429 29.6801
7 1 1.12693 0.226421 29.3299
8 1 5.02023 2.49194 29.7189
9 1 4.83473 4.57991 27.1519
10 1 3.78444 2.44114 27.1808
11 1 6.22635 2.31723 27.2695
12 1 4.70738 0.211049 27.5018
13 1 2.7679 3.78552 25.0436
14 1 3.32834 0.84405 25.3491
15 1 5.05634 2.30104 25.2818
16 2 1.94615 2.86384 15.6091
17 2 2.38852 1.90444 17.9131
18 2 4.68938 3.60988 16.9678
19 2 4.98821 0.28096 18.1631
20 2 3.13318 1.0425 10.1121
21 2 4.42904 1.35437 15.5558
22 2 0.363637 0.317944 13.178
23 2 5.19307 3.66899 14.0003
24 2 5.13325 1.76418 8.28816
25 2 4.81583 4.19626 7.97002
26 2 3.02465 4.02778 10.4386
27 2 2.63015 1.73214 12.963
28 2 5.56626 2.63126 11.1162
29 2 2.23685 3.05716 8.04653
30 2 3.01423 1.62734 5.82654
31 2 5.38514 3.03097 5.36944
32 2 5.64258 2.0888 2.96691
33 2 3.14665 0.897293 3.33844
34 2 2.94569 3.3766 2.78272
35 2 5.44994 0.0934078 5.64135
ITEM: TIMESTEP
3700
ITEM: NUMBER OF ATOMS
35
ITEM: BOX BOUNDS xy xz yz pp pp pp
0.0000000000000000e+00 7.6685730000000003e+00 2.5561910000000001e+00
0.0000000000000000e+00 4.4274529999999999e+00 0.0000000000000000e+00
0.0000000000000000e+00 3.5699264999999997e+01 0.0000000000000000e+00
ITEM: ATOMS id type x y z
1 1 3.58698 1.77687 31.3628
2 1 4.935 4.22664 31.7208
3 1 5.8856 1.85355 32.1402
4 1 2.39354 2.43752 29.6131
5 1 2.36986 3.86095 31.8695
6 1 6.25925 4.40065 29.7285
7 1 1.10153 0.155433 29.7867
8 1 4.98038 2.35777 29.588
9 1 2.38183 0.233831 27.5512
10 1 3.55685 2.33049 27.1616
11 1 6.24399 2.40099 27.4133
12 1 4.97149 0.2887 27.0523
13 1 3.56429 3.90757 25.1828
14 1 2.95945 0.477614 25.1272
15 1 5.481 2.20207 25.2337
16 2 2.37627 3.02005 15.7975
17 2 2.73576 1.78686 18.3164
18 2 4.92595 4.08597 16.6915
19 2 5.08995 0.534966 17.7685
20 2 3.09922 1.13754 10.8794
21 2 4.47002 1.25986 15.4723
22 2 4.50261 0.324953 12.7832
23 2 4.89918 3.44754 13.8926
24 2 5.07094 1.31176 8.14278
25 2 2.52507 0.165996 8.28988
26 2 2.91474 3.9728 10.2565
27 2 2.15828 2.08926 13.3718
28 2 5.74301 2.2622 10.8875
29 2 2.25845 3.09476 7.77799
30 2 3.05646 1.58632 5.68343
31 2 5.41199 3.11793 5.29245
32 2 5.64104 1.91641 2.89127
33 2 3.07332 0.322544 3.2447
34 2 3.09712 3.42751 3.27607
35 2 0.557306 0.229121 5.40311
ITEM: TIMESTEP
3800
ITEM: NUMBER OF ATOMS
35
ITEM: BOX BOUNDS xy xz yz pp pp pp
0.0000000000000000e+00 7.6685730000000003e+00 2.5561910000000001e+00
0.0000000000000000e+00 4.4274529999999999e+00 0.0000000000000000e+00
0.0000000000000000e+00 3.5699264999999997e+01 0.0000000000000000e+00
ITEM: ATOMS id type x y z
1 1 3.42937 1.94986 32.0224
2 1 4.86764 3.96028 31.7509
3 1 6.13355 1.6513 31.762
4 1 2.03855 2.21477 29.6765
5 1 2.34879 4.00087 31.953
6 1 6.10534 4.86657 29.3123
7 1 0.704121 0.159483 29.7645
8 1 4.58541 2.63194 29.5223
9 1 2.12795 0.0651546 27.3876
10 1 3.60545 2.40358 27.3108
11 1 6.35908 2.65044 27.2549
12 1 5.04737 0.263304 27.3702
13 1 3.55649 3.55104 25.205
14 1 3.73905 0.77827 25.5432
15 1 5.91045 1.88701 25.0525
16 2 2.35641 2.90014 16.031
17 2 3.10525 2.02351 18.2593
18 2 5.0351 4.25581 16.4707
19 2 5.45123 1.0096 17.8539
20 2 2.77666 1.26674 10.9992
21 2 4.86412 1.21731 15.1987
22 2 4.39356 0.14287 12.9774
23 2 4.19892 3.54277 13.3694
24 2 4.75361 1.59884 8.07599
25 2 2.42407 0.119506 8.38193
26 2 3.1389 3.71883 10.3642
27 2 1.7404 1.97686 13.4528
28 2 5.59885 2.66487 10.3873
29 2 2.4242 2.78868 7.78118
30 2 3.08607 1.53274 5.30202
31 2 5.85892 3.28821 5.80681
32 2 5.66369 1.45663 3.22179
33 2 3.11772 0.0176314 3.02671
34 2 3.11311 3.01076 3.31163
35 2 0.545351 0.518745 5.72168
ITEM: TIMESTEP
3900
ITEM: NUMBER OF ATOMS
35
ITEM: BOX BOUNDS xy xz yz pp pp pp
0.0000000000000000e+00 7.6685730000000003e+00 2.5561910000000001e+00
0.0000000000000000e+00 4.4274529999999999e+00 0.0000000000000000e+00
0.0000000000000000e+00 3.5699264999999997e+01 0.0000000000000000e+00
ITEM: ATOMS id type x y z
1 1 3.53509 1.71251 31.7717
2 1 4.78384 3.71287 31.8713
3 1 1.04352 1.73684 31.7106
4 1 2.25007 2.97986 29.6213
5 1 2.01255 3.91884 31.6927
6 1 3.13169 0.560388 29.8391
7 1 0.741572 0.650805 29.6253
8 1 4.76197 2.4155 29.7658
9 1 2.34513 0.345661 26.885
10 1 3.50081 2.28274 27.8277
11 1 5.82599 2.51209 27.4017
12 1 4.85034 0.0478015 27.3086
13 1 3.2793 3.36015 25.6497
14 1 4.01894 1.03975 25.1315
15 1 6.68402 1.46782 25.1832
16 2 2.16045 2.9695 15.6561
17 2 3.71005 2.46109 18.0913
18 2 5.00275 4.30032 15.9966
19 2 6.17856 1.41057 17.899
20 2 2.85225 1.11528 10.6488
21 2 4.90595 1.45327 15.5272
22 2 3.91999 0.255194 12.7914
23 2 4.05634 3.1023 12.8367
24 2 4.71991 1.49298 8.1796
25 2 2.11407 0.0111653 8.19625
26 2 2.81809 4.42535 10.5107
27 2 1.55384 1.45877 13.3483
28 2 5.54228 2.694 10.6814
29 2 2.12725 2.79907 8.10178
30 2 3.33456 1.72771 5.60466
31 2 5.80926 3.46674 5.81857
32 2 5.68011 1.2781 3.65144
33 2 5.72132 4.15143 3.31704
34 2 3.15838 3.00012 3.0651
35 2 0.880904 -0.142616 5.93237
ITEM: TIMESTEP
4000
ITEM: NUMBER OF ATOMS
35
ITEM: BOX BOUNDS xy xz yz pp pp pp
0.0000000000000000e+00 7.6685730000000003e+00 2.5561910000000001e+00
0.0000000000000000e+00 4.4274529999999999e+00 0.0000000000000000e+00
0.0000000000000000e+00 3.5699264999999997e+01 0.0000000000000000e+00
ITEM: ATOMS id type x y z
1 1 3.40721 1.62517 31.9716
2 1 4.67246 4.17763 32.16
3 1 0.621305 1.7369 32.0788
4 1 1.88259 2.86109 29.4049
5 1 7.28149 3.99391 31.6977
6 1 3.80799 0.86333 29.5666
7 1 0.966423 0.555584 29.4607
8 1 4.69298 3.0092 29.9854
9 1 2.00255 -0.216521 27.4584
10 1 3.23641 2.18957 27.5895
11 1 5.9338 2.04104 27.4162
12 1 4.56595 0.175822 27.302
13 1 3.41257 3.44264 25.2984
14 1 4.52944 0.980609 25.0172
15 1 1.61742 1.45479 25.3036
16 2 2.4298 3.16285 14.9104
17 2 4.33154 2.96216 17.6181
18 2 4.73748 4.5072 15.4931
19 2 1.96714 1.71618 17.7904
20 2 2.84087 1.56778 10.1942
21 2 4.45068 1.63919 15.5493
22 2 3.6875 -0.0730957 13.3064
23 2 3.88908 2.61847 13.0245
24 2 4.70027 1.13281 7.98505
25 2 4.6169 4.19023 8.31059
26 2 0.0630633 0.0979521 10.6362
27 2 1.10557 1.15069 13.0984
28 2 5.72799 2.85929 10.9906
29 2 1.6631 3.0057 8.58315
30 2 3.41163 1.54762 5.87856
31 2 6.23567 2.72203 5.90746
32 2 5.70104 1.36841 3.76722
33 2 5.7148 4.30388 3.58147
34 2 3.18993 2.91525 3.28579
35 2 3.27322 4.41152 5.79385
ITEM: TIMESTEP
4100
ITEM: NUMBER OF ATOMS
35
ITEM: BOX BOUNDS xy xz yz pp pp pp
0.0000000000000000e+00 7.6685730000000003e+00 2.5561910000000001e+00
0.0000000000000000e+00 4.4274529999999999e+00 0.0000000000000000e+00
0.0000000000000000e+00 3.5699264999999997e+01 0.0000000000000000e+00
ITEM: ATOMS id type x y z
1 1 3.10939 2.10099 31.9096
2 1 4.4932 4.21427 32.2333
3 1 5.86081 1.90669 31.7556
4 1 2.23674 2.84478 29.689
5 1 7.11011 4.31112 31.6457
6 1 3.48226 0.746101 29.5377
7 1 0.76198 0.688567 29.7638
8 1 4.92535 3.18165 29.8392
9 1 4.43718 4.32246 27.6017
10 1 3.34944 1.79256 27.3207
11 1 5.57451 1.93431 27.5152
12 1 7.06567 3.90254 27.3963
13 1 3.87827 3.479 25.2713
14 1 4.38081 1.06068 25.2822
15 1 2.07286 1.38794 25.3199
16 2 2.13747 3.11453 15.4208
17 2 4.93695 3.64756 17.5145
18 2 1.9503 0.357503 15.2025
19 2 2.60098 1.87812 17.4045
20 2 3.20645 1.39993 10.5543
21 2 4.82994 1.43966 15.5555
22 2 5.92661 4.08039 13.1191
23 2 3.3943 2.46844 12.7186
24 2 4.63941 1.30394 8.38692
25 2 4.22317 4.03276 8.34944
26 2 0.531065 0.0785334 10.7793
27 2 0.894837 1.028 13.0299
28 2 5.3139 3.24988 10.7609
29 2 7.08073 2.86266 8.47278
30 2 3.34781 1.11201 5.95793
31 2 5.92664 2.67177 6.08264
32 2 5.73895 1.57654 3.12346
33 2 5.70734 4.44522 3.56892
34 2 3.16833 2.7794 3.7634
35 2 3.33544 4.2343 5.80939
ITEM: TIMESTEP
4200
ITEM: NUMBER OF ATOMS
35
ITEM: BOX BOUNDS xy xz yz pp pp pp
0.0000000000000000e+00 7.6685730000000003e+00 2.5561910000000001e+00
0.0000000000000000e+00 4.4274529999999999e+00 0.0000000000000000e+00
0.0000000000000000e+00 3.5699264999999997e+01 0.0000000000000000e+00
ITEM: ATOMS id type x y z
1 1 3.26304 2.35094 31.5881
2 1 4.31288 4.45138 31.7042
3 1 5.89985 2.47547 31.8638
4 1 2.26307 3.00701 29.6933
5 1 4.19586 0.0656349 32.0342
6 1 3.39966 0.467523 29.8182
7 1 1.08817 0.723305 29.7892
8 1 4.67153 2.59536 29.5987
9 1 4.61574 4.06464 27.6938
10 1 3.11497 1.9442 27.4752
11 1 5.68144 1.90139 27.4398
12 1 6.76062 3.95751 27.112
13 1 4.07023 3.061 25.6233
14 1 4.81234 0.665365 25.4729
15 1 1.92557 1.83319 25.5152
16 2 7.0732 3.50596 15.3915
17 2 5.66065 3.75935 17.512
18 2 2.06593 0.140732 15.1642
19 2 3.10709 2.00559 17.9065
20 2 3.0276 1.2179 10.7924
21 2 4.69116 1.88619 15.7776
22 2 5.84924 3.94474 12.7422
23 2 3.07662 2.62822 13.384
24 2 4.5912 1.32427 8.4322
25 2 4.69557 4.24294 8.10941
26 2 0.565625 0.0362171 10.508
27 2 0.495238 1.36725 13.0172
28 2 5.572 2.70589 10.3904
29 2 2.07417 2.61034 8.40652
30 2 3.24622 1.06628 6.26566
31 2 5.36606 2.63825 5.50105
32 2 5.73512 1.4376 3.2952
33 2 5.77067 4.19465 3.43809
34 2 3.12314 2.66241 3.63882
35 2 3.14187 4.34503 5.78221
ITEM: TIMESTEP
4300
ITEM: NUMBER OF ATOMS
35
ITEM: BOX BOUNDS xy xz yz pp pp pp
0.0000000000000000e+00 7.6685730000000003e+00 2.5561910000000001e+00
0.0000000000000000e+00 4.4274529999999999e+00 0.0000000000000000e+00
0.0000000000000000e+00 3.5699264999999997e+01 0.0000000000000000e+00
ITEM: ATOMS id type x y z
1 1 3.09363 2.37969 31.9093
2 1 2.12033 0.235853 31.9138
3 1 5.6946 2.45488 31.7322
4 1 1.88502 2.65011 29.5248
5 1 4.83386 0.254426 32.2108
6 1 3.33423 0.584404 29.9946
7 1 0.588079 0.513639 29.8337
8 1 4.35767 3.04587 29.8812
9 1 4.19036 3.93368 27.4112
10 1 3.20831 1.70157 27.7982
11 1 5.53585 1.68399 27.2061
12 1 6.91207 3.97322 27.4324
13 1 4.63518 3.09856 25.4495
14 1 5.02425 0.46362 24.9897
15 1 1.99439 2.28455 25.4862
16 2 2.07427 3.55596 15.7277
17 2 6.22582 3.70851 18.1265
18 2 1.91398 0.699465 15.4592
19 2 3.27905 2.48522 17.913
20 2 2.8677 1.48502 10.8284
21 2 4.58017 2.14696 15.7249
22 2 5.67521 4.06609 12.8097
23 2 3.25176 2.76063 13.1795
24 2 4.79952 1.11773 8.15885
25 2 4.98185 4.07554 8.33484
26 2 3.16877 3.79156 10.5659
27 2 5.39982 1.12551 13.2537
28 2 5.627 2.41858 10.6268
29 2 2.24141 2.64136 7.75971
30 2 2.71479 1.39259 5.39395
31 2 5.4446 2.77723 5.71813
32 2 0.635042 0.77521 3.32975
33 2 5.77219 4.27248 3.38779
34 2 3.0565 2.5959 3.28933
35 2 2.70168 4.21305 5.74402
ITEM: TIMESTEP
4400
ITEM: NUMBER OF ATOMS
35
ITEM: BOX BOUNDS xy xz yz pp pp pp
0.0000000000000000e+00 7.6685730000000003e+00 2.5561910000000001e+00
0.0000000000000000e+00 4.4274529999999999e+00 0.0000000000000000e+00
0.0000000000000000e+00 3.5699264999999997e+01 0.0000000000000000e+00
ITEM: ATOMS id type x y z
1 1 3.45517 2.50115 31.9379
2 1 2.0835 0.191653 32.5688
3 1 5.88728 2.30585 31.9524
4 1 1.62997 2.76635 29.5764
5 1 4.49646 0.38026 32.3482
6 1 2.78232 0.71567 29.8312
7 1 5.29953 0.764779 29.8732
8 1 4.21807 2.82226 29.5352
9 1 4.16773 3.94499 27.4158
10 1 3.01333 1.53402 27.3672
11 1 5.44682 1.72459 27.5408
12 1 6.77443 3.82609 27.5769
13 1 5.29801 3.33855 24.739
14 1 5.38219 0.313427 25.6263
15 1 2.46704 2.25813 25.2595
16 2 7.03243 3.8079 15.6655
17 2 6.03135 4.1032 18.1901
18 2 2.28504 1.02636 16.3088
19 2 3.60934 2.8717 17.9266
20 2 3.18013 0.487924 10.655
21 2 4.72904 2.25365 15.476
22 2 5.58568 4.05365 13.5849
23 2 2.88082 2.57839 12.904
24 2 5.01782 1.10557 7.97883
25 2 5.0644 4.0223 8.25801
26 2 2.93459 4.23868 10.5081
27 2 0.809731 0.980457 13.2047
28 2 5.3947 2.43631 10.7959
29 2 2.56907 2.34135 8.09372
30 2 2.32347 1.24517 5.31082
31 2 4.9543 2.92356 5.84022
32 2 0.570285 1.09725 3.17596
33 2 5.67522 3.63515 3.13198
34 2 3.17712 2.60388 2.60261
35 2 2.62818 4.24655 5.58815
ITEM: TIMESTEP
4500
ITEM: NUMBER OF ATOMS
35
ITEM: BOX BOUNDS xy xz yz pp pp pp
0.0000000000000000e+00 7.6685730000000003e+00 2.5561910000000001e+00
0.0000000000000000e+00 4.4274529999999999e+00 0.0000000000000000e+00
0.0000000000000000e+00 3.5699264999999997e+01 0.0000000000000000e+00
ITEM: ATOMS id type x y z
1 1 3.40288 2.50995 31.718
2 1 1.72153 0.172789 32.2852
3 1 6.03555 2.41734 32.1225
4 1 1.24446 2.98191 30.0262
5 1 4.29484 0.131512 32.0147
6 1 2.58006 0.493689 30.0653
7 1 5.2921 0.539469 30.0244
8 1 3.78918 2.51814 29.385
9 1 4.28128 3.88723 27.3145
10 1 2.74311 1.71831 27.4524
11 1 5.68881 1.76142 27.8067
12 1 6.79641 4.04971 27.2499
13 1 5.73309 3.65942 25.5562
14 1 5.71865 0.73798 25.46
15 1 2.95018 1.95112 25.0794
16 2 7.71974 4.0599 15.7219
17 2 6.40115 4.1089 18.0231
18 2 1.87372 1.50425 16.4472
19 2 3.80356 3.27061 17.8363
20 2 2.92262 0.838465 10.975
21 2 4.57995 2.32061 15.5113
22 2 5.63349 4.1817 13.716
23 2 3.044 2.44864 12.8686
24 2 5.29082 0.988715 7.87396
25 2 5.28236 3.92582 7.82386
26 2 3.23014 3.90024 10.3568
27 2 0.381927 0.87146 13.2194
28 2 5.39916 2.24193 10.8019
29 2 2.68138 2.24438 8.79272
30 2 2.35103 1.32032 5.46357
31 2 4.46672 2.5672 5.32686
32 2 0.359756 0.824003 3.03055
33 2 5.77096 3.94786 3.23076
34 2 3.21971 2.36111 2.78437
35 2 2.08609 4.08296 5.2512
ITEM: TIMESTEP
4600
ITEM: NUMBER OF ATOMS
35
ITEM: BOX BOUNDS xy xz yz pp pp pp
0.0000000000000000e+00 7.6685730000000003e+00 2.5561910000000001e+00
0.0000000000000000e+00 4.4274529999999999e+00 0.0000000000000000e+00
0.0000000000000000e+00 3.5699264999999997e+01 0.0000000000000000e+00
ITEM: ATOMS id type x y z
1 1 2.66195 2.28876 31.8388
2 1 1.65968 -0.0997863 31.8957
3 1 5.25572 2.10966 32.5812
4 1 6.40922 2.75083 29.8423
5 1 4.15843 -0.0520068 32.1862
6 1 2.71266 0.59077 29.5726
7 1 5.21395 0.511154 30.0441
8 1 3.8563 3.01919 29.7403
9 1 4.3991 4.11528 27.3493
10 1 2.96121 1.66251 27.602
11 1 5.51185 2.15213 27.3232
12 1 6.91552 3.99506 27.9928
13 1 5.84416 3.60442 25.4934
14 1 0.889167 1.23509 25.372
15 1 3.67845 1.80562 25.1855
16 2 2.78373 4.20588 15.3691
17 2 6.83211 4.47575 17.5561
18 2 1.81731 1.91604 16.2393
19 2 4.31964 3.21971 18.1324
20 2 3.029 0.983415 11.1404
21 2 4.35338 2.27026 15.6604
22 2 5.31013 4.11926 13.7509
23 2 3.17224 2.82587 13.281
24 2 5.29927 0.72882 7.81583
25 2 5.49885 3.53528 7.82282
26 2 3.37166 4.01459 10.5938
27 2 5.27821 1.13698 12.9784
28 2 5.69223 2.40908 10.5935
29 2 2.65019 1.86737 8.17854
30 2 1.67971 1.02502 5.78454
31 2 4.72982 2.37295 5.00687
32 2 5.7785 0.50568 2.99047
33 2 5.50391 4.11246 3.0378
34 2 2.77592 2.33379 3.24874
35 2 6.89808 3.89515 5.71306
ITEM: TIMESTEP
4700
ITEM: NUMBER OF ATOMS
35
ITEM: BOX BOUNDS xy xz yz pp pp pp
0.0000000000000000e+00 7.6685730000000003e+00 2.5561910000000001e+00
0.0000000000000000e+00 4.4274529999999999e+00 0.0000000000000000e+00
0.0000000000000000e+00 3.5699264999999997e+01 0.0000000000000000e+00
ITEM: ATOMS id type x y z
1 1 2.58637 1.70491 32.0854
2 1 3.75699 4.16289 32.101
3 1 4.83218 2.01061 32.1507
4 1 6.51369 3.0145 29.955
5 1 6.36038 4.06782 32.2554
6 1 2.6105 0.665835 29.6377
7 1 5.0885 0.711267 30.0653
8 1 3.72366 2.83806 29.8618
9 1 4.14142 4.35654 27.3946
10 1 3.07545 2.24127 27.5987
11 1 5.48029 1.88858 27.7279
12 1 6.62331 4.2477 27.6253
13 1 6.29064 3.98455 25.3592
14 1 1.75748 0.746036 25.111
15 1 4.25808 2.05733 25.5368
16 2 2.79472 4.40024 14.8834
17 2 4.14722 0.467891 17.5963
18 2 1.87133 1.72624 16.5165
19 2 4.82428 3.27012 17.9222
20 2 3.4913 0.91661 10.8485
21 2 4.51383 2.47572 15.5325
22 2 5.42688 4.35507 13.8311
23 2 2.56504 2.62069 12.9391
24 2 5.04197 0.326571 8.47353
25 2 5.13053 3.18563 8.25559
26 2 3.33676 3.91884 10.6332
27 2 5.52698 1.68982 12.7508
28 2 6.14526 2.84205 10.5038
29 2 2.97876 1.94174 7.74391
30 2 1.79815 0.456998 5.64701
31 2 4.41395 2.28447 5.2525
32 2 0.193319 0.790527 3.19836
33 2 5.49162 3.74622 2.91995
34 2 2.53289 2.25206 3.58793
35 2 6.92994 3.80419 5.70115
ITEM: TIMESTEP
4800
ITEM: NUMBER OF ATOMS
35
ITEM: BOX BOUNDS xy xz yz pp pp pp
0.0000000000000000e+00 7.6685730000000003e+00 2.5561910000000001e+00
0.0000000000000000e+00 4.4274529999999999e+00 0.0000000000000000e+00
0.0000000000000000e+00 3.5699264999999997e+01 0.0000000000000000e+00
ITEM: ATOMS id type x y z
1 1 2.32877 1.74985 32.0213
2 1 3.42848 3.92842 32.0906
3 1 5.00928 1.6695 31.7398
4 1 6.2829 3.00625 30.0371
5 1 5.85262 4.10526 31.9954
6 1 2.54405 0.810034 29.9541
7 1 5.05985 0.58669 29.8913
8 1 3.89567 2.77895 29.806
9 1 3.97817 4.1234 27.4737
10 1 2.51569 2.20979 27.2865
11 1 5.35341 2.22376 27.9394
12 1 4.21121 0.277672 27.6579
13 1 7.05795 3.65651 25.5856
14 1 2.08256 0.892016 25.5572
15 1 4.81524 2.39143 25.8325
16 2 2.78123 4.46232 15.2262
17 2 4.50312 0.554241 17.4362
18 2 1.97226 1.55102 16.6029
19 2 4.40221 3.41379 17.5789
20 2 3.71975 1.2142 10.315
21 2 5.0383 2.74251 15.1274
22 2 2.85228 0.411046 13.4069
23 2 2.66516 2.91325 13.0144
24 2 5.13057 0.244609 8.30559
25 2 5.0087 3.52961 8.11496
26 2 4.35347 3.91483 11.0456
27 2 4.95078 1.44626 12.7107
28 2 6.5065 2.38882 10.4957
29 2 2.36368 1.87572 7.76559
30 2 1.71864 0.315279 5.53266
31 2 4.57576 1.87016 6.00794
32 2 4.92969 0.720921 3.39552
33 2 4.78818 3.73692 3.13689
34 2 2.69085 2.01236 3.60979
35 2 6.80439 3.67754 5.7672
ITEM: TIMESTEP
4900
ITEM: NUMBER OF ATOMS
35
ITEM: BOX BOUNDS xy xz yz pp pp pp
0.0000000000000000e+00 7.6685730000000003e+00 2.5561910000000001e+00
0.0000000000000000e+00 4.4274529999999999e+00 0.0000000000000000e+00
0.0000000000000000e+00 3.5699264999999997e+01 0.0000000000000000e+00
ITEM: ATOMS id type x y z
1 1 1.77958 2.02743 32.2754
2 1 3.42756 4.16608 31.8657
3 1 4.49331 1.84269 32.1857
4 1 6.42985 2.59401 30.0652
5 1 5.96653 4.14279 32.1418
6 1 2.68386 0.330585 29.6784
7 1 5.08739 0.707426 29.8072
8 1 4.02737 2.73236 29.9163
9 1 1.08662 0.241526 27.6598
10 1 2.84041 2.34704 27.9664
11 1 5.28339 2.36206 27.8021
12 1 3.5181 -0.0947193 27.2669
13 1 2.8625 3.50122 25.5245
14 1 2.15759 0.774124 25.5741
15 1 4.98509 2.43693 25.5134
16 2 2.63464 4.34496 15.1616
17 2 4.40322 0.592987 17.8839
18 2 2.61113 1.72091 16.2193
19 2 4.082 3.44053 17.3378
20 2 4.27227 1.50188 9.92949
21 2 5.552 2.84226 15.1167
22 2 2.30992 0.520398 13.5156
23 2 2.24387 3.277 12.921
24 2 5.17326 -0.0770387 8.17826
25 2 5.21563 3.62194 8.39917
26 2 4.7568 4.05805 10.8306
27 2 5.25778 1.54429 12.4754
28 2 1.69549 2.24056 10.4197
29 2 2.07964 1.86581 7.95585
30 2 1.67125 0.254706 5.61031
31 2 4.37885 1.91858 6.22775
32 2 4.69463 0.526026 3.55082
33 2 4.6936 3.31831 3.44245
34 2 2.2278 2.12238 3.62395
35 2 6.73081 3.31541 5.66478
ITEM: TIMESTEP
5000
ITEM: NUMBER OF ATOMS
35
ITEM: BOX BOUNDS xy xz yz pp pp pp
0.0000000000000000e+00 7.6685730000000003e+00 2.5561910000000001e+00
0.0000000000000000e+00 4.4274529999999999e+00 0.0000000000000000e+00
0.0000000000000000e+00 3.5699264999999997e+01 0.0000000000000000e+00
ITEM: ATOMS id type x y z
1 1 2.04906 1.87986 32.6371
2 1 3.13009 4.34233 32.106
3 1 4.33792 2.20963 32.6245
4 1 1.49789 2.55948 30.2079
5 1 5.85107 4.04861 32.0759
6 1 2.50493 0.537428 29.7669
7 1 5.10647 0.338504 29.5609
8 1 3.92241 2.74423 30.1232
9 1 1.39794 0.150813 27.6663
10 1 2.17338 2.26465 27.7346
11 1 4.67263 2.35738 28.0101
12 1 3.89186 0.183482 26.8784
13 1 3.06132 3.21654 25.5694
14 1 2.28743 1.09761 25.3876
15 1 5.51537 2.30921 25.265
16 2 5.21159 0.260769 15.3966
17 2 4.25135 0.50934 17.704
18 2 3.07451 1.60477 15.7592
19 2 4.35935 3.81047 17.527
20 2 4.65509 1.42715 9.84286
21 2 5.46233 2.86179 15.4247
22 2 2.23444 0.553687 13.5411
23 2 2.24863 3.48791 12.7663
24 2 2.90094 4.20974 8.17166
25 2 5.37375 3.27978 8.09444
26 2 4.47082 4.4017 11.0172
27 2 4.55484 1.94676 12.6413
28 2 2.31043 2.62824 10.2995
29 2 2.35533 1.2892 8.10214
30 2 1.69776 0.339213 5.67526
31 2 3.92258 1.92462 6.00929
32 2 4.36713 0.372011 3.72322
33 2 4.72465 3.06719 3.57442
34 2 1.93855 1.62545 3.19395
35 2 6.61163 3.30511 5.87003
ITEM: TIMESTEP
5100
ITEM: NUMBER OF ATOMS
35
ITEM: BOX BOUNDS xy xz yz pp pp pp
0.0000000000000000e+00 7.6685730000000003e+00 2.5561910000000001e+00
0.0000000000000000e+00 4.4274529999999999e+00 0.0000000000000000e+00
0.0000000000000000e+00 3.5699264999999997e+01 0.0000000000000000e+00
ITEM: ATOMS id type x y z
1 1 2.04604 2.12312 32.3559
2 1 3.00929 4.32691 31.9775
3 1 4.76889 1.94653 32.745
4 1 6.13464 2.53738 30.2362
5 1 2.95885 0.11975 32.0827
6 1 2.54651 0.610834 29.7015
7 1 5.04179 0.06669 29.4784
8 1 3.50302 2.53505 30.7213
9 1 1.68945 0.117868 27.4346
10 1 1.93712 2.57318 27.7092
11 1 4.56041 2.19187 28.0554
12 1 4.30346 0.201967 26.881
13 1 3.21564 3.41794 25.5276
14 1 2.55809 0.632889 25.2404
15 1 5.55711 2.5481 25.8658
16 2 0.609155 0.143899 15.3449
17 2 4.37605 0.48275 17.6485
18 2 2.94892 2.0897 15.6111
19 2 4.29112 4.19442 17.7919
20 2 4.6948 1.18855 10.5588
21 2 5.70318 3.11656 15.5677
22 2 2.07003 0.658315 13.5486
23 2 6.92535 3.92789 13.1468
24 2 2.93886 3.99723 7.72106
25 2 5.44816 2.25873 8.16448
26 2 2.042 0.282776 10.6587
27 2 4.17648 2.26539 12.9316
28 2 2.39547 3.14227 10.4851
29 2 3.01702 1.01396 8.31635
30 2 1.22852 0.604746 5.42772
31 2 4.06527 1.6341 5.74712
32 2 4.37385 -0.00331806 3.35206
33 2 4.30578 3.00587 3.51771
34 2 1.89342 1.30682 2.99809
35 2 6.71019 3.11842 5.65595
ITEM: TIMESTEP
5200
ITEM: NUMBER OF ATOMS
35
ITEM: BOX BOUNDS xy xz yz pp pp pp
0.0000000000000000e+00 7.6685730000000003e+00 2.5561910000000001e+00
0.0000000000000000e+00 4.4274529999999999e+00 0.0000000000000000e+00
0.0000000000000000e+00 3.5699264999999997e+01 0.0000000000000000e+00
ITEM: ATOMS id type x y z
1 1 1.80945 2.63548 32.6445
2 1 0.746401 0.290263 31.6466
3 1 4.28236 2.36584 32.6241
4 1 6.1197 2.33326 30.4789
5 1 3.14856 0.0175941 31.9179
6 1 2.45235 0.0162692 29.6963
7 1 4.98446 0.16102 29.3034
8 1 3.41297 2.10223 30.5917
9 1 1.67918 0.162402 27.1971
10 1 2.11339 2.52466 28.1211
11 1 4.67953 2.45004 28.2514
12 1 4.42266 0.477276 26.8983
13 1 3.08073 2.90498 25.5029
14 1 2.51478 0.705527 25.2008
15 1 5.69585 2.52013 26.3551
16 2 0.685512 0.619771 15.5529
17 2 4.29851 0.870281 17.7217
18 2 3.13204 1.92152 15.8599
19 2 4.42158 4.12231 17.9391
20 2 4.76723 1.67784 11.2979
21 2 5.65084 3.41299 15.7607
22 2 1.6416 1.48103 12.8764
23 2 6.4767 4.01917 13.0303
24 2 3.21217 3.44705 7.94063
25 2 5.81663 1.9221 8.55758
26 2 4.98985 4.27497 10.3135
27 2 4.25848 2.93547 13.6353
28 2 2.13349 2.85007 10.6051
29 2 3.38507 0.41967 7.88789
30 2 1.4461 0.116282 5.32346
31 2 3.72924 1.55403 5.60111
32 2 6.86811 4.24284 2.64166
33 2 4.15004 2.69741 3.23411
34 2 1.82543 1.48709 2.88742
35 2 6.48364 3.1614 5.38076
ITEM: TIMESTEP
5300
ITEM: NUMBER OF ATOMS
35
ITEM: BOX BOUNDS xy xz yz pp pp pp
0.0000000000000000e+00 7.6685730000000003e+00 2.5561910000000001e+00
0.0000000000000000e+00 4.4274529999999999e+00 0.0000000000000000e+00
0.0000000000000000e+00 3.5699264999999997e+01 0.0000000000000000e+00
ITEM: ATOMS id type x y z
1 1 1.84198 2.40362 32.9766
2 1 0.674476 0.0708891 31.6777
3 1 4.5811 2.75965 32.6377
4 1 5.96042 2.58307 30.5421
5 1 3.44171 0.424604 32.0357
6 1 2.28387 0.0960015 29.6888
7 1 4.8911 0.139788 29.5335
8 1 3.50798 2.28369 30.2999
9 1 1.47567 0.367426 27.4118
10 1 2.14163 2.34757 28.3032
11 1 4.69441 2.25357 28.093
12 1 3.88498 0.298401 26.8432
13 1 3.35557 2.7213 26.2398
14 1 2.36731 0.464087 25.0697
15 1 5.92334 2.58135 25.448
16 2 0.480079 0.895168 15.3578
17 2 4.42447 1.22295 18.2417
18 2 2.96584 1.95347 15.8625
19 2 4.38011 3.94442 18.0291
20 2 4.46941 1.54916 11.0536
21 2 5.99222 3.59108 15.9722
22 2 1.68609 1.75551 12.9587
23 2 6.58 4.75992 13.3491
24 2 3.68898 2.79517 8.0911
25 2 6.13254 1.52841 8.12829
26 2 4.78162 4.22083 10.5986
27 2 3.80477 3.40842 13.5944
28 2 2.41856 2.87343 10.3967
29 2 3.45004 -0.118076 7.84495
30 2 1.20958 -0.13793 5.33464
31 2 3.96158 1.50282 5.29508
32 2 6.70756 4.33608 2.81122
33 2 4.33706 2.74073 2.82608
34 2 1.55945 1.36586 3.01646
35 2 6.38333 3.00089 5.15517
ITEM: TIMESTEP
5400
ITEM: NUMBER OF ATOMS
35
ITEM: BOX BOUNDS xy xz yz pp pp pp
0.0000000000000000e+00 7.6685730000000003e+00 2.5561910000000001e+00
0.0000000000000000e+00 4.4274529999999999e+00 0.0000000000000000e+00
0.0000000000000000e+00 3.5699264999999997e+01 0.0000000000000000e+00
ITEM: ATOMS id type x y z
1 1 2.20252 2.3029 32.4315
2 1 0.763713 0.288025 32.1481
3 1 4.75263 2.72469 32.6306
4 1 6.01269 2.52388 30.3479
5 1 3.54538 0.35985 32.0296
6 1 2.1716 0.579873 29.8687
7 1 4.66759 0.460278 29.6312
8 1 3.55982 2.73986 30.4278
9 1 1.06192 0.212573 27.3813
10 1 2.48181 2.41689 28.204
11 1 4.85779 2.49959 28.0448
12 1 3.72887 -0.258941 27.1283
13 1 3.27145 2.47982 25.9078
14 1 2.01838 0.275361 25.3474
15 1 5.82257 2.30744 25.6103
16 2 5.66018 0.993651 15.8151
17 2 4.68975 1.456 18.0491
18 2 3.12247 2.07279 16.1345
19 2 3.99584 4.11178 17.6836
20 2 4.77205 1.23076 10.4641
21 2 6.02125 3.68776 16.0353
22 2 1.35814 2.1249 13.3044
23 2 3.81203 0.688928 13.4256
24 2 3.92619 2.40652 7.74497
25 2 1.2196 0.81972 7.69436
26 2 4.63722 4.62582 10.8199
27 2 3.94502 3.47795 13.0309
28 2 1.97565 3.10713 10.3882
29 2 6.41359 4.04046 7.87697
30 2 3.78592 4.18489 5.48355
31 2 3.95716 1.37012 5.29852
32 2 6.57376 4.37174 3.16762
33 2 4.11117 3.00339 2.72531
34 2 1.51444 1.15302 3.12994
35 2 6.51557 2.64734 5.52643
ITEM: TIMESTEP
5500
ITEM: NUMBER OF ATOMS
35
ITEM: BOX BOUNDS xy xz yz pp pp pp
0.0000000000000000e+00 7.6685730000000003e+00 2.5561910000000001e+00
0.0000000000000000e+00 4.4274529999999999e+00 0.0000000000000000e+00
0.0000000000000000e+00 3.5699264999999997e+01 0.0000000000000000e+00
ITEM: ATOMS id type x y z
1 1 2.55182 2.55551 32.2551
2 1 1.22832 0.677988 32.0692
3 1 4.81333 2.38225 32.4229
4 1 6.25269 2.79997 30.1363
5 1 6.01512 4.5713 31.8617
6 1 2.22751 0.581585 29.839
7 1 4.5526 0.911169 29.9258
8 1 3.27538 3.12712 30.0655
9 1 0.714054 0.0209069 27.9183
10 1 2.23886 1.98519 27.8972
11 1 5.04431 2.67046 28.2692
12 1 3.73387 0.291254 27.3744
13 1 3.04581 2.29232 25.6088
14 1 4.62196 4.23555 25.6396
15 1 5.60377 1.78686 26.2107
16 2 0.895888 0.812457 15.0833
17 2 4.596 1.64173 18.1765
18 2 3.18885 2.39934 15.7312
19 2 4.01202 4.17616 17.9422
20 2 4.64926 1.94547 10.2404
21 2 5.81813 3.89758 15.8823
22 2 6.11208 2.47181 13.1534
23 2 3.65684 0.719627 13.1175
24 2 3.95667 2.41242 7.9923
25 2 1.62847 0.742923 8.25038
26 2 2.33611 0.14559 10.5053
27 2 3.73042 3.6217 12.9831
28 2 2.15062 2.95525 10.5926
29 2 6.62192 3.76711 8.02762
30 2 4.26728 3.85663 5.2966
31 2 3.77385 0.986527 5.48882
32 2 6.49444 4.01504 3.21549
33 2 3.77845 2.63146 3.15971
34 2 1.36515 1.50399 3.18351
35 2 6.45758 2.40139 5.65177
ITEM: TIMESTEP
5600
ITEM: NUMBER OF ATOMS
35
ITEM: BOX BOUNDS xy xz yz pp pp pp
0.0000000000000000e+00 7.6685730000000003e+00 2.5561910000000001e+00
0.0000000000000000e+00 4.4274529999999999e+00 0.0000000000000000e+00
0.0000000000000000e+00 3.5699264999999997e+01 0.0000000000000000e+00
ITEM: ATOMS id type x y z
1 1 2.26651 2.68136 32.5185
2 1 1.14233 0.0821757 31.9152
3 1 4.95335 2.54284 32.1995
4 1 6.35216 3.35662 30.1471
5 1 3.70386 0.471591 32.4575
6 1 2.54597 0.886001 29.6319
7 1 4.97557 0.800604 29.8978
8 1 3.64789 2.87829 30.1799
9 1 0.727041 0.317322 27.9021
10 1 1.90753 2.61129 27.913
11 1 4.715 2.39533 27.949
12 1 3.47162 0.659742 27.5909
13 1 2.76642 2.11835 25.8143
14 1 4.68467 3.66661 26.0442
15 1 5.38068 1.12825 25.7215
16 2 0.803121 0.908057 15.3207
17 2 4.24629 1.60491 17.3798
18 2 3.5141 2.43393 15.2103
19 2 1.65761 0.132144 17.8402
20 2 4.86557 1.5671 10.6082
21 2 5.86084 3.98058 15.7403
22 2 6.0792 2.37999 12.6417
23 2 3.41505 1.1173 12.8957
24 2 3.96837 2.46703 7.79132
25 2 1.58027 1.07657 8.2373
26 2 2.66674 0.00612749 10.6837
27 2 3.31157 3.89566 13.0449
28 2 2.67774 3.63239 10.5414
29 2 6.58186 3.8216 8.27248
30 2 3.94529 3.85577 5.72427
31 2 4.2876 0.58373 5.8875
32 2 6.40362 3.98271 3.22416
33 2 3.64324 2.1245 3.44091
34 2 0.910679 0.880709 3.28252
35 2 1.44578 2.17874 5.77014
ITEM: TIMESTEP
5700
ITEM: NUMBER OF ATOMS
35
ITEM: BOX BOUNDS xy xz yz pp pp pp
0.0000000000000000e+00 7.6685730000000003e+00 2.5561910000000001e+00
0.0000000000000000e+00 4.4274529999999999e+00 0.0000000000000000e+00
0.0000000000000000e+00 3.5699264999999997e+01 0.0000000000000000e+00
ITEM: ATOMS id type x y z
1 1 2.42565 2.59815 32.292
2 1 1.1491 0.251097 32.3656
3 1 4.79747 2.64532 32.5059
4 1 6.25457 3.26782 30.3746
5 1 3.82585 0.34101 32.2331
6 1 2.55072 0.962415 30.1357
7 1 4.99212 1.11868 30.3368
8 1 3.69634 3.21962 30.4032
9 1 0.953935 0.695439 27.5872
10 1 2.31688 2.95686 27.9797
11 1 4.57901 2.50668 27.8476
12 1 3.42513 0.169874 27.4697
13 1 2.40794 1.90516 25.7696
14 1 4.89876 3.35134 25.3998
15 1 4.84485 0.740928 25.5698
16 2 0.980633 1.47432 15.3443
17 2 3.96684 1.49877 17.4349
18 2 3.39321 2.74065 15.1483
19 2 1.89306 0.255083 17.3973
20 2 5.46126 1.79049 10.3337
21 2 6.09156 3.94262 15.1741
22 2 5.99659 2.61037 13.0926
23 2 3.36095 1.05053 12.8893
24 2 4.07673 2.44443 8.24054
25 2 1.41861 1.02484 8.13502
26 2 2.55097 0.212539 10.6143
27 2 3.39046 4.41278 13.0109
28 2 2.80305 2.76023 10.2642
29 2 6.19321 4.00584 8.20766
30 2 4.23716 3.71384 5.73408
31 2 4.12434 0.782021 5.92956
32 2 5.91071 3.28959 3.56527
33 2 3.47113 2.05344 3.84671
34 2 1.01727 0.237664 3.34924
35 2 1.56972 2.28245 5.68944
ITEM: TIMESTEP
5800
ITEM: NUMBER OF ATOMS
35
ITEM: BOX BOUNDS xy xz yz pp pp pp
0.0000000000000000e+00 7.6685730000000003e+00 2.5561910000000001e+00
0.0000000000000000e+00 4.4274529999999999e+00 0.0000000000000000e+00
0.0000000000000000e+00 3.5699264999999997e+01 0.0000000000000000e+00
ITEM: ATOMS id type x y z
1 1 2.62705 2.40105 32.2736
2 1 1.17649 0.496299 32.7144
3 1 5.14659 2.49734 32.4254
4 1 6.10291 3.26079 30.0948
5 1 3.51763 0.235293 32.3668
6 1 2.45054 1.20097 30.1393
7 1 4.78738 1.26422 29.8695
8 1 3.71098 3.73201 30.0298
9 1 1.01822 0.390629 27.845
10 1 2.43672 2.69066 28.2403
11 1 4.92098 2.88897 27.7572
12 1 3.60946 0.485476 27.9299
13 1 2.08495 1.81411 25.9338
14 1 5.00307 3.06172 25.5049
15 1 4.4078 0.439708 25.5184
16 2 1.03514 1.33341 15.1468
17 2 4.21244 1.64486 17.6216
18 2 3.36935 3.06251 15.4632
19 2 4.37993 4.21524 17.3858
20 2 5.1473 1.50443 10.6262
21 2 3.58007 0.531659 15.3751
22 2 5.95315 3.11157 12.7235
23 2 3.63379 1.53937 12.8597
24 2 3.82995 2.29479 8.06488
25 2 1.20706 0.734446 8.05274
26 2 5.16584 4.18093 10.4172
27 2 3.51071 4.36847 12.6284
28 2 2.70058 2.8821 10.8566
29 2 6.67058 3.91866 8.32092
30 2 4.53836 3.84141 5.84765
31 2 4.31794 0.892727 5.78126
32 2 5.63704 2.87789 3.42067
33 2 3.11537 1.45084 3.20159
34 2 0.732516 0.197912 3.51805
35 2 1.76785 2.38148 5.95851
ITEM: TIMESTEP
5900
ITEM: NUMBER OF ATOMS
35
ITEM: BOX BOUNDS xy xz yz pp pp pp
0.0000000000000000e+00 7.6685730000000003e+00 2.5561910000000001e+00
0.0000000000000000e+00 4.4274529999999999e+00 0.0000000000000000e+00
0.0000000000000000e+00 3.5699264999999997e+01 0.0000000000000000e+00
ITEM: ATOMS id type x y z
1 1 2.29915 2.5501 32.3893
2 1 1.39241 0.278409 32.2316
3 1 5.17952 2.53094 32.0058
4 1 6.24358 3.81517 30.0395
5 1 3.93809 0.496381 32.2403
6 1 2.06912 1.32872 30.2406
7 1 5.02565 1.23711 30.0913
8 1 3.55434 3.38496 30.1115
9 1 1.15122 0.432569 27.7207
10 1 2.40438 2.89364 28.0643
11 1 5.04207 2.63969 28.1409
12 1 3.33083 0.764106 28.0293
13 1 1.96574 1.5433 25.7486
14 1 4.85735 3.01232 25.875
15 1 4.43677 0.0730145 26.0649
16 2 0.921106 1.95961 15.2935
17 2 4.69147 1.44259 17.6815
18 2 3.29247 3.47285 15.1742
19 2 4.40168 4.40902 17.6414
20 2 4.69291 1.03732 10.5801
21 2 3.53246 0.21885 15.4735
22 2 6.18299 3.40625 13.0621
23 2 3.67331 1.91982 13.0646
24 2 3.94123 1.96725 8.18649
25 2 1.41101 0.952882 8.48603
26 2 5.02013 3.9841 10.3466
27 2 3.81371 4.96172 13.0531
28 2 2.44713 2.75987 10.486
29 2 6.60085 3.48051 8.03958
30 2 4.57584 3.87341 5.65266
31 2 4.60401 0.957603 5.7279
32 2 5.59025 2.8437 3.3151
33 2 2.76693 1.08445 2.90015
34 2 0.214619 -0.24577 3.41533
35 2 2.16967 2.43612 5.56755
ITEM: TIMESTEP
6000
ITEM: NUMBER OF ATOMS
35
ITEM: BOX BOUNDS xy xz yz pp pp pp
0.0000000000000000e+00 7.6685730000000003e+00 2.5561910000000001e+00
0.0000000000000000e+00 4.4274529999999999e+00 0.0000000000000000e+00
0.0000000000000000e+00 3.5699264999999997e+01 0.0000000000000000e+00
ITEM: ATOMS id type x y z
1 1 2.66703 2.77664 32.5339
2 1 1.16562 0.633337 32.0485
3 1 5.06227 2.82435 32.4358
4 1 6.14486 3.14239 30.3974
5 1 4.00242 0.577015 32.2094
6 1 2.4961 1.45255 30.1066
7 1 4.96063 1.04432 30.1459
8 1 3.61674 3.58835 30.1764
9 1 1.0265 0.710009 27.9127
10 1 2.15736 2.76227 27.8995
11 1 4.83309 2.81481 28.1928
12 1 3.58414 0.609106 27.6611
13 1 2.12861 1.28687 25.8614
14 1 4.26577 3.17927 25.9435
15 1 7.23252 4.1192 25.7945
16 2 6.06893 2.22471 15.653
17 2 4.68888 1.3044 17.6533
18 2 3.5434 3.61554 15.5085
19 2 2.09923 0.034015 17.7456
20 2 4.75879 0.864106 10.7628
21 2 3.34907 0.715855 15.4338
22 2 6.54056 3.75747 12.9922
23 2 3.7651 2.12874 13.0592
24 2 4.0542 1.98982 8.17433
25 2 1.53495 0.660112 8.1713
26 2 4.80029 3.69405 10.9011
27 2 1.18465 1.03098 13.0409
28 2 2.14524 2.17381 10.5158
29 2 6.27159 3.64263 7.5824
30 2 4.66212 4.07623 5.68884
31 2 4.84975 1.07458 5.61356
32 2 5.1133 2.45144 3.3402
33 2 2.642 0.912054 3.10573
34 2 2.72728 3.8472 2.88116
35 2 2.3367 2.2574 5.20916
ITEM: TIMESTEP
6100
ITEM: NUMBER OF ATOMS
35
ITEM: BOX BOUNDS xy xz yz pp pp pp
0.0000000000000000e+00 7.6685730000000003e+00 2.5561910000000001e+00
0.0000000000000000e+00 4.4274529999999999e+00 0.0000000000000000e+00
0.0000000000000000e+00 3.5699264999999997e+01 0.0000000000000000e+00
ITEM: ATOMS id type x y z
1 1 2.70347 3.18233 32.3417
2 1 1.28424 1.091 32.3935
3 1 4.98333 2.88471 32.936
4 1 6.42122 3.27637 30.2669
5 1 3.53194 0.670054 32.4385
6 1 2.40875 0.773784 29.905
7 1 4.98661 1.34679 30.1101
8 1 3.79698 3.31415 30.3262
9 1 0.940236 0.526641 28.0005
10 1 2.35881 2.71746 28.1295
11 1 5.01938 2.85666 27.9844
12 1 3.67415 0.492052 27.7288
13 1 2.08735 1.3666 25.8991
14 1 4.2315 2.99347 25.8257
15 1 6.81396 4.13991 25.3563
16 2 6.22118 2.43768 15.5939
17 2 4.4368 1.30906 17.8746
18 2 3.52732 4.01983 15.8011
19 2 2.3757 -0.147841 17.9188
20 2 4.7835 0.264777 10.3409
21 2 3.67346 1.13735 15.2978
22 2 6.59292 3.97039 13.0939
23 2 3.87346 2.75346 13.1608
24 2 3.8894 2.28221 8.19663
25 2 1.33939 0.417715 7.87067
26 2 4.6064 3.52236 10.8742
27 2 1.18804 1.06052 13.1404
28 2 1.90624 1.98912 10.4202
29 2 6.76426 3.50778 8.07074
30 2 4.74735 3.81893 5.25204
31 2 5.03484 0.995371 5.51831
32 2 4.76289 2.06494 3.05737
33 2 2.54441 0.519065 3.0336
34 2 2.59187 3.76356 2.80602
35 2 2.31233 2.72969 5.59771
ITEM: TIMESTEP
6200
ITEM: NUMBER OF ATOMS
35
ITEM: BOX BOUNDS xy xz yz pp pp pp
0.0000000000000000e+00 7.6685730000000003e+00 2.5561910000000001e+00
0.0000000000000000e+00 4.4274529999999999e+00 0.0000000000000000e+00
0.0000000000000000e+00 3.5699264999999997e+01 0.0000000000000000e+00
ITEM: ATOMS id type x y z
1 1 1.98943 3.25228 32.6682
2 1 1.31626 0.876073 32.2414
3 1 4.8461 3.4664 32.6011
4 1 6.23092 3.34253 30.2264
5 1 3.70194 1.36809 32.1618
6 1 2.54203 1.17281 30.2197
7 1 5.11896 0.714417 29.9734
8 1 3.94741 3.10476 30.4327
9 1 1.29326 0.199954 27.5428
10 1 2.79773 2.80914 27.9417
11 1 5.46106 2.46986 28.0956
12 1 3.79939 0.609787 28.1205
13 1 1.8267 1.74459 25.8102
14 1 4.0688 2.70387 25.9167
15 1 6.18167 3.92924 26.0715
16 2 6.23852 2.93081 15.8767
17 2 4.88657 1.6493 17.7387
18 2 0.96932 0.0852508 15.7993
19 2 5.07767 4.10414 17.9888
20 2 4.72596 0.277486 10.5746
21 2 3.62504 1.02381 15.4062
22 2 6.22911 4.11086 13.0061
23 2 3.73301 2.91588 13.2894
24 2 4.1593 1.8455 8.19951
25 2 1.48549 0.77582 7.61078
26 2 4.71554 3.35628 10.2028
27 2 1.39998 1.37338 13.1253
28 2 2.01776 1.65492 10.5508
29 2 6.2189 3.35341 7.98977
30 2 5.20155 3.57622 5.39088
31 2 4.72065 0.880239 5.46599
32 2 5.01865 2.0503 2.75017
33 2 2.19655 0.648174 3.02727
34 2 2.06947 3.47077 3.26631
35 2 2.52495 2.28715 5.52642
ITEM: TIMESTEP
6300
ITEM: NUMBER OF ATOMS
35
ITEM: BOX BOUNDS xy xz yz pp pp pp
0.0000000000000000e+00 7.6685730000000003e+00 2.5561910000000001e+00
0.0000000000000000e+00 4.4274529999999999e+00 0.0000000000000000e+00
0.0000000000000000e+00 3.5699264999999997e+01 0.0000000000000000e+00
ITEM: ATOMS id type x y z
1 1 2.69394 3.59302 32.5035
2 1 0.796946 1.54468 32.3205
3 1 4.87041 3.78142 32.4219
4 1 6.42298 3.22478 30.4601
5 1 3.53447 1.23016 32.1569
6 1 2.73824 0.940288 30.0629
7 1 5.25421 0.910805 30.1705
8 1 3.84887 2.99235 30.101
9 1 1.48669 0.26366 27.7742
10 1 2.63588 2.69544 28.0701
11 1 5.09924 2.47278 28.2034
12 1 4.099 0.248519 28.2825
13 1 1.43127 1.72108 25.6387
14 1 4.02262 2.10172 26.2198
15 1 6.0545 4.18825 26.0574
16 2 6.30653 3.24941 15.7505
17 2 5.16865 1.3349 17.5563
18 2 1.26908 -0.235325 15.4076
19 2 5.46042 4.77308 18.0401
20 2 5.03276 0.601238 10.9114
21 2 3.28599 1.73121 15.4794
22 2 5.89543 4.35081 13.0084
23 2 3.53801 2.90026 12.9796
24 2 3.85672 1.48931 7.90888
25 2 1.34201 0.376839 7.72295
26 2 4.87366 3.30083 10.4414
27 2 0.881429 1.50099 13.2433
28 2 2.47062 1.77732 10.5844
29 2 6.5022 3.29634 7.60348
30 2 4.7313 3.42676 5.40403
31 2 5.29323 0.4341 5.36147
32 2 4.59118 2.11761 3.05334
33 2 2.01748 0.651015 3.2778
34 2 2.03549 3.48178 3.38841
35 2 2.70831 1.76025 5.51529
ITEM: TIMESTEP
6400
ITEM: NUMBER OF ATOMS
35
ITEM: BOX BOUNDS xy xz yz pp pp pp
0.0000000000000000e+00 7.6685730000000003e+00 2.5561910000000001e+00
0.0000000000000000e+00 4.4274529999999999e+00 0.0000000000000000e+00
0.0000000000000000e+00 3.5699264999999997e+01 0.0000000000000000e+00
ITEM: ATOMS id type x y z
1 1 2.32719 4.18547 32.386
2 1 6.5225 1.77237 32.7319
3 1 5.15913 3.79587 32.3168
4 1 6.73149 2.86517 30.1432
5 1 3.76623 1.94758 32.3909
6 1 2.50789 0.806904 30.03
7 1 5.15669 1.02856 30.5024
8 1 3.82923 3.11289 30.3479
9 1 1.18262 0.0374153 28.0084
10 1 2.60833 2.25007 27.9158
11 1 5.21374 2.67407 28.2714
12 1 3.85243 0.346954 27.9628
13 1 1.22073 1.37917 26.1051
14 1 3.99472 2.04162 26.0037
15 1 5.90236 3.80332 25.728
16 2 6.38677 3.34 15.6224
17 2 5.69373 1.45104 17.1242
18 2 3.78823 4.42423 15.1834
19 2 2.81904 0.635272 17.7218
20 2 5.23929 0.5495 10.6028
21 2 3.52702 1.69259 15.4898
22 2 5.76059 4.59998 13.178
23 2 3.12078 3.046 12.6509
24 2 4.06283 1.67572 8.16461
25 2 1.18702 -0.187285 8.56722
26 2 5.40847 3.46974 10.5402
27 2 5.42622 1.76651 13.5483
28 2 2.56518 2.15865 10.2253
29 2 6.62647 2.78023 7.79055
30 2 5.20402 3.03377 5.62679
31 2 0.103645 0.415259 5.60226
32 2 4.02941 1.97992 3.23576
33 2 1.93216 0.338414 2.99486
34 2 1.82528 3.5101 3.05422
35 2 2.59872 1.59045 5.57403
ITEM: TIMESTEP
6500
ITEM: NUMBER OF ATOMS
35
ITEM: BOX BOUNDS xy xz yz pp pp pp
0.0000000000000000e+00 7.6685730000000003e+00 2.5561910000000001e+00
0.0000000000000000e+00 4.4274529999999999e+00 0.0000000000000000e+00
0.0000000000000000e+00 3.5699264999999997e+01 0.0000000000000000e+00
ITEM: ATOMS id type x y z
1 1 7.71849 4.15879 32.5525
2 1 1.43739 1.98049 32.5147
3 1 5.20949 4.13323 32.2773
4 1 6.32536 3.22455 30.4071
5 1 4.07237 2.15494 32.6334
6 1 2.79905 1.22891 30.2269
7 1 5.34808 0.799389 30.0944
8 1 3.85806 3.16951 30.1891
9 1 3.9081 4.48622 28.2024
10 1 2.27189 2.21782 28.1856
11 1 5.07648 2.13064 27.8842
12 1 3.68952 0.223894 27.9824
13 1 1.41702 0.955543 25.9983
14 1 3.50844 2.26757 25.9484
15 1 5.77916 3.46675 26.1044
16 2 6.69918 3.55085 15.5571
17 2 5.40244 1.89851 17.204
18 2 4.04117 4.48333 14.9262
19 2 2.95782 0.361318 17.4987
20 2 5.26451 0.963396 10.967
21 2 3.49878 1.69393 15.295
22 2 2.98151 0.590657 12.7751
23 2 2.6508 3.30868 12.7592
24 2 4.34102 0.842501 8.18089
25 2 4.34712 4.21475 8.17934
26 2 5.50564 3.62742 10.69
27 2 5.5653 2.16578 13.3676
28 2 2.74534 1.84672 10.3225
29 2 6.4388 2.72683 8.24851
30 2 5.24194 3.23684 5.62428
31 2 5.15066 -0.189678 5.7284
32 2 4.17429 1.7961 3.28326
33 2 1.38324 0.2005 3.03489
34 2 6.52492 3.45761 3.23132
35 2 2.65467 1.45072 5.49878
ITEM: TIMESTEP
6600
ITEM: NUMBER OF ATOMS
35
ITEM: BOX BOUNDS xy xz yz pp pp pp
0.0000000000000000e+00 7.6685730000000003e+00 2.5561910000000001e+00
0.0000000000000000e+00 4.4274529999999999e+00 0.0000000000000000e+00
0.0000000000000000e+00 3.5699264999999997e+01 0.0000000000000000e+00
ITEM: ATOMS id type x y z
1 1 8.07777 4.18041 32.2537
2 1 1.35469 2.15607 32.365
3 1 5.23594 4.31641 32.7118
4 1 6.72078 3.46363 30.3767
5 1 4.02365 1.80134 32.3248
6 1 2.54539 0.983343 30.3655
7 1 5.14976 1.29222 30.3267
8 1 4.15009 3.32468 30.4419
9 1 3.80505 4.34251 28.0095
10 1 2.17871 2.1701 28.2732
11 1 4.94188 2.06755 27.9931
12 1 3.77086 0.202185 28.2189
13 1 1.24169 0.516727 25.8553
14 1 3.14639 2.56352 26.0038
15 1 5.96616 3.33821 26.0304
16 2 6.75458 3.5408 15.3022
17 2 5.34479 1.97581 17.0182
18 2 4.00328 4.70092 15.3371
19 2 2.74856 0.336386 17.5776
20 2 5.83002 0.844647 10.7594
21 2 3.69152 2.09932 15.0939
22 2 2.77374 0.875579 12.9128
23 2 2.93117 3.73776 12.7248
24 2 4.22669 0.855876 8.0103
25 2 4.20913 4.04348 7.92434
26 2 5.12282 3.57136 10.4139
27 2 5.45377 2.31047 13.4058
28 2 3.1891 2.13912 10.3697
29 2 6.95569 2.15296 8.12917
30 2 5.10394 2.48701 5.78962
31 2 5.29494 -0.173848 5.643
32 2 3.9725 1.79595 3.39742
33 2 1.17842 0.281338 3.38365
34 2 6.33871 3.24728 3.50366
35 2 2.48445 1.36217 5.55272
ITEM: TIMESTEP
6700
ITEM: NUMBER OF ATOMS
35
ITEM: BOX BOUNDS xy xz yz pp pp pp
0.0000000000000000e+00 7.6685730000000003e+00 2.5561910000000001e+00
0.0000000000000000e+00 4.4274529999999999e+00 0.0000000000000000e+00
0.0000000000000000e+00 3.5699264999999997e+01 0.0000000000000000e+00
ITEM: ATOMS id type x y z
1 1 2.56357 4.40824 32.7678
2 1 1.65177 1.66123 32.718
3 1 5.39715 3.98719 32.7921
4 1 6.54548 3.30315 30.3942
5 1 4.04071 2.19437 32.3433
6 1 2.96881 1.05609 30.7434
7 1 5.41711 1.1249 30.0907
8 1 4.21351 3.35317 30.196
9 1 3.11984 4.30704 28.0062
10 1 2.32481 2.22399 28.1969
11 1 4.86006 2.49583 28.0176
12 1 3.51321 0.252563 27.8587
13 1 0.918725 0.85022 26.0346
14 1 3.51102 2.39914 26.1249
15 1 6.03261 3.23115 25.6401
16 2 6.30268 3.9634 15.2541
17 2 5.51536 2.08776 17.304
18 2 1.40018 0.534337 15.3575
19 2 2.65052 0.492291 17.6922
20 2 0.761632 0.826433 10.0466
21 2 3.59304 2.14917 15.3653
22 2 2.87333 0.728371 12.9286
23 2 2.92396 4.00415 12.895
24 2 4.30054 0.904647 8.24084
25 2 3.93655 3.47092 8.02625
26 2 6.36959 3.92048 10.1886
27 2 5.55181 2.29011 12.7749
28 2 3.21484 2.3452 10.5849
29 2 1.69924 2.11073 7.95503
30 2 5.17159 2.3082 5.87991
31 2 2.23002 3.77013 5.78599
32 2 3.46938 1.90442 3.27924
33 2 1.39593 0.298815 3.34158
34 2 6.26141 3.2201 3.50805
35 2 2.69054 0.80933 5.70943
ITEM: TIMESTEP
6800
ITEM: NUMBER OF ATOMS
35
ITEM: BOX BOUNDS xy xz yz pp pp pp
0.0000000000000000e+00 7.6685730000000003e+00 2.5561910000000001e+00
0.0000000000000000e+00 4.4274529999999999e+00 0.0000000000000000e+00
0.0000000000000000e+00 3.5699264999999997e+01 0.0000000000000000e+00
ITEM: ATOMS id type x y z
1 1 2.94549 4.09704 32.6214
2 1 1.6401 2.04617 32.5703
3 1 5.45372 4.20508 32.3158
4 1 6.77963 3.24307 30.5933
5 1 4.06461 1.93745 32.7602
6 1 3.0319 1.04102 30.0259
7 1 5.52278 1.13302 30.7897
8 1 4.03741 3.18772 30.5034
9 1 3.27978 4.2959 28.3625
10 1 1.87508 2.40773 28.2269
11 1 4.38973 2.05633 28.4501
12 1 3.18931 0.0539961 27.6414
13 1 0.900369 1.38597 25.9932
14 1 3.4788 1.99012 26.0297
15 1 6.35458 3.91573 25.4693
16 2 6.24704 3.80483 15.4324
17 2 5.56738 2.39003 17.5686
18 2 0.876505 0.999376 15.1102
19 2 2.72872 0.647343 17.5686
20 2 1.77802 0.935157 10.4909
21 2 3.45682 2.61601 15.9551
22 2 2.91224 0.677331 12.7191
23 2 2.78055 3.84523 13.0136
24 2 3.83263 0.55637 7.77842
25 2 4.19761 3.59532 8.26079
26 2 6.49027 3.89443 10.4912
27 2 5.7411 2.35366 12.4136
28 2 3.98067 2.43155 10.7981
29 2 1.27159 2.29246 7.98669
30 2 4.81944 2.12787 5.23987
31 2 2.69421 3.18948 5.75151
32 2 3.60464 1.85086 3.13477
33 2 0.869598 0.251549 3.52205
34 2 6.06101 3.22421 3.00791
35 2 2.44955 0.403882 5.72401
ITEM: TIMESTEP
6900
ITEM: NUMBER OF ATOMS
35
ITEM: BOX BOUNDS xy xz yz pp pp pp
0.0000000000000000e+00 7.6685730000000003e+00 2.5561910000000001e+00
0.0000000000000000e+00 4.4274529999999999e+00 0.0000000000000000e+00
0.0000000000000000e+00 3.5699264999999997e+01 0.0000000000000000e+00
ITEM: ATOMS id type x y z
1 1 3.24814 3.86412 32.8672
2 1 1.46484 2.31981 32.7036
3 1 2.87332 0.300245 32.099
4 1 6.8816 3.34226 30.2185
5 1 4.59487 1.49705 33.0367
6 1 2.42064 0.821121 29.8716
7 1 5.39524 1.09287 30.6548
8 1 4.05273 3.01655 30.6312
9 1 3.13563 4.33725 28.4276
10 1 1.88809 2.24225 28.2458
11 1 4.46086 2.03869 28.1536
12 1 5.25239 4.08215 27.6904
13 1 0.924667 1.24827 26.3769
14 1 3.19081 2.53765 26.1964
15 1 4.4543 -0.00808708 25.6522
16 2 5.96846 3.97674 15.3758
17 2 5.73617 2.35882 17.8324
18 2 5.44332 1.27161 15.5074
19 2 2.68437 0.826679 17.3612
20 2 2.04625 0.967917 10.5459
21 2 3.45094 3.11455 16.1515
22 2 3.03726 0.864548 13.4949
23 2 3.28485 3.50415 13.1415
24 2 3.86918 0.960944 7.84494
25 2 3.64597 3.94366 8.05014
26 2 7.29363 3.93742 10.2894
27 2 5.72938 2.28703 13.0275
28 2 4.70576 2.34717 10.3193
29 2 6.28412 2.15863 7.94787
30 2 5.27188 1.61555 5.59703
31 2 2.36548 2.98784 5.59773
32 2 3.12751 1.52675 2.5711
33 2 0.413786 0.109785 3.11085
34 2 5.92529 3.26939 2.72561
35 2 2.35306 0.000427595 5.30947
ITEM: TIMESTEP
7000
ITEM: NUMBER OF ATOMS
35
ITEM: BOX BOUNDS xy xz yz pp pp pp
0.0000000000000000e+00 7.6685730000000003e+00 2.5561910000000001e+00
0.0000000000000000e+00 4.4274529999999999e+00 0.0000000000000000e+00
0.0000000000000000e+00 3.5699264999999997e+01 0.0000000000000000e+00
ITEM: ATOMS id type x y z
1 1 3.57038 4.01901 32.9553
2 1 1.77854 2.26854 32.4195
3 1 3.11107 0.19995 32.4779
4 1 6.06405 3.11188 30.2821
5 1 4.54694 1.81162 33.2545
6 1 2.80312 0.858398 29.9131
7 1 5.34055 0.675891 30.9327
8 1 3.72565 3.01977 30.6662
9 1 2.8601 4.34468 28.0726
10 1 1.6227 2.14078 28.2511
11 1 4.32673 2.00125 28.4543
12 1 5.29678 4.37274 27.8183
13 1 1.37144 1.40847 25.9281
14 1 3.82605 2.90697 26.2621
15 1 6.41947 4.16299 25.5521
16 2 5.85224 3.57993 15.4045
17 2 5.62117 2.70491 18.1263
18 2 5.45518 1.10086 15.8537
19 2 2.77227 1.06565 17.6755
20 2 2.45971 1.0654 10.8845
21 2 3.24603 2.90431 16.126
22 2 3.25364 1.22674 13.3974
23 2 3.55661 4.06039 13.1803
24 2 3.45737 1.16476 8.02391
25 2 3.49885 3.99698 7.34109
26 2 2.71774 3.81346 10.486
27 2 5.90825 2.28737 12.7253
28 2 4.86887 2.22514 10.3254
29 2 6.35122 2.54106 8.09595
30 2 4.79467 1.36284 5.41213
31 2 2.51616 2.79957 5.10743
32 2 2.73948 1.5057 2.86066
33 2 0.396722 -0.00580775 2.65404
34 2 5.26168 2.76804 2.86421
35 2 5.39854 4.23945 5.1116
ITEM: TIMESTEP
7100
ITEM: NUMBER OF ATOMS
35
ITEM: BOX BOUNDS xy xz yz pp pp pp
0.0000000000000000e+00 7.6685730000000003e+00 2.5561910000000001e+00
0.0000000000000000e+00 4.4274529999999999e+00 0.0000000000000000e+00
0.0000000000000000e+00 3.5699264999999997e+01 0.0000000000000000e+00
ITEM: ATOMS id type x y z
1 1 3.2515 4.4266 33.1759
2 1 2.20186 1.83159 32.614
3 1 3.6827 -0.406372 32.4376
4 1 6.09857 3.00953 30.2705
5 1 4.78529 2.42579 32.7144
6 1 2.28946 0.68775 30.5898
7 1 4.76115 0.876651 30.6545
8 1 3.51442 3.16982 30.966
9 1 2.68811 4.37241 28.0965
10 1 1.51329 2.13454 27.6123
11 1 3.87622 2.18132 28.5953
12 1 5.47826 4.45109 28.1157
13 1 1.45679 1.29331 25.5598
14 1 4.49766 2.83774 26.1795
15 1 6.44369 4.14772 26.0539
16 2 5.71625 3.77551 15.0854
17 2 5.48004 2.91414 17.9177
18 2 5.91443 0.889487 15.7885
19 2 2.68812 0.955131 18.1586
20 2 2.86746 0.534372 10.9042
21 2 3.13194 2.40918 15.932
22 2 3.81498 1.47116 13.5517
23 2 3.32071 4.43472 13.2171
24 2 3.35186 1.19781 8.23183
25 2 3.70009 3.97843 7.3785
26 2 2.51157 3.90441 10.5403
27 2 6.31093 2.87442 12.6585
28 2 4.95453 2.48234 10.2914
29 2 6.04943 3.06714 7.82695
30 2 5.32207 1.2904 5.25746
31 2 2.64638 2.78389 5.17678
32 2 2.38489 1.0242 2.73162
33 2 -0.0124444 -0.295323 2.83848
34 2 4.87 2.51923 2.87503
35 2 5.1469 4.14813 5.15496
ITEM: TIMESTEP
7200
ITEM: NUMBER OF ATOMS
35
ITEM: BOX BOUNDS xy xz yz pp pp pp
0.0000000000000000e+00 7.6685730000000003e+00 2.5561910000000001e+00
0.0000000000000000e+00 4.4274529999999999e+00 0.0000000000000000e+00
0.0000000000000000e+00 3.5699264999999997e+01 0.0000000000000000e+00
ITEM: ATOMS id type x y z
1 1 1.10778 0.0684714 32.9131
2 1 2.6638 1.91612 33.1771
3 1 6.25033 4.19025 32.2867
4 1 6.00877 2.84162 29.8324
5 1 4.9725 2.05381 32.3833
6 1 1.82754 0.898105 30.726
7 1 4.42578 1.05595 30.3256
8 1 3.02219 3.0551 30.9442
9 1 0.254507 0.272294 28.472
10 1 1.4286 2.38081 27.6172
11 1 3.69241 2.39427 28.5087
12 1 2.67977 -0.083945 28.2351
13 1 1.57124 0.625809 25.8468
14 1 4.40611 2.48878 26.42
15 1 6.98987 4.56453 26.3455
16 2 5.76199 4.07097 15.2357
17 2 5.26527 2.59351 17.2496
18 2 0.85266 0.670929 15.9122
19 2 2.65407 1.14701 18.0322
20 2 2.35153 0.856211 10.8861
21 2 3.12737 2.38907 15.7753
22 2 4.07056 1.92751 13.156
23 2 3.88547 4.49693 13.0213
24 2 3.50115 1.52779 8.06708
25 2 3.50008 4.45251 8.17953
26 2 2.6314 3.7029 10.1885
27 2 6.50328 3.08215 12.8981
28 2 5.22381 2.1819 10.385
29 2 6.14782 2.90231 7.5636
30 2 5.49661 1.1187 5.58691
31 2 2.70105 2.62679 5.51331
32 2 1.97533 0.680901 2.53553
33 2 1.90382 3.72346 3.19091
34 2 4.8242 2.42069 2.85551
35 2 5.28053 4.16578 5.14485
ITEM: TIMESTEP
7300
ITEM: NUMBER OF ATOMS
35
ITEM: BOX BOUNDS xy xz yz pp pp pp
0.0000000000000000e+00 7.6685730000000003e+00 2.5561910000000001e+00
0.0000000000000000e+00 4.4274529999999999e+00 0.0000000000000000e+00
0.0000000000000000e+00 3.5699264999999997e+01 0.0000000000000000e+00
ITEM: ATOMS id type x y z
1 1 4.0721 4.05126 33.0819
2 1 2.57232 2.19585 33.1065
3 1 6.44661 4.22027 32.6763
4 1 5.32055 3.05134 30.1039
5 1 5.4396 1.76911 32.4361
6 1 1.60678 0.94298 30.6017
7 1 4.07054 0.823992 30.456
8 1 2.93589 3.24186 30.7831
9 1 5.59269 0.545109 28.5229
10 1 1.48081 2.47458 27.1494
11 1 3.4704 2.6074 28.5365
12 1 3.06064 0.303092 28.5715
13 1 1.65843 0.254351 26.2903
14 1 4.22721 2.29049 26.0807
15 1 4.33396 0.0873193 26.034
16 2 5.86982 4.17411 15.2533
17 2 4.98146 2.76464 17.4903
18 2 0.583311 0.874819 15.6593
19 2 2.74341 1.08937 17.3859
20 2 2.62072 0.802238 10.3739
21 2 3.01059 2.41911 15.1193
22 2 4.22671 1.54679 12.7464
23 2 1.70013 0.4378 13.2376
24 2 3.79158 1.57817 7.95327
25 2 1.36566 0.499886 8.04774
26 2 2.37188 3.66095 10.6955
27 2 6.8121 3.07555 13.0077
28 2 4.9141 2.1082 10.3794
29 2 6.148 3.21711 7.78326
30 2 5.22221 0.858426 5.53274
31 2 3.20274 2.47338 5.50145
32 2 1.64571 0.776273 3.09322
33 2 7.04725 3.49266 3.31871
34 2 4.18453 1.8061 3.2529
35 2 5.26 4.17939 5.40592
ITEM: TIMESTEP
7400
ITEM: NUMBER OF ATOMS
35
ITEM: BOX BOUNDS xy xz yz pp pp pp
0.0000000000000000e+00 7.6685730000000003e+00 2.5561910000000001e+00
0.0000000000000000e+00 4.4274529999999999e+00 0.0000000000000000e+00
0.0000000000000000e+00 3.5699264999999997e+01 0.0000000000000000e+00
ITEM: ATOMS id type x y z
1 1 4.1673 4.00088 32.8133
2 1 2.78874 1.65242 32.5858
3 1 6.76211 3.93745 33.2765
4 1 5.32438 3.26692 30.7374
5 1 5.31319 2.01825 32.8232
6 1 1.71022 0.84591 30.5288
7 1 4.0281 1.07936 30.6711
8 1 2.69218 3.27237 30.8411
9 1 0.188854 0.753701 28.3244
10 1 6.35398 2.61889 27.3763
11 1 3.71357 2.97413 28.4914
12 1 3.10813 0.269103 28.2166
13 1 1.81698 0.300833 26.1657
14 1 3.85785 2.18348 26.1514
15 1 6.90815 4.23429 25.7804
16 2 5.45459 3.74254 15.1153
17 2 4.70764 2.99597 17.5766
18 2 5.72548 1.29219 15.4922
19 2 2.81457 1.27108 17.3102
20 2 2.64311 0.55091 10.3458
21 2 3.28989 2.53143 14.9596
22 2 4.32625 1.4125 12.8221
23 2 1.62483 0.0764749 12.8052
24 2 4.11274 1.90026 7.98394
25 2 1.33443 0.163683 7.89904
26 2 2.84227 4.03083 10.2995
27 2 6.62233 3.10419 12.7553
28 2 5.17077 2.42822 10.3517
29 2 6.59593 3.45941 8.1064
30 2 5.36159 1.07237 5.70971
31 2 2.6172 2.58945 5.89753
32 2 1.46541 0.380399 3.47245
33 2 6.74195 3.2772 3.29723
34 2 3.95838 1.69095 3.28205
35 2 5.4439 3.82223 5.63228
ITEM: TIMESTEP
7500
ITEM: NUMBER OF ATOMS
35
ITEM: BOX BOUNDS xy xz yz pp pp pp
0.0000000000000000e+00 7.6685730000000003e+00 2.5561910000000001e+00
0.0000000000000000e+00 4.4274529999999999e+00 0.0000000000000000e+00
0.0000000000000000e+00 3.5699264999999997e+01 0.0000000000000000e+00
ITEM: ATOMS id type x y z
1 1 4.11515 4.06829 32.4249
2 1 3.07493 1.52848 32.6659
3 1 6.73664 3.78122 32.9166
4 1 5.40307 3.39036 30.7143
5 1 5.48261 1.60719 32.8639
6 1 1.39373 1.33515 30.4198
7 1 4.00951 1.16464 30.61
8 1 2.65084 3.22409 30.5744
9 1 5.0464 0.374783 28.179
10 1 6.50404 2.71335 27.6649
11 1 4.18306 2.81014 28.6614
12 1 2.49771 0.712992 28.5636
13 1 1.86433 0.302394 26.2136
14 1 3.57876 2.21048 26.5582
15 1 7.20555 4.29371 26.0698
16 2 5.81662 4.26056 14.9118
17 2 4.69135 3.29013 17.4058
18 2 0.522791 0.718105 15.5115
19 2 2.54092 1.44976 17.3729
20 2 3.08706 1.52729 10.4765
21 2 2.94927 2.62804 15.1136
22 2 4.17327 1.49374 12.8413
23 2 4.06488 4.22349 12.5662
24 2 4.12846 1.82474 8.14928
25 2 1.73946 0.434859 7.96745
26 2 3.06779 3.89391 10.3315
27 2 6.76105 2.87306 12.6149
28 2 5.55539 2.14029 10.3234
29 2 6.64025 3.14812 8.18894
30 2 5.04645 1.15082 5.69376
31 2 2.63669 2.2393 5.57983
32 2 3.87004 4.33487 3.45152
33 2 6.29572 3.04744 3.31192
34 2 4.02239 1.74774 3.44912
35 2 5.27845 4.18255 5.7416
ITEM: TIMESTEP
7600
ITEM: NUMBER OF ATOMS
35
ITEM: BOX BOUNDS xy xz yz pp pp pp
0.0000000000000000e+00 7.6685730000000003e+00 2.5561910000000001e+00
0.0000000000000000e+00 4.4274529999999999e+00 0.0000000000000000e+00
0.0000000000000000e+00 3.5699264999999997e+01 0.0000000000000000e+00
ITEM: ATOMS id type x y z
1 1 4.08716 3.77796 32.935
2 1 2.64578 1.84245 32.8588
3 1 6.64712 3.86599 32.2294
4 1 5.46788 3.4827 30.32
5 1 5.23455 1.57217 32.7411
6 1 1.53174 1.31457 30.6354
7 1 4.01213 1.30923 30.7526
8 1 2.79195 3.46681 30.4552
9 1 5.59268 0.530193 28.5615
10 1 6.60972 2.75017 27.9201
11 1 3.94865 2.50384 28.631
12 1 2.77055 0.779672 28.5535
13 1 1.94202 -0.0481951 26.5312
14 1 3.39482 2.16259 26.3799
15 1 6.96626 4.32033 25.9238
16 2 5.64011 4.23894 14.9498
17 2 4.86871 3.1448 16.8485
18 2 0.461616 1.18679 15.6038
19 2 2.28216 1.6363 17.5404
20 2 3.10105 0.667035 10.6745
21 2 2.86828 2.56064 15.2329
22 2 4.48841 1.41553 13.1154
23 2 4.27567 4.42721 12.9617
24 2 4.20667 1.78933 7.86097
25 2 1.7766 0.480264 8.30218
26 2 2.91238 4.19916 10.2697
27 2 6.89082 2.8019 12.9394
28 2 5.83482 2.74675 10.4144
29 2 6.66938 3.40599 7.63274
30 2 5.31913 0.679908 5.78439
31 2 2.67917 2.65019 5.46792
32 2 3.58594 4.51487 3.30796
33 2 6.29303 2.97152 3.35413
34 2 3.68354 1.22897 3.04702
35 2 5.08709 3.82298 5.57967
ITEM: TIMESTEP
7700
ITEM: NUMBER OF ATOMS
35
ITEM: BOX BOUNDS xy xz yz pp pp pp
0.0000000000000000e+00 7.6685730000000003e+00 2.5561910000000001e+00
0.0000000000000000e+00 4.4274529999999999e+00 0.0000000000000000e+00
0.0000000000000000e+00 3.5699264999999997e+01 0.0000000000000000e+00
ITEM: ATOMS id type x y z
1 1 3.70492 3.84632 32.7261
2 1 2.4241 1.73206 32.8924
3 1 6.2581 4.01198 32.9318
4 1 5.67468 3.30676 30.4475
5 1 5.03271 1.82494 33.3653
6 1 1.79199 1.07935 30.4608
7 1 4.30072 1.28397 30.855
8 1 2.90651 3.76279 30.585
9 1 0.319394 0.953609 28.3045
10 1 6.91573 2.58406 28.1455
11 1 4.17841 2.9232 28.2633
12 1 3.21173 0.464844 28.4584
13 1 4.39415 4.22103 26.113
14 1 2.90936 1.78664 25.8394
15 1 6.94624 4.40571 26.4155
16 2 5.81249 4.32557 15.1213
17 2 4.75259 3.0597 17.828
18 2 5.73644 1.0968 15.574
19 2 2.2528 1.65083 17.7292
20 2 2.96204 1.299 10.6773
21 2 2.99904 2.83565 15.3657
22 2 4.50248 1.62771 12.9783
23 2 1.68017 0.00870324 12.8045
24 2 4.16062 2.26029 8.12611
25 2 1.70994 0.521387 7.96088
26 2 3.03682 3.8924 10.4931
27 2 1.95903 2.99242 12.7526
28 2 5.48203 2.09727 10.3818
29 2 6.86288 3.65557 7.92139
30 2 5.43275 1.06634 5.49665
31 2 2.81475 1.77393 5.32945
32 2 0.984459 0.0320611 2.90274
33 2 6.12395 2.69552 2.97077
34 2 3.42004 1.18729 2.98403
35 2 5.16836 3.5903 5.35792
ITEM: TIMESTEP
7800
ITEM: NUMBER OF ATOMS
35
ITEM: BOX BOUNDS xy xz yz pp pp pp
0.0000000000000000e+00 7.6685730000000003e+00 2.5561910000000001e+00
0.0000000000000000e+00 4.4274529999999999e+00 0.0000000000000000e+00
0.0000000000000000e+00 3.5699264999999997e+01 0.0000000000000000e+00
ITEM: ATOMS id type x y z
1 1 3.51964 4.33406 32.4198
2 1 2.3348 1.84071 32.6719
3 1 6.04312 4.08611 33.1999
4 1 5.46346 3.33575 31.0232
5 1 4.83542 1.84081 33.1741
6 1 1.72593 1.17663 30.5451
7 1 4.4554 1.17018 31.0336
8 1 3.31259 3.17915 30.2124
9 1 0.525062 0.563877 28.454
10 1 6.86035 3.01312 28.2774
11 1 4.75936 2.80164 28.1482
12 1 3.21764 0.598604 28.3197
13 1 4.29152 3.79072 26.0748
14 1 2.55971 2.16389 26.3438
15 1 6.94105 4.42755 26.2988
16 2 5.76151 4.06837 15.7476
17 2 4.57582 3.27923 18.0041
18 2 5.94534 1.26257 15.616
19 2 2.38224 1.61599 17.7007
20 2 2.74354 0.932463 10.2213
21 2 3.48651 2.81063 15.5529
22 2 4.13662 1.71378 12.9307
23 2 2.03004 0.0993706 12.8969
24 2 4.12795 2.39942 7.87084
25 2 1.70351 0.937898 7.64756
26 2 3.14875 3.91664 10.4291
27 2 1.71316 3.31683 13.0835
28 2 5.61131 2.11786 10.455
29 2 6.71574 3.89889 8.19483
30 2 5.22927 0.44311 5.16578
31 2 2.78234 2.15236 5.56139
32 2 0.858062 -0.673439 2.95617
33 2 6.02799 2.56511 2.60191
34 2 3.70746 1.32118 2.82509
35 2 5.20995 3.44288 5.15641
ITEM: TIMESTEP
7900
ITEM: NUMBER OF ATOMS
35
ITEM: BOX BOUNDS xy xz yz pp pp pp
0.0000000000000000e+00 7.6685730000000003e+00 2.5561910000000001e+00
0.0000000000000000e+00 4.4274529999999999e+00 0.0000000000000000e+00
0.0000000000000000e+00 3.5699264999999997e+01 0.0000000000000000e+00
ITEM: ATOMS id type x y z
1 1 3.56966 4.36887 32.6041
2 1 2.1971 2.34621 32.6128
3 1 6.02727 4.49046 33.2479
4 1 5.6954 3.0834 31.0222
5 1 4.75158 2.18244 32.8733
6 1 1.5962 1.12659 30.6416
7 1 4.46447 0.686896 30.492
8 1 3.48983 2.92605 30.5528
9 1 0.870957 0.117059 28.0452
10 1 1.64706 3.22263 28.7459
11 1 4.76113 2.35013 28.1054
12 1 2.99402 0.638604 28.7283
13 1 4.49064 3.94464 26.1561
14 1 2.11248 1.85202 26.5058
15 1 4.38307 0.697015 26.2631
16 2 6.49636 4.14889 16.0663
17 2 4.39944 3.489 17.7786
18 2 5.86822 1.19126 15.3691
19 2 2.40148 1.75269 17.8237
20 2 3.05065 0.603133 10.0714
21 2 3.52298 2.60882 15.2666
22 2 4.37244 1.61033 12.9136
23 2 1.6014 0.562752 12.9968
24 2 4.30209 2.67215 7.57773
25 2 1.29456 1.13095 7.5812
26 2 2.95345 3.62441 10.6862
27 2 6.72325 3.29183 13.4982
28 2 5.72602 2.53317 10.8559
29 2 6.64497 4.02441 7.72201
30 2 4.89116 0.718728 5.28533
31 2 2.5772 2.16401 5.34073
32 2 3.55427 3.7263 2.86424
33 2 6.27584 2.34516 2.77932
34 2 3.69264 0.576211 2.92923
35 2 5.26137 3.22606 5.07105
ITEM: TIMESTEP
8000
ITEM: NUMBER OF ATOMS
35
ITEM: BOX BOUNDS xy xz yz pp pp pp
0.0000000000000000e+00 7.6685730000000003e+00 2.5561910000000001e+00
0.0000000000000000e+00 4.4274529999999999e+00 0.0000000000000000e+00
0.0000000000000000e+00 3.5699264999999997e+01 0.0000000000000000e+00
ITEM: ATOMS id type x y z
1 1 0.860379 0.142686 33.2368
2 1 2.11713 2.4993 32.9075
3 1 3.41152 0.166339 32.5793
4 1 5.9054 3.07742 30.6709
5 1 4.72225 2.45971 32.717
6 1 2.1851 0.719374 30.7198
7 1 4.77314 0.884621 30.5796
8 1 3.22661 2.97596 30.7191
9 1 0.597817 0.0699491 28.2119
10 1 1.8424 2.34703 28.8774
11 1 4.39405 2.49799 28.5407
12 1 3.01875 0.471865 28.2506
13 1 5.15203 3.82867 25.9806
14 1 1.36797 2.18718 26.6001
15 1 4.24155 0.984127 26.3946
16 2 6.56554 4.40066 16.4298
17 2 4.35811 3.47686 17.2767
18 2 1.37586 1.14598 15.5154
19 2 2.08228 2.02163 17.6574
20 2 3.26974 1.18378 9.98909
21 2 3.68031 2.51022 15.0896
22 2 4.00358 1.55546 12.7806
23 2 1.82124 0.286075 12.7964
24 2 3.91985 2.94825 8.142
25 2 1.36134 1.1763 8.03108
26 2 3.04515 3.76236 10.691
27 2 6.44582 3.42122 13.5916
28 2 5.69977 2.06865 10.5615
29 2 6.61776 3.9278 7.28277
30 2 5.23639 0.879491 5.3127
31 2 2.49272 1.75733 5.11903
32 2 3.78779 3.57699 2.86023
33 2 1.26038 1.75649 2.88057
34 2 3.65736 0.328309 2.95789
35 2 4.74703 3.7693 5.37502
ITEM: TIMESTEP
8100
ITEM: NUMBER OF ATOMS
35
ITEM: BOX BOUNDS xy xz yz pp pp pp
0.0000000000000000e+00 7.6685730000000003e+00 2.5561910000000001e+00
0.0000000000000000e+00 4.4274529999999999e+00 0.0000000000000000e+00
0.0000000000000000e+00 3.5699264999999997e+01 0.0000000000000000e+00
ITEM: ATOMS id type x y z
1 1 0.770501 0.389692 32.9379
2 1 2.09791 2.30614 32.9486
3 1 3.52161 0.369152 32.7304
4 1 6.10367 3.18201 30.7398
5 1 4.68788 2.47495 33.0762
6 1 2.28362 0.917074 30.6489
7 1 4.55203 0.848541 30.5058
8 1 3.39569 3.30561 31.0309
9 1 0.5494 0.270062 28.078
10 1 2.1075 1.99533 28.5199
11 1 4.20698 2.48058 28.6743
12 1 5.92375 4.06183 28.5925
13 1 4.33906 3.91722 26.4995
14 1 1.62893 1.72554 26.1573
15 1 4.08965 1.621 26.2096
16 2 4.22003 0.318652 16.5182
17 2 4.44387 3.24855 17.4659
18 2 1.41886 1.02769 14.855
19 2 1.80049 2.23954 17.7905
20 2 3.20477 0.538113 9.98387
21 2 3.99059 2.50335 14.8916
22 2 4.04176 1.66833 12.3624
23 2 1.55642 -0.0164351 12.5497
24 2 3.88338 2.72743 8.17001
25 2 1.26042 1.31581 7.99375
26 2 2.895 4.0014 10.3524
27 2 6.65399 3.4301 13.719
28 2 5.91934 2.67002 10.5227
29 2 6.50397 4.0503 7.64695
30 2 5.01269 0.989384 5.32051
31 2 2.4781 2.54113 5.44916
32 2 3.72034 2.8254 3.01992
33 2 1.03197 1.65651 2.85164
34 2 3.96634 0.113595 3.04495
35 2 4.90956 3.63293 5.70475
ITEM: TIMESTEP
8200
ITEM: NUMBER OF ATOMS
35
ITEM: BOX BOUNDS xy xz yz pp pp pp
0.0000000000000000e+00 7.6685730000000003e+00 2.5561910000000001e+00
0.0000000000000000e+00 4.4274529999999999e+00 0.0000000000000000e+00
0.0000000000000000e+00 3.5699264999999997e+01 0.0000000000000000e+00
ITEM: ATOMS id type x y z
1 1 0.895376 0.284317 32.675
2 1 2.29437 2.60346 32.928
3 1 3.39014 0.326237 32.9477
4 1 5.95726 3.24203 30.9976
5 1 4.705 2.54165 33.1332
6 1 2.23304 0.953532 30.6442
7 1 4.71533 0.781548 30.889
8 1 3.47182 3.07099 30.4692
9 1 0.467028 -0.0225259 28.5409
10 1 1.93484 2.32355 28.2379
11 1 4.65643 2.46612 28.5679
12 1 5.59099 4.57549 28.576
13 1 4.30722 3.83529 26.4318
14 1 1.55919 2.15038 25.9554
15 1 3.97414 0.848858 26.6931
16 2 4.51878 0.320392 16.5812
17 2 4.37064 3.3933 17.5562
18 2 1.58205 0.893156 14.9506
19 2 1.72186 1.98507 16.9504
20 2 2.60624 1.15574 9.97943
21 2 4.13124 2.6094 15.0602
22 2 3.8708 1.51002 12.3005
23 2 1.54892 0.135282 12.3964
24 2 4.06824 2.51874 7.88861
25 2 1.28175 1.20443 7.60013
26 2 3.13451 3.91512 9.94703
27 2 6.81939 3.68046 13.5532
28 2 5.9981 2.46209 11.0181
29 2 6.58909 4.25743 8.0321
30 2 4.81233 1.03589 5.45203
31 2 2.21715 2.44075 5.60535
32 2 3.68778 2.64805 3.39213
33 2 1.26889 1.41292 3.26075
34 2 3.67694 -0.327624 3.18862
35 2 5.04442 4.19036 5.38138
ITEM: TIMESTEP
8300
ITEM: NUMBER OF ATOMS
35
ITEM: BOX BOUNDS xy xz yz pp pp pp
0.0000000000000000e+00 7.6685730000000003e+00 2.5561910000000001e+00
0.0000000000000000e+00 4.4274529999999999e+00 0.0000000000000000e+00
0.0000000000000000e+00 3.5699264999999997e+01 0.0000000000000000e+00
ITEM: ATOMS id type x y z
1 1 1.056 0.219024 33.1788
2 1 2.15441 2.70093 32.8069
3 1 3.58093 0.283782 32.9451
4 1 5.71608 3.1184 30.3874
5 1 4.89431 2.50473 32.6187
6 1 1.78861 0.849557 31.0965
7 1 4.6153 0.961671 30.6382
8 1 3.3521 3.09851 30.8783
9 1 3.34915 4.75909 28.6558
10 1 1.9314 2.68318 28.6295
11 1 4.52155 2.14058 28.2264
12 1 3.20256 0.372332 28.6344
13 1 4.3426 4.021 26.6741
14 1 0.952599 2.32843 26.2193
15 1 4.58741 0.0571556 26.4389
16 2 4.3563 0.250702 16.4983
17 2 4.28038 3.76565 17.3879
18 2 2.02222 0.620176 14.5713
19 2 1.86199 2.15826 16.8715
20 2 3.22929 1.3892 9.89974
21 2 4.39507 2.38892 15.0451
22 2 3.78185 1.72049 12.6282
23 2 1.37975 0.103509 12.1662
24 2 4.22416 2.624 7.61726
25 2 1.52274 0.995701 7.8957
26 2 2.97946 4.08684 10.1921
27 2 6.71231 3.29436 13.8114
28 2 5.59248 3.0518 10.9679
29 2 6.35396 3.72707 8.08792
30 2 4.64491 1.03997 5.43375
31 2 2.27157 2.89542 5.74526
32 2 3.75932 2.68653 3.39092
33 2 1.30773 0.908562 3.22293
34 2 6.26808 3.92582 2.92796
35 2 4.59939 4.19422 5.6131
ITEM: TIMESTEP
8400
ITEM: NUMBER OF ATOMS
35
ITEM: BOX BOUNDS xy xz yz pp pp pp
0.0000000000000000e+00 7.6685730000000003e+00 2.5561910000000001e+00
0.0000000000000000e+00 4.4274529999999999e+00 0.0000000000000000e+00
0.0000000000000000e+00 3.5699264999999997e+01 0.0000000000000000e+00
ITEM: ATOMS id type x y z
1 1 0.979146 0.0885822 33.5757
2 1 2.23275 2.23855 33.1219
3 1 3.72326 0.329975 32.7959
4 1 5.50864 2.89201 30.5244
5 1 4.76518 2.53944 32.6414
6 1 1.65509 1.03384 31.2002
7 1 4.09518 1.08422 30.3723
8 1 2.82582 3.36324 30.7435
9 1 0.86231 0.756823 29.0248
10 1 2.07625 2.51967 28.4532
11 1 4.59187 2.73766 28.27
12 1 3.4681 0.265004 28.3121
13 1 2.38335 0.160271 26.0947
14 1 5.98444 1.82877 26.7049
15 1 7.32568 3.9689 26.5888
16 2 4.24436 0.260283 16.5069
17 2 4.28814 3.79789 17.1943
18 2 2.11094 0.483262 14.9461
19 2 1.91027 2.12768 17.015
20 2 3.42597 1.67317 10.2708
21 2 4.66308 2.32874 14.9941
22 2 4.01981 1.93411 12.5865
23 2 1.04658 0.514537 12.6993
24 2 3.80163 2.0188 7.8186
25 2 1.28472 0.913642 8.06898
26 2 3.12484 4.28865 10.2906
27 2 6.89732 3.17596 13.8551
28 2 5.68741 3.1816 10.4148
29 2 6.60627 3.62693 7.92332
30 2 4.47571 1.40337 5.26759
31 2 1.81302 2.72747 5.42592
32 2 3.72238 2.30085 2.92741
33 2 1.21312 0.949351 2.97418
34 2 6.49597 3.78749 3.07221
35 2 4.75498 4.28562 5.58387
ITEM: TIMESTEP
8500
ITEM: NUMBER OF ATOMS
35
ITEM: BOX BOUNDS xy xz yz pp pp pp
0.0000000000000000e+00 7.6685730000000003e+00 2.5561910000000001e+00
0.0000000000000000e+00 4.4274529999999999e+00 0.0000000000000000e+00
0.0000000000000000e+00 3.5699264999999997e+01 0.0000000000000000e+00
ITEM: ATOMS id type x y z
1 1 0.939107 0.132838 33.3806
2 1 2.32734 2.26306 33.4684
3 1 6.07838 4.28789 32.7863
4 1 5.28567 3.59856 30.6138
5 1 4.76742 2.24207 32.9897
6 1 1.35037 1.04679 31.1431
7 1 3.70007 1.48341 31.0091
8 1 2.67394 3.40789 31.3165
9 1 0.506257 0.443783 28.6786
10 1 2.03849 2.71396 28.9109
11 1 4.65754 2.91055 28.0638
12 1 3.32201 0.861647 27.9978
13 1 3.2797 0.425063 25.7721
14 1 5.76983 1.38456 26.4655
15 1 3.08912 3.18106 26.2603
16 2 4.52162 0.281828 16.9148
17 2 4.25385 3.20329 17.6771
18 2 2.20073 0.560385 15.2322
19 2 1.81575 2.01235 17.2058
20 2 2.54431 1.49662 10.1873
21 2 4.86333 2.24284 15.3067
22 2 3.93923 2.23553 12.6428
23 2 1.45689 1.22997 12.8591
24 2 3.81529 2.09365 7.66812
25 2 1.2184 0.751714 7.85427
26 2 3.36261 4.19399 10.6397
27 2 7.05197 3.7747 13.6078
28 2 5.79906 3.09854 10.3079
29 2 6.41712 3.71399 7.39262
30 2 4.65542 1.52967 5.15953
31 2 2.22435 2.37307 5.06506
32 2 3.74178 2.12249 2.56758
33 2 1.18543 0.828476 2.91176
34 2 6.26364 3.91764 3.16669
35 2 4.30339 4.06644 5.31671
ITEM: TIMESTEP
8600
ITEM: NUMBER OF ATOMS
35
ITEM: BOX BOUNDS xy xz yz pp pp pp
0.0000000000000000e+00 7.6685730000000003e+00 2.5561910000000001e+00
0.0000000000000000e+00 4.4274529999999999e+00 0.0000000000000000e+00
0.0000000000000000e+00 3.5699264999999997e+01 0.0000000000000000e+00
ITEM: ATOMS id type x y z
1 1 3.40599 4.19547 33.551
2 1 2.25801 2.10947 33.2024
3 1 5.82729 4.29545 33.0999
4 1 4.66642 3.92098 30.3885
5 1 4.83024 1.99996 33.1387
6 1 1.16141 1.81569 31.2176
7 1 3.77149 1.25626 30.5847
8 1 2.50743 3.7868 31.3648
9 1 0.451683 0.52986 28.809
10 1 2.01835 3.06148 29.0955
11 1 5.04779 3.17339 27.9542
12 1 2.88633 1.02084 28.3697
13 1 3.94827 0.0304318 25.8334
14 1 1.08375 1.11103 26.336
15 1 3.23464 2.64649 26.3295
16 2 4.53315 0.0816474 17.2279
17 2 4.45869 2.90988 18.1109
18 2 2.41072 0.458058 15.3515
19 2 1.77681 1.80968 17.7119
20 2 3.04995 1.16141 9.82581
21 2 5.00122 2.26697 15.3408
22 2 4.43973 2.79197 12.5709
23 2 1.81348 1.64519 12.5747
24 2 3.86099 2.59331 7.80042
25 2 1.15949 0.721667 7.82985
26 2 2.37987 4.07315 10.3956
27 2 6.84912 4.51505 13.6652
28 2 5.15806 2.89989 10.1528
29 2 6.35899 3.69799 7.25145
30 2 4.96306 0.89632 5.20018
31 2 2.15022 2.25902 4.92338
32 2 3.71171 2.43436 2.5012
33 2 0.973438 0.595184 2.6101
34 2 6.02097 3.95945 3.24182
35 2 4.61014 3.90676 5.2503
ITEM: TIMESTEP
8700
ITEM: NUMBER OF ATOMS
35
ITEM: BOX BOUNDS xy xz yz pp pp pp
0.0000000000000000e+00 7.6685730000000003e+00 2.5561910000000001e+00
0.0000000000000000e+00 4.4274529999999999e+00 0.0000000000000000e+00
0.0000000000000000e+00 3.5699264999999997e+01 0.0000000000000000e+00
ITEM: ATOMS id type x y z
1 1 3.46737 4.24816 33.5077
2 1 2.07911 1.82213 33.2719
3 1 5.75757 4.0822 32.7635
4 1 4.85496 3.80799 30.3515
5 1 4.59773 1.9534 32.9038
6 1 6.02194 1.83669 30.81
7 1 3.43052 1.86484 30.8986
8 1 2.41258 4.13574 31.1608
9 1 5.63054 1.32288 28.6785
10 1 2.07116 3.21995 28.9252
11 1 4.75571 3.17442 27.9758
12 1 3.36073 0.864366 28.4912
13 1 6.58338 4.0167 26.8232
14 1 1.5052 0.58643 26.535
15 1 3.23138 2.57843 26.5752
16 2 7.05545 4.28726 17.0263
17 2 4.55042 2.99592 17.8596
18 2 1.98164 0.539881 15.4665
19 2 1.97796 1.37645 18.063
20 2 2.48321 1.01025 9.79364
21 2 5.29264 2.21302 15.4941
22 2 4.87647 3.65357 12.8048
23 2 1.82725 1.63134 12.248
24 2 3.63555 2.4747 7.2739
25 2 0.962956 1.22732 7.81931
26 2 2.60196 3.98254 10.7002
27 2 4.61714 0.425887 13.4931
28 2 4.99336 2.55179 9.89197
29 2 6.57232 3.82178 7.73897
30 2 4.67976 0.767408 5.25113
31 2 2.1591 1.93025 4.85155
32 2 3.63276 2.38515 2.86645
33 2 0.784003 0.912612 2.61584
34 2 6.17195 3.81141 2.72905
35 2 4.86611 3.63164 5.40999
ITEM: TIMESTEP
8800
ITEM: NUMBER OF ATOMS
35
ITEM: BOX BOUNDS xy xz yz pp pp pp
0.0000000000000000e+00 7.6685730000000003e+00 2.5561910000000001e+00
0.0000000000000000e+00 4.4274529999999999e+00 0.0000000000000000e+00
0.0000000000000000e+00 3.5699264999999997e+01 0.0000000000000000e+00
ITEM: ATOMS id type x y z
1 1 3.15107 3.90235 33.0138
2 1 1.97216 2.02951 33.134
3 1 5.70944 4.08383 32.9105
4 1 4.82776 4.31661 30.7386
5 1 4.51901 1.607 33.2137
6 1 5.95728 2.08306 30.9236
7 1 3.50717 2.23656 31.1939
8 1 4.88382 0.0494319 30.8145
9 1 1.02135 1.06248 28.5619
10 1 1.9695 3.13148 28.8109
11 1 4.74076 3.19875 28.4585
12 1 3.66852 1.23644 28.8955
13 1 6.56184 4.31081 26.7602
14 1 1.41381 0.127912 26.2552
15 1 3.18202 1.84251 26.3824
16 2 7.1428 4.13594 16.5635
17 2 4.43274 2.99738 17.6927
18 2 2.23725 0.551284 15.3793
19 2 2.08198 1.2076 17.9295
20 2 2.1403 0.892155 9.93562
21 2 5.44439 2.44246 15.1548
22 2 4.92277 3.76159 12.6963
23 2 1.92 2.27257 12.6938
24 2 3.28904 2.29627 7.31582
25 2 0.863728 1.09434 7.20083
26 2 2.73345 3.90132 10.8775
27 2 4.89673 0.468388 13.5645
28 2 5.02074 2.29762 10.1366
29 2 6.32974 4.19151 8.5088
30 2 4.67984 0.183782 5.05719
31 2 1.91043 1.9316 5.10797
32 2 3.6471 2.50536 2.99045
33 2 1.09336 1.09794 2.90762
34 2 6.0965 3.88775 2.51446
35 2 4.88061 3.46698 5.03132
ITEM: TIMESTEP
8900
ITEM: NUMBER OF ATOMS
35
ITEM: BOX BOUNDS xy xz yz pp pp pp
0.0000000000000000e+00 7.6685730000000003e+00 2.5561910000000001e+00
0.0000000000000000e+00 4.4274529999999999e+00 0.0000000000000000e+00
0.0000000000000000e+00 3.5699264999999997e+01 0.0000000000000000e+00
ITEM: ATOMS id type x y z
1 1 3.31418 3.80357 32.8176
2 1 1.83057 1.53394 33.1402
3 1 5.9833 3.8192 33.4685
4 1 1.86044 0.736908 30.7767
5 1 4.47576 1.81225 33.7321
6 1 5.96998 2.85123 31.0294
7 1 3.47784 2.46833 30.8999
8 1 4.46711 0.484494 31.0421
9 1 1.09489 0.809093 28.3469
10 1 2.73586 3.0968 29.0167
11 1 4.86456 2.99325 28.1726
12 1 3.55589 0.804712 28.6569
13 1 6.53981 3.86282 26.3783
14 1 4.03979 4.16785 26.2126
15 1 2.74282 2.1224 26.8226
16 2 2.48503 4.03988 16.2072
17 2 4.37007 2.53292 17.3174
18 2 2.92804 1.06107 15.2568
19 2 1.87472 1.51456 17.4647
20 2 2.18957 1.3468 10.2413
21 2 5.32427 2.69145 15.0859
22 2 4.64359 3.75885 12.4353
23 2 2.58502 2.2523 13.2209
24 2 3.55147 2.60952 8.13293
25 2 0.773938 0.791699 7.61706
26 2 7.28268 3.88292 10.6788
27 2 4.76042 0.488628 13.3813
28 2 4.58653 2.06635 10.5665
29 2 6.1471 3.7168 8.15698
30 2 4.76704 0.152951 4.98712
31 2 2.2189 1.73248 5.08145
32 2 3.5081 2.50992 2.67021
33 2 1.09441 0.933803 2.59237
34 2 6.09559 4.19665 2.69111
35 2 4.62364 3.25228 5.31646
ITEM: TIMESTEP
9000
ITEM: NUMBER OF ATOMS
35
ITEM: BOX BOUNDS xy xz yz pp pp pp
0.0000000000000000e+00 7.6685730000000003e+00 2.5561910000000001e+00
0.0000000000000000e+00 4.4274529999999999e+00 0.0000000000000000e+00
0.0000000000000000e+00 3.5699264999999997e+01 0.0000000000000000e+00
ITEM: ATOMS id type x y z
1 1 3.47729 4.12525 33.6042
2 1 2.15054 1.45283 32.7521
3 1 5.85111 3.81184 33.4139
4 1 1.84265 0.679813 30.5088
5 1 4.51724 1.79686 33.5606
6 1 5.86743 3.2119 31.0175
7 1 3.21531 2.83302 31.0194
8 1 4.74313 0.710714 31.4621
9 1 1.20276 0.490567 28.327
10 1 2.54421 2.86251 28.698
11 1 4.99793 2.88209 28.2748
12 1 3.56425 0.694247 28.9621
13 1 6.45743 4.15115 26.3795
14 1 3.67959 4.06103 26.2416
15 1 2.70597 1.75461 26.7567
16 2 3.05916 3.9785 15.687
17 2 4.3479 2.46856 17.5094
18 2 3.24089 0.99882 15.5217
19 2 1.57589 1.51773 17.3722
20 2 1.81535 0.745053 10.3684
21 2 5.35458 2.9361 14.6278
22 2 4.98301 4.29201 12.6486
23 2 2.55318 2.40971 12.7268
24 2 3.47527 2.47394 8.39407
25 2 0.73648 0.906006 8.1529
26 2 6.79612 3.85746 10.3643
27 2 4.94203 0.770498 12.9008
28 2 4.68313 2.21321 10.7869
29 2 6.07192 3.52801 7.47726
30 2 4.9336 0.464877 5.27152
31 2 2.36646 1.47712 5.32195
32 2 3.47011 2.53281 2.67217
33 2 0.756191 0.985161 2.52195
34 2 6.04729 3.94317 3.03475
35 2 4.64928 2.97986 5.57796
ITEM: TIMESTEP
9100
ITEM: NUMBER OF ATOMS
35
ITEM: BOX BOUNDS xy xz yz pp pp pp
0.0000000000000000e+00 7.6685730000000003e+00 2.5561910000000001e+00
0.0000000000000000e+00 4.4274529999999999e+00 0.0000000000000000e+00
0.0000000000000000e+00 3.5699264999999997e+01 0.0000000000000000e+00
ITEM: ATOMS id type x y z
1 1 3.38916 4.23017 34.1095
2 1 2.11182 1.8894 32.91
3 1 6.05807 3.98061 32.9671
4 1 2.1072 0.733671 30.5982
5 1 4.65361 1.83334 33.4654
6 1 5.66162 2.88149 30.6685
7 1 3.50284 3.09452 31.0547
8 1 4.54361 0.851495 31.5009
9 1 1.05367 0.510918 28.2277
10 1 2.04551 2.78017 28.9794
11 1 4.71681 2.76432 28.0762
12 1 3.94752 0.790155 29.1675
13 1 6.36995 4.08519 27.1615
14 1 3.91283 3.74688 26.1507
15 1 2.6171 1.48915 26.3913
16 2 3.44277 3.99715 15.0667
17 2 3.98368 2.93281 17.5547
18 2 3.38992 1.14437 15.3466
19 2 1.46624 1.3751 17.315
20 2 1.64672 0.31695 10.2214
21 2 6.03682 2.26021 15.0003
22 2 5.31386 4.49787 12.978
23 2 2.29831 2.9084 12.434
24 2 3.19095 1.98681 8.16613
25 2 0.718916 1.10211 7.6678
26 2 6.91272 3.769 9.90989
27 2 5.30163 0.956551 12.8243
28 2 4.51246 2.25093 10.7324
29 2 6.11621 4.00745 7.5261
30 2 4.89694 0.0233212 5.30214
31 2 2.1457 1.64837 5.54953
32 2 3.32469 2.4549 3.26419
33 2 0.678571 1.04245 3.10092
34 2 5.94958 3.66434 3.4063
35 2 4.57527 3.0893 5.41395
ITEM: TIMESTEP
9200
ITEM: NUMBER OF ATOMS
35
ITEM: BOX BOUNDS xy xz yz pp pp pp
0.0000000000000000e+00 7.6685730000000003e+00 2.5561910000000001e+00
0.0000000000000000e+00 4.4274529999999999e+00 0.0000000000000000e+00
0.0000000000000000e+00 3.5699264999999997e+01 0.0000000000000000e+00
ITEM: ATOMS id type x y z
1 1 3.18107 4.36079 33.1711
2 1 2.06382 1.86197 33.3284
3 1 5.7326 4.20365 32.9532
4 1 2.0548 0.797062 31.1564
5 1 4.553 2.08587 33.5653
6 1 5.7586 2.99824 30.7067
7 1 3.15003 2.9335 31.3696
8 1 4.72411 0.915804 31.2718
9 1 1.10078 0.621273 28.5155
10 1 2.38001 2.74703 28.9957
11 1 4.80967 2.47235 28.1148
12 1 3.63975 0.188415 29.1112
13 1 6.93474 4.094 26.7695
14 1 4.17351 3.62386 26.1001
15 1 2.32086 1.89015 26.7209
16 2 3.56024 3.80919 14.6148
17 2 3.80665 3.17732 17.0656
18 2 3.97747 1.0023 15.4418
19 2 1.17208 1.17538 17.7262
20 2 1.81547 0.768084 10.1545
21 2 6.50941 2.5878 15.2457
22 2 2.91497 -0.162311 12.8424
23 2 2.74779 2.66404 12.3856
24 2 3.35589 2.60379 7.96224
25 2 0.592099 1.08142 7.81362
26 2 6.85931 3.55917 9.99964
27 2 5.41204 1.47604 12.7783
28 2 4.26019 1.81064 10.2802
29 2 5.51189 4.0258 7.99063
30 2 4.42612 0.0505958 5.60209
31 2 2.12102 1.62602 5.53163
32 2 3.24758 2.19218 3.17956
33 2 0.88509 0.723511 3.4491
34 2 5.75292 3.9584 2.99841
35 2 4.45753 2.82502 5.57033
ITEM: TIMESTEP
9300
ITEM: NUMBER OF ATOMS
35
ITEM: BOX BOUNDS xy xz yz pp pp pp
0.0000000000000000e+00 7.6685730000000003e+00 2.5561910000000001e+00
0.0000000000000000e+00 4.4274529999999999e+00 0.0000000000000000e+00
0.0000000000000000e+00 3.5699264999999997e+01 0.0000000000000000e+00
ITEM: ATOMS id type x y z
1 1 0.719684 -0.107531 33.0612
2 1 1.80696 2.30608 33.6038
3 1 5.65684 4.27222 33.1457
4 1 1.73321 0.799974 31.1372
5 1 4.29312 2.22289 33.2267
6 1 5.80416 2.95914 30.8961
7 1 3.09375 2.95322 31.3379
8 1 4.46131 0.624297 30.6234
9 1 0.881274 0.0465838 28.9371
10 1 2.63786 2.46511 29.0349
11 1 5.49185 2.26637 28.3612
12 1 3.34886 0.427099 28.5863
13 1 7.20088 4.80999 26.6636
14 1 4.39986 3.82522 26.8493
15 1 2.38681 1.61758 26.7732
16 2 4.10517 4.32364 14.4992
17 2 3.73598 3.04411 16.8943
18 2 4.14817 0.761569 15.7482
19 2 1.04084 1.28921 17.4182
20 2 1.65403 0.535938 10.7028
21 2 6.40679 2.54441 15.3033
22 2 5.99362 4.26361 12.4837
23 2 3.14199 2.46657 12.6129
24 2 2.83637 2.91503 7.67481
25 2 5.46514 1.2261 7.99517
26 2 6.95832 3.29426 10.5158
27 2 5.56207 1.47485 12.7811
28 2 4.40142 2.01991 10.1631
29 2 5.50087 4.31645 8.15308
30 2 4.14657 0.0207949 5.66494
31 2 1.73194 1.43208 5.65823
32 2 3.33657 2.22762 2.81202
33 2 0.540789 0.529964 3.32288
34 2 5.82633 3.70695 2.98922
35 2 4.55814 2.94603 5.10321
ITEM: TIMESTEP
9400
ITEM: NUMBER OF ATOMS
35
ITEM: BOX BOUNDS xy xz yz pp pp pp
0.0000000000000000e+00 7.6685730000000003e+00 2.5561910000000001e+00
0.0000000000000000e+00 4.4274529999999999e+00 0.0000000000000000e+00
0.0000000000000000e+00 3.5699264999999997e+01 0.0000000000000000e+00
ITEM: ATOMS id type x y z
1 1 0.466106 0.110254 33.6751
2 1 1.83482 2.42272 33.002
3 1 3.13346 0.0541035 33.1151
4 1 1.74252 0.812415 31.159
5 1 4.45419 2.22131 32.9757
6 1 5.42758 2.96111 30.9156
7 1 3.02966 3.37095 31.2379
8 1 4.29785 0.740071 31.007
9 1 1.1131 -0.073599 29.197
10 1 2.62133 1.92653 29.0014
11 1 4.87424 2.05496 28.8281
12 1 3.83367 -0.329852 28.4583
13 1 5.2291 1.04507 26.6959
14 1 4.38166 3.28871 26.6998
15 1 2.26276 2.14728 26.6482
16 2 1.781 -0.184751 14.8245
17 2 3.69172 3.12845 16.9058
18 2 4.01293 0.864498 15.711
19 2 1.25853 1.2564 17.269
20 2 1.59456 0.163729 10.7687
21 2 6.52746 2.76916 14.9376
22 2 6.30585 4.22772 12.8707
23 2 3.33972 2.63763 13.3654
24 2 2.74662 2.81736 7.46899
25 2 5.32786 1.64446 7.91437
26 2 1.8379 3.18166 9.87088
27 2 5.8422 1.48456 12.8799
28 2 4.42418 2.00222 10.5173
29 2 5.35551 4.52217 8.01206
30 2 4.21519 0.229687 5.38105
31 2 1.60595 1.25424 5.25774
32 2 3.07802 1.92804 2.87603
33 2 0.463784 0.679811 2.95091
34 2 5.86473 3.31813 3.1205
35 2 4.18466 2.94478 5.46096
ITEM: TIMESTEP
9500
ITEM: NUMBER OF ATOMS
35
ITEM: BOX BOUNDS xy xz yz pp pp pp
0.0000000000000000e+00 7.6685730000000003e+00 2.5561910000000001e+00
0.0000000000000000e+00 4.4274529999999999e+00 0.0000000000000000e+00
0.0000000000000000e+00 3.5699264999999997e+01 0.0000000000000000e+00
ITEM: ATOMS id type x y z
1 1 2.98674 4.5871 33.4753
2 1 1.65751 2.26315 33.6029
3 1 3.11577 0.283018 33.2794
4 1 1.33982 1.031 31.3107
5 1 4.4074 2.32154 33.2607
6 1 5.67954 3.62559 30.6952
7 1 3.10282 3.28638 30.7708
8 1 4.08067 1.32921 31.3748
9 1 3.89271 3.58727 28.5873
10 1 2.07691 1.53833 29.0882
11 1 4.91148 1.63504 28.9825
12 1 6.35073 3.97361 28.5122
13 1 5.60865 0.723749 27.0068
14 1 4.73822 3.42119 26.5457
15 1 2.30262 2.56736 26.5708
16 2 4.10313 4.71642 14.9783
17 2 3.57418 3.06386 17.4945
18 2 4.49184 1.27524 15.6306
19 2 1.6121 1.41439 17.5462
20 2 1.80032 0.237405 10.5181
21 2 6.54647 2.97117 15.5535
22 2 6.29165 4.19777 12.4074
23 2 3.70705 2.27104 13.1059
24 2 2.80546 3.06962 7.6487
25 2 5.15414 1.49533 7.93799
26 2 6.51762 3.09114 9.88985
27 2 6.30018 1.58717 12.7172
28 2 4.23705 1.25626 10.4646
29 2 2.40182 0.356818 8.00787
30 2 4.26695 0.0953093 5.24365
31 2 1.62142 1.37458 5.27281
32 2 3.083 1.719 3.0222
33 2 0.530341 0.342104 2.5087
34 2 5.43915 3.29968 3.16966
35 2 4.12869 2.98679 5.08853
ITEM: TIMESTEP
9600
ITEM: NUMBER OF ATOMS
35
ITEM: BOX BOUNDS xy xz yz pp pp pp
0.0000000000000000e+00 7.6685730000000003e+00 2.5561910000000001e+00
0.0000000000000000e+00 4.4274529999999999e+00 0.0000000000000000e+00
0.0000000000000000e+00 3.5699264999999997e+01 0.0000000000000000e+00
ITEM: ATOMS id type x y z
1 1 0.208021 -0.0734147 33.0186
2 1 1.76381 2.48335 34.0361
3 1 2.80362 0.27881 33.3449
4 1 1.67341 1.77303 31.5305
5 1 4.19891 2.65533 33.7803
6 1 5.13154 3.43947 31.263
7 1 2.56251 3.72526 30.8556
8 1 3.78628 1.48866 31.289
9 1 3.73668 3.42776 28.2839
10 1 2.30377 1.51206 28.9595
11 1 5.24854 1.10695 29.2836
12 1 5.97423 3.81147 28.5205
13 1 0.600272 0.624276 26.6253
14 1 5.76739 3.42412 26.2308
15 1 2.6906 2.22613 26.5658
16 2 2.01063 0.292546 15.1516
17 2 3.92833 3.29459 17.7542
18 2 4.12748 1.86233 15.5542
19 2 1.75673 1.3253 17.9156
20 2 1.11783 -0.400688 10.2851
21 2 6.72978 3.4069 15.6997
22 2 6.52012 4.01048 12.9301
23 2 3.95305 2.81319 12.7898
24 2 2.67023 3.38751 7.92783
25 2 4.92268 1.60996 7.59205
26 2 6.46561 2.59983 10.2391
27 2 1.5048 1.09553 12.5669
28 2 3.77986 1.49343 10.0768
29 2 2.68079 0.26883 7.53626
30 2 6.73071 4.21105 5.10237
31 2 1.3531 1.57042 5.54653
32 2 3.12115 1.70384 2.73563
33 2 0.440108 -0.0882802 2.70659
34 2 5.67015 3.28991 2.43797
35 2 4.0639 3.01923 5.47402
ITEM: TIMESTEP
9700
ITEM: NUMBER OF ATOMS
35
ITEM: BOX BOUNDS xy xz yz pp pp pp
0.0000000000000000e+00 7.6685730000000003e+00 2.5561910000000001e+00
0.0000000000000000e+00 4.4274529999999999e+00 0.0000000000000000e+00
0.0000000000000000e+00 3.5699264999999997e+01 0.0000000000000000e+00
ITEM: ATOMS id type x y z
1 1 5.27704 0.196124 33.1931
2 1 1.45191 2.74014 33.9113
3 1 2.61531 0.298474 33.5291
4 1 1.09312 1.88681 31.5389
5 1 4.23014 2.35628 33.6134
6 1 4.57264 4.07743 31.3598
7 1 2.45556 3.78174 30.6267
8 1 3.7205 1.45204 31.3121
9 1 3.97907 3.66015 28.4482
10 1 2.75917 1.19094 29.2243
11 1 4.89695 1.5227 28.769
12 1 6.48503 3.17532 28.619
13 1 0.533342 1.06902 26.7397
14 1 6.02941 3.46712 26.5183
15 1 3.32133 1.19919 26.8334
16 2 1.7055 0.372475 15.3686
17 2 4.51626 3.2133 17.7155
18 2 4.36492 2.01059 15.2194
19 2 1.73837 1.76759 17.4899
20 2 3.34041 4.04699 10.1057
21 2 7.1863 3.46481 15.884
22 2 6.89191 4.31583 13.3835
23 2 4.21164 2.77792 12.6533
24 2 2.36214 3.19379 7.65863
25 2 5.19731 2.04794 7.84767
26 2 5.92414 2.42622 10.4676
27 2 1.42691 1.23891 12.7327
28 2 3.51422 0.707984 10.2961
29 2 2.70791 0.259394 7.49481
30 2 6.21234 4.3146 4.82659
31 2 1.46562 1.55105 4.96758
32 2 3.01643 1.59739 2.95122
33 2 3.28168 4.51663 3.12156
34 2 5.78022 2.86001 2.39715
35 2 3.86484 2.87761 5.21283
ITEM: TIMESTEP
9800
ITEM: NUMBER OF ATOMS
35
ITEM: BOX BOUNDS xy xz yz pp pp pp
0.0000000000000000e+00 7.6685730000000003e+00 2.5561910000000001e+00
0.0000000000000000e+00 4.4274529999999999e+00 0.0000000000000000e+00
0.0000000000000000e+00 3.5699264999999997e+01 0.0000000000000000e+00
ITEM: ATOMS id type x y z
1 1 0.175658 0.47558 33.055
2 1 6.44127 2.45564 33.4871
3 1 2.81864 0.614515 33.646
4 1 5.95005 1.89424 31.3002
5 1 4.05215 2.62905 33.539
6 1 4.82329 3.96251 31.4941
7 1 2.33009 4.06678 31.0947
8 1 3.35116 1.76535 31.3283
9 1 3.81632 3.52592 28.0998
10 1 2.40817 0.921587 29.4334
11 1 4.95938 1.29671 29.2747
12 1 6.72821 3.14645 28.8797
13 1 1.15845 0.725925 26.5681
14 1 6.00607 3.24057 26.341
15 1 3.3662 1.52054 27.4326
16 2 2.10172 0.398725 15.1521
17 2 4.83253 3.31695 17.4196
18 2 4.78395 2.03735 15.0771
19 2 1.73347 1.49509 17.6292
20 2 3.37067 3.95659 10.1098
21 2 7.13301 3.77687 15.9297
22 2 6.80801 4.2396 12.9685
23 2 4.09877 2.79083 12.4762
24 2 2.5568 3.28693 7.45973
25 2 4.88329 1.70351 8.02481
26 2 5.74513 2.27315 10.4158
27 2 1.87245 1.77415 13.0212
28 2 3.21933 0.676477 10.5339
29 2 2.26408 0.568212 7.64858
30 2 6.16434 4.34096 5.02471
31 2 1.08697 1.63673 5.38147
32 2 3.31142 1.54676 2.50308
33 2 0.753292 -0.148413 2.79861
34 2 5.64748 2.71606 2.78612
35 2 3.83809 2.68807 5.17526
ITEM: TIMESTEP
9900
ITEM: NUMBER OF ATOMS
35
ITEM: BOX BOUNDS xy xz yz pp pp pp
0.0000000000000000e+00 7.6685730000000003e+00 2.5561910000000001e+00
0.0000000000000000e+00 4.4274529999999999e+00 0.0000000000000000e+00
0.0000000000000000e+00 3.5699264999999997e+01 0.0000000000000000e+00
ITEM: ATOMS id type x y z
1 1 0.29433 0.873955 33.6648
2 1 6.95433 3.11219 33.2516
3 1 2.7545 0.703486 33.6155
4 1 6.00187 1.60159 31.0913
5 1 4.00265 3.21373 34.0855
6 1 4.72936 3.89436 31.5869
7 1 1.9023 4.03268 31.1087
8 1 3.63648 1.91172 31.3697
9 1 3.77066 3.06864 28.4015
10 1 2.30542 0.895658 29.2524
11 1 4.83921 0.874492 28.7955
12 1 6.3433 3.11081 29.1989
13 1 1.09742 0.791799 26.7517
14 1 5.98342 3.2214 26.8363
15 1 3.6205 1.10106 26.7621
16 2 2.70265 0.481043 15.0105
17 2 4.60322 3.06824 17.4054
18 2 4.91804 2.02866 14.8946
19 2 2.00417 1.37149 17.2978
20 2 3.02231 3.65824 10.1375
21 2 7.44277 3.58525 16.0741
22 2 6.83773 4.66335 12.577
23 2 4.45345 3.50667 12.5357
24 2 2.04628 3.4798 7.68288
25 2 4.26915 1.7897 7.77398
26 2 5.99121 2.08317 10.3316
27 2 1.86586 1.68502 12.8624
28 2 3.33523 1.1772 10.3295
29 2 2.11464 0.218553 7.98946
30 2 6.28832 4.51938 5.19595
31 2 1.00784 1.17718 5.64429
32 2 3.34185 1.12588 2.33701
33 2 0.646513 -0.296469 2.72397
34 2 5.89979 2.79449 3.2295
35 2 3.46621 2.89941 5.22181
ITEM: TIMESTEP
10000
ITEM: NUMBER OF ATOMS
35
ITEM: BOX BOUNDS xy xz yz pp pp pp
0.0000000000000000e+00 7.6685730000000003e+00 2.5561910000000001e+00
0.0000000000000000e+00 4.4274529999999999e+00 0.0000000000000000e+00
0.0000000000000000e+00 3.5699264999999997e+01 0.0000000000000000e+00
ITEM: ATOMS id type x y z
1 1 5.47595 1.30994 33.6905
2 1 1.68141 3.55844 33.4659
3 1 3.05426 1.12884 33.5855
4 1 5.88628 2.02969 31.5703
5 1 4.22549 3.38099 33.9991
6 1 4.71447 3.99229 31.369
7 1 7.51135 3.96779 31.0777
8 1 3.212 1.87085 31.2338
9 1 3.33395 2.89925 28.4316
10 1 2.43792 0.298833 28.9866
11 1 4.89221 0.669114 29.2296
12 1 5.70992 2.71201 29.4304
13 1 1.30165 0.305644 27.0176
14 1 5.99723 3.06856 27.0974
15 1 3.75544 1.37534 26.535
16 2 2.84836 0.33961 14.8726
17 2 4.58459 2.30961 17.2998
18 2 5.17927 1.97834 14.8937
19 2 2.15968 1.32072 17.1655
20 2 3.10125 3.98226 10.3962
21 2 2.79689 3.76901 15.5001
22 2 4.85628 0.544726 12.7314
23 2 4.66739 3.7006 12.4892
24 2 1.44263 2.92848 7.82303
25 2 4.10292 1.9268 7.50599
26 2 5.55344 2.54971 10.1744
27 2 1.93402 2.36678 12.6581
28 2 3.31215 0.810667 9.96431
29 2 1.56714 0.180804 8.11208
30 2 3.48102 0.170805 5.24493
31 2 1.21514 1.23501 5.65281
32 2 3.20844 0.913467 2.92027
33 2 3.37263 4.23036 2.93767
34 2 5.98471 2.39144 3.42176
35 2 3.27642 2.88337 5.15826
ITEM: TIMESTEP
10100
ITEM: NUMBER OF ATOMS
35
ITEM: BOX BOUNDS xy xz yz pp pp pp
0.0000000000000000e+00 7.6685730000000003e+00 2.5561910000000001e+00
0.0000000000000000e+00 4.4274529999999999e+00 0.0000000000000000e+00
0.0000000000000000e+00 3.5699264999999997e+01 0.0000000000000000e+00
ITEM: ATOMS id type x y z
1 1 5.43424 1.31532 34.2958
2 1 6.60591 3.39804 33.8228
3 1 2.96918 1.68301 33.2826
4 1 6.09798 1.78165 31.8678
5 1 4.30607 3.45808 33.4174
6 1 4.80657 4.35511 31.2541
7 1 7.35765 4.14703 31.5491
8 1 3.77912 1.78375 30.791
9 1 3.09954 2.76561 28.9142
10 1 1.86955 0.665965 29.0705
11 1 4.53874 0.151445 28.8149
12 1 5.87369 2.64783 29.6462
13 1 1.37656 0.0975452 26.6567
14 1 6.10282 3.1728 27.248
15 1 3.92967 1.29751 27.0217
16 2 3.00486 0.57174 14.8104
17 2 4.61271 1.79408 17.2351
18 2 5.8499 2.23874 14.8256
19 2 2.0279 1.07785 17.0882
20 2 2.99836 3.94608 10.3422
21 2 3.06347 3.5998 15.034
22 2 4.9443 1.12978 12.6671
23 2 4.89197 3.72291 12.6317
24 2 6.68955 3.12046 7.89103
25 2 3.75174 1.41179 7.62448
26 2 5.44148 2.49879 10.1843
27 2 2.47682 2.5158 12.6179
28 2 2.84924 1.09819 10.1201
29 2 0.932397 0.127399 7.90675
30 2 3.53208 -0.432 5.5839
31 2 0.768357 1.42273 5.46019
32 2 3.32073 1.19957 3.19377
33 2 3.38326 3.99628 2.98146
34 2 5.69092 2.51255 3.10362
35 2 3.58102 2.92629 5.2926
ITEM: TIMESTEP
10200
ITEM: NUMBER OF ATOMS
35
ITEM: BOX BOUNDS xy xz yz pp pp pp
0.0000000000000000e+00 7.6685730000000003e+00 2.5561910000000001e+00
0.0000000000000000e+00 4.4274529999999999e+00 0.0000000000000000e+00
0.0000000000000000e+00 3.5699264999999997e+01 0.0000000000000000e+00
ITEM: ATOMS id type x y z
1 1 5.12133 1.39851 34.3522
2 1 6.83323 3.64047 34.1309
3 1 3.13149 0.83561 33.1872
4 1 6.14119 1.94575 32.3493
5 1 4.12458 3.57459 33.3211
6 1 4.89644 4.45679 31.0636
7 1 2.38488 3.83236 31.7086
8 1 3.88336 2.13465 31.2448
9 1 3.49283 2.76244 28.6656
10 1 1.69803 0.749517 28.9308
11 1 4.18563 0.627707 29.3973
12 1 6.02242 2.71489 29.5082
13 1 3.60627 4.24743 26.7403
14 1 6.02317 2.82951 27.269
15 1 3.90603 1.54762 26.729
16 2 3.81069 1.01571 14.8258
17 2 4.40383 1.67933 17.0612
18 2 6.14289 2.23724 14.9612
19 2 1.82628 0.569987 17.1005
20 2 2.40295 3.9394 10.215
21 2 3.58344 3.70976 15.2431
22 2 5.12678 1.02845 12.4772
23 2 5.21052 4.22185 12.5311
24 2 6.12944 2.9653 7.92629
25 2 3.60972 1.53596 7.97144
26 2 5.01443 2.25026 10.2179
27 2 2.61571 2.48251 12.5944
28 2 2.49718 1.04412 10.3858
29 2 4.10061 4.38778 7.72179
30 2 6.02776 4.07933 5.28588
31 2 0.784501 1.04184 5.10675
32 2 3.29808 1.2408 3.37038
33 2 3.11226 4.07086 2.95461
34 2 5.79528 3.02007 2.60731
35 2 3.48032 2.76059 5.70516
ITEM: TIMESTEP
10300
ITEM: NUMBER OF ATOMS
35
ITEM: BOX BOUNDS xy xz yz pp pp pp
0.0000000000000000e+00 7.6685730000000003e+00 2.5561910000000001e+00
0.0000000000000000e+00 4.4274529999999999e+00 0.0000000000000000e+00
0.0000000000000000e+00 3.5699264999999997e+01 0.0000000000000000e+00
ITEM: ATOMS id type x y z
1 1 5.27359 1.52321 34.5354
2 1 1.99623 2.68971 34.6119
3 1 3.04535 0.882363 33.558
4 1 6.23993 2.11908 32.0752
5 1 4.06201 3.4352 33.3342
6 1 2.12786 0.17352 31.2639
7 1 7.26532 4.56598 31.64
8 1 3.71336 2.24709 31.2155
9 1 3.1258 3.05242 29.0589
10 1 2.15998 0.783585 28.4168
11 1 4.74697 0.876316 29.0392
12 1 5.96435 2.79811 29.9454
13 1 3.04616 3.98187 26.691
14 1 6.12051 2.72016 27.3089
15 1 3.85868 1.19976 27.1392
16 2 3.99766 0.607122 14.8269
17 2 4.38265 1.89608 17.2524
18 2 6.54457 2.39197 15.333
19 2 2.05908 0.360241 17.4833
20 2 7.09493 3.72973 9.92403
21 2 3.91051 3.84059 14.8851
22 2 5.71978 1.02794 12.5441
23 2 5.30014 3.8888 12.7951
24 2 6.37551 2.69731 7.4579
25 2 4.01568 1.40801 8.04852
26 2 4.53467 2.60423 10.5303
27 2 2.59767 2.81851 12.7148
28 2 1.89163 0.696615 9.99438
29 2 1.12567 0.103703 7.66535
30 2 5.91992 4.06246 5.18838
31 2 0.894272 1.29862 5.24152
32 2 3.09164 1.62221 2.91481
33 2 3.19429 4.34861 2.90091
34 2 5.70617 2.9596 2.61646
35 2 3.22463 2.42885 5.51162
ITEM: TIMESTEP
10400
ITEM: NUMBER OF ATOMS
35
ITEM: BOX BOUNDS xy xz yz pp pp pp
0.0000000000000000e+00 7.6685730000000003e+00 2.5561910000000001e+00
0.0000000000000000e+00 4.4274529999999999e+00 0.0000000000000000e+00
0.0000000000000000e+00 3.5699264999999997e+01 0.0000000000000000e+00
ITEM: ATOMS id type x y z
1 1 5.18819 0.765049 34.386
2 1 2.26988 2.78226 35.1512
3 1 2.86164 0.751815 33.3546
4 1 6.28623 2.78758 32.8529
5 1 4.01717 3.32226 33.5053
6 1 1.79884 0.441968 30.9203
7 1 5.06255 0.369812 32.11
8 1 3.17935 2.21007 31.4638
9 1 3.27746 2.70072 29.1603
10 1 2.33594 0.388179 28.4736
11 1 4.89549 0.79763 29.5491
12 1 6.0147 3.38648 30.0684
13 1 3.03575 3.86549 27.2046
14 1 5.80239 2.67736 27.5376
15 1 3.93324 1.60745 26.6841
16 2 3.92881 0.710274 15.161
17 2 4.46236 2.19673 17.2216
18 2 1.80488 2.32457 16.0921
19 2 2.53173 0.188083 17.3892
20 2 6.7217 3.62232 10.1392
21 2 4.07358 3.73961 15.1487
22 2 5.65357 1.02878 12.4359
23 2 5.77711 3.92468 12.6007
24 2 6.37783 2.81959 7.4499
25 2 3.76883 1.2222 8.00949
26 2 4.13883 2.53696 10.3222
27 2 3.14249 2.38399 12.7825
28 2 1.43965 1.08814 9.90991
29 2 3.77144 3.84127 7.18614
30 2 5.80209 4.39204 4.97071
31 2 5.51927 1.37274 5.11705
32 2 3.03016 1.68939 2.39705
33 2 0.774348 0.125155 2.82566
34 2 5.56068 2.77069 2.84574
35 2 3.38286 2.73209 4.91501
ITEM: TIMESTEP
10500
ITEM: NUMBER OF ATOMS
35
ITEM: BOX BOUNDS xy xz yz pp pp pp
0.0000000000000000e+00 7.6685730000000003e+00 2.5561910000000001e+00
0.0000000000000000e+00 4.4274529999999999e+00 0.0000000000000000e+00
0.0000000000000000e+00 3.5699264999999997e+01 0.0000000000000000e+00
ITEM: ATOMS id type x y z
1 1 5.3298 0.687055 34.9061
2 1 2.07328 2.86915 0.514627
3 1 2.20522 0.819977 33.4098
4 1 6.26795 3.02639 33.4862
5 1 3.84257 2.55943 34.1361
6 1 2.13059 0.596512 30.5414
7 1 4.53437 0.630575 32.2612
8 1 3.70798 2.7943 31.6437
9 1 3.32284 2.8454 29.098
10 1 2.47987 0.226075 28.3184
11 1 4.84078 0.614224 29.669
12 1 6.27639 2.86084 31.0029
13 1 2.70113 4.43849 27.528
14 1 6.12919 2.43618 28.1781
15 1 3.70049 1.77914 26.8984
16 2 4.39337 0.664441 15.0488
17 2 4.76977 2.00809 17.7266
18 2 1.80921 2.50078 16.1299
19 2 2.97146 0.273902 17.6133
20 2 6.67903 4.11779 10.1883
21 2 4.20141 3.87542 15.0606
22 2 0.695716 0.586699 12.4855
23 2 5.57776 4.00838 12.7025
24 2 6.31809 2.37064 7.567
25 2 3.45433 0.897662 7.41082
26 2 3.88663 2.52033 9.82936
27 2 3.26311 2.30163 13.0933
28 2 1.36335 0.982946 9.81033
29 2 3.87001 3.86578 7.16232
30 2 3.01527 0.26517 4.90407
31 2 5.59057 1.41262 5.27653
32 2 3.18207 1.33303 2.05401
33 2 0.529075 0.0587594 2.07685
34 2 5.77028 3.034 2.58528
35 2 2.79934 3.08807 4.48423
ITEM: TIMESTEP
10600
ITEM: NUMBER OF ATOMS
35
ITEM: BOX BOUNDS xy xz yz pp pp pp
0.0000000000000000e+00 7.6685730000000003e+00 2.5561910000000001e+00
0.0000000000000000e+00 4.4274529999999999e+00 0.0000000000000000e+00
0.0000000000000000e+00 3.5699264999999997e+01 0.0000000000000000e+00
ITEM: ATOMS id type x y z
1 1 5.31915 0.822866 35.0487
2 1 6.38998 2.8023 0.193851
3 1 1.6437 0.683826 33.2658
4 1 6.12178 3.30226 33.4639
5 1 3.42328 2.33207 34.9942
6 1 2.70977 0.759451 30.7946
7 1 4.41372 0.881322 32.6822
8 1 3.70004 3.38176 31.9226
9 1 3.62816 2.92308 29.7278
10 1 5.19612 4.19002 28.1078
11 1 4.9357 0.705849 30.1292
12 1 6.34992 2.35251 31.4568
13 1 4.8868 0.343007 27.5402
14 1 6.43573 1.95544 29.0719
15 1 3.41974 2.54207 27.4597
16 2 4.70795 0.921086 15.1878
17 2 5.29963 1.89086 17.6648
18 2 2.00761 2.47104 15.8031
19 2 2.91189 0.253922 17.6087
20 2 6.62739 4.22377 9.79534
21 2 4.74064 4.10425 15.3845
22 2 0.476792 0.780553 12.3128
23 2 5.4808 3.19299 12.7354
24 2 1.40984 2.34284 7.68548
25 2 3.77744 0.751054 6.93559
26 2 3.98377 2.62877 10.0198
27 2 2.64102 2.36082 12.9573
28 2 1.73552 0.883985 9.9899
29 2 3.40997 3.89183 7.26288
30 2 2.50158 0.184444 4.39809
31 2 5.30517 1.66009 4.84323
32 2 3.38995 1.26419 1.99587
33 2 0.894584 0.161475 1.95412
34 2 5.56877 2.81728 2.539
35 2 2.57635 3.10198 4.63755
ITEM: TIMESTEP
10700
ITEM: NUMBER OF ATOMS
35
ITEM: BOX BOUNDS xy xz yz pp pp pp
0.0000000000000000e+00 7.6685730000000003e+00 2.5561910000000001e+00
0.0000000000000000e+00 4.4274529999999999e+00 0.0000000000000000e+00
0.0000000000000000e+00 3.5699264999999997e+01 0.0000000000000000e+00
ITEM: ATOMS id type x y z
1 1 5.00812 0.484843 35.493
2 1 5.69361 3.39858 -0.048883
3 1 2.13873 1.44413 33.555
4 1 5.51654 3.63794 33.4973
5 1 3.3642 2.68222 35.3023
6 1 2.76433 0.197965 30.834
7 1 4.6346 1.46132 32.8353
8 1 2.80281 3.52856 32.9611
9 1 4.26077 2.54492 30.2872
10 1 5.29478 4.1094 28.5171
11 1 5.17388 0.0323191 30.6145
12 1 6.26708 2.41809 31.0548
13 1 4.89889 0.907557 28.2573
14 1 1.53379 2.02327 28.9654
15 1 3.39951 2.89416 27.8275
16 2 4.75497 1.21832 14.7359
17 2 5.61529 1.70173 17.1755
18 2 2.46859 2.60567 15.5573
19 2 3.10705 0.460211 17.6662
20 2 6.92046 3.86803 9.63164
21 2 4.63948 4.10793 15.039
22 2 4.9334 0.17478 12.2722
23 2 5.22715 3.55926 12.5798
24 2 6.05541 2.20592 7.49786
25 2 3.5744 0.979977 7.10697
26 2 4.32649 2.53934 10.1307
27 2 2.83178 1.87961 12.9708
28 2 1.93484 1.23368 10.2934
29 2 4.08905 3.83886 7.28847
30 2 2.20751 0.374588 4.44594
31 2 4.65333 1.67672 4.79136
32 2 3.24349 1.55025 1.83803
33 2 3.50757 4.08873 2.01313
34 2 5.87818 2.46267 2.48294
35 2 2.50835 3.1607 4.75645
ITEM: TIMESTEP
10800
ITEM: NUMBER OF ATOMS
35
ITEM: BOX BOUNDS xy xz yz pp pp pp
0.0000000000000000e+00 7.6685730000000003e+00 2.5561910000000001e+00
0.0000000000000000e+00 4.4274529999999999e+00 0.0000000000000000e+00
0.0000000000000000e+00 3.5699264999999997e+01 0.0000000000000000e+00
ITEM: ATOMS id type x y z
1 1 5.26786 1.27869 35.72
2 1 5.47491 3.80623 35.8978
3 1 1.66095 1.63403 33.9928
4 1 5.04346 3.92982 33.4284
5 1 3.27613 2.6491 35.3827
6 1 2.62367 0.204759 31.2309
7 1 4.29067 1.80438 32.6048
8 1 2.63612 4.13847 33.673
9 1 3.9057 2.03641 30.4453
10 1 5.40524 4.05292 29.2219
11 1 0.492412 -0.151701 30.7965
12 1 6.82596 2.43449 31.7178
13 1 4.94011 0.913224 28.6745
14 1 1.88676 2.06284 29.0441
15 1 3.62554 3.31296 28.0137
16 2 4.93069 1.23482 14.2871
17 2 5.70674 1.57683 16.7477
18 2 2.46589 3.06446 15.7039
19 2 3.43685 0.530636 16.8243
20 2 7.16317 3.88483 9.27943
21 2 4.71974 4.2855 14.91
22 2 5.18759 -0.221744 11.9813
23 2 5.00641 3.30676 12.2458
24 2 6.18245 1.96284 7.24267
25 2 3.54947 1.17969 7.72692
26 2 4.60819 2.39766 9.92138
27 2 2.58209 1.71441 12.8986
28 2 1.93636 1.16119 10.4009
29 2 3.83207 3.76954 7.42884
30 2 2.12652 0.455405 4.82889
31 2 4.72311 1.68103 4.64564
32 2 3.25393 0.915676 2.00209
33 2 3.18094 3.97047 2.23624
34 2 6.13332 2.63254 2.42356
35 2 1.85091 3.36223 5.06628
ITEM: TIMESTEP
10900
ITEM: NUMBER OF ATOMS
35
ITEM: BOX BOUNDS xy xz yz pp pp pp
0.0000000000000000e+00 7.6685730000000003e+00 2.5561910000000001e+00
0.0000000000000000e+00 4.4274529999999999e+00 0.0000000000000000e+00
0.0000000000000000e+00 3.5699264999999997e+01 0.0000000000000000e+00
ITEM: ATOMS id type x y z
1 1 5.61009 0.91576 0.619398
2 1 5.99547 4.06484 0.561316
3 1 1.32634 1.96433 33.9392
4 1 4.67268 3.75412 33.6904
5 1 2.88774 2.51732 36.5054
6 1 2.77617 0.346239 31.4782
7 1 3.51128 2.04623 33.205
8 1 2.27954 4.31765 33.6047
9 1 4.39641 2.57408 30.497
10 1 6.04519 4.04919 29.1099
11 1 2.68503 4.82883 31.0191
12 1 1.42571 2.57207 31.6513
13 1 5.04169 1.08887 28.3046
14 1 2.22057 1.63024 29.7705
15 1 3.584 3.11189 28.1925
16 2 4.93005 1.21231 14.1512
17 2 5.91025 1.79729 16.5511
18 2 2.69892 3.1136 15.3471
19 2 3.3933 0.644639 16.5747
20 2 7.05935 3.59726 9.3673
21 2 4.81664 3.95733 14.2168
22 2 2.58244 4.41988 11.7001
23 2 5.51161 2.84043 11.9797
24 2 5.99817 2.13702 7.37229
25 2 3.40446 0.880723 7.33227
26 2 4.5816 2.28533 9.64303
27 2 2.49474 1.89906 12.9695
28 2 2.19261 0.86981 9.98157
29 2 3.84599 3.73111 7.11947
30 2 1.85511 0.38579 4.89488
31 2 4.40154 2.02546 4.79864
32 2 3.47169 0.820996 2.73784
33 2 3.46313 4.01511 2.78972
34 2 5.71929 2.5054 2.61632
35 2 6.92163 3.71552 5.3575
ITEM: TIMESTEP
11000
ITEM: NUMBER OF ATOMS
35
ITEM: BOX BOUNDS xy xz yz pp pp pp
0.0000000000000000e+00 7.6685730000000003e+00 2.5561910000000001e+00
0.0000000000000000e+00 4.4274529999999999e+00 0.0000000000000000e+00
0.0000000000000000e+00 3.5699264999999997e+01 0.0000000000000000e+00
ITEM: ATOMS id type x y z
1 1 0.971213 0.178042 0.392051
2 1 5.94333 4.10687 0.436935
3 1 0.530665 2.13331 34.2797
4 1 4.65127 4.38019 34.0687
5 1 2.75326 2.04456 0.648893
6 1 2.83731 0.425609 31.8036
7 1 3.13943 2.11861 33.6236
8 1 7.11571 4.22565 33.61
9 1 3.89134 2.86483 31.1283
10 1 6.48445 3.71915 29.3021
11 1 5.36336 0.53474 31.191
12 1 6.69099 2.68657 31.7152
13 1 5.25503 1.60391 28.4493
14 1 2.27936 1.30217 29.0637
15 1 3.67678 3.45329 28.8375
16 2 4.99439 0.920284 14.2403
17 2 5.8361 1.98928 16.3408
18 2 2.97063 3.02261 15.2192
19 2 3.03868 0.556055 16.211
20 2 7.04158 3.44705 9.20648
21 2 5.40103 3.8866 13.9142
22 2 0.236594 0.234587 11.8582
23 2 5.67358 3.04058 11.5072
24 2 5.90988 1.8157 7.34851
25 2 3.31509 0.767685 7.25202
26 2 4.13758 2.14581 9.54503
27 2 2.93099 1.92377 12.581
28 2 2.18934 0.466964 9.8238
29 2 3.59841 3.6941 7.56217
30 2 1.62342 1.13641 5.01845
31 2 4.25617 2.4494 5.28385
32 2 3.51311 0.905618 3.03376
33 2 3.27358 3.81433 2.76847
34 2 5.93424 2.42473 2.87992
35 2 7.01264 3.63638 5.16873
ITEM: TIMESTEP
11100
ITEM: NUMBER OF ATOMS
35
ITEM: BOX BOUNDS xy xz yz pp pp pp
0.0000000000000000e+00 7.6685730000000003e+00 2.5561910000000001e+00
0.0000000000000000e+00 4.4274529999999999e+00 0.0000000000000000e+00
0.0000000000000000e+00 3.5699264999999997e+01 0.0000000000000000e+00
ITEM: ATOMS id type x y z
1 1 0.770263 0.441576 0.269061
2 1 6.11054 3.72918 0.454968
3 1 5.6272 2.31273 34.3456
4 1 1.62595 0.399846 33.5115
5 1 2.89726 1.81669 0.664587
6 1 2.76195 0.240185 31.4675
7 1 3.13483 2.44138 33.9039
8 1 6.73288 4.67716 33.786
9 1 3.95177 2.69306 31.7615
10 1 6.53787 3.22119 29.7786
11 1 5.27712 0.64004 31.1399
12 1 1.39301 2.61221 32.2613
13 1 5.14351 1.87062 29.0218
14 1 2.80943 1.50107 29.6005
15 1 3.81225 4.06658 29.5374
16 2 5.75319 1.22052 14.131
17 2 5.56125 2.19661 16.5311
18 2 3.19757 2.98272 15.2488
19 2 2.69633 0.323628 16.1471
20 2 6.65372 3.50172 9.3856
21 2 5.67585 3.81459 13.8557
22 2 0.492708 0.00526669 11.889
23 2 5.71247 2.97786 11.5701
24 2 5.83812 1.94618 7.54115
25 2 3.31527 0.644998 7.31976
26 2 4.19598 1.61422 9.90532
27 2 3.06174 1.87877 12.138
28 2 1.59891 0.489392 9.65847
29 2 3.57669 3.44948 7.3939
30 2 1.5575 0.978327 4.79872
31 2 4.53682 2.92729 4.95602
32 2 3.49181 0.854334 2.86555
33 2 3.33651 3.52915 2.75064
34 2 5.90074 2.30391 2.45212
35 2 6.88886 4.17772 5.18799
ITEM: TIMESTEP
11200
ITEM: NUMBER OF ATOMS
35
ITEM: BOX BOUNDS xy xz yz pp pp pp
0.0000000000000000e+00 7.6685730000000003e+00 2.5561910000000001e+00
0.0000000000000000e+00 4.4274529999999999e+00 0.0000000000000000e+00
0.0000000000000000e+00 3.5699264999999997e+01 0.0000000000000000e+00
ITEM: ATOMS id type x y z
1 1 0.826569 0.352292 0.302509
2 1 5.96011 4.26756 0.440109
3 1 5.23471 2.47761 34.5321
4 1 1.49295 0.332025 33.8909
5 1 3.23623 2.23282 0.59431
6 1 2.46056 0.483541 31.7593
7 1 2.67308 2.98151 34.2444
8 1 3.74519 0.634561 33.8491
9 1 3.88384 2.56235 31.74
10 1 6.74403 4.19401 29.8736
11 1 5.28394 0.590224 31.8658
12 1 6.50945 2.55827 31.922
13 1 5.49929 1.48155 29.2957
14 1 2.89591 1.66116 29.7087
15 1 4.27812 3.77439 29.5285
16 2 1.08793 1.42646 14.3809
17 2 5.29546 2.01299 16.7365
18 2 3.11168 3.00786 15.0663
19 2 2.71324 0.636435 16.5931
20 2 7.01144 3.27202 9.28442
21 2 5.97764 4.16581 14.2076
22 2 2.97604 4.12708 12.2629
23 2 5.52451 2.81671 11.7002
24 2 5.68044 1.96067 7.0301
25 2 3.07646 0.685305 7.23958
26 2 4.02643 1.69677 9.77139
27 2 3.00162 1.40304 12.5376
28 2 1.60535 0.461986 9.40299
29 2 3.25603 3.35669 7.06201
30 2 1.96972 1.47015 4.68006
31 2 4.63846 2.61668 4.75927
32 2 3.47097 0.333329 2.66461
33 2 3.32252 3.639 2.47433
34 2 5.74078 1.97743 2.16098
35 2 7.14595 4.35324 4.99356
ITEM: TIMESTEP
11300
ITEM: NUMBER OF ATOMS
35
ITEM: BOX BOUNDS xy xz yz pp pp pp
0.0000000000000000e+00 7.6685730000000003e+00 2.5561910000000001e+00
0.0000000000000000e+00 4.4274529999999999e+00 0.0000000000000000e+00
0.0000000000000000e+00 3.5699264999999997e+01 0.0000000000000000e+00
ITEM: ATOMS id type x y z
1 1 0.656958 0.0865431 0.244317
2 1 6.09756 3.71003 0.239825
3 1 4.68257 3.01656 34.2427
4 1 1.36426 0.788618 33.6597
5 1 3.23856 1.73873 0.326692
6 1 2.6598 0.644406 31.6224
7 1 2.08947 2.94691 33.6061
8 1 3.98118 0.772986 33.7659
9 1 3.85685 2.71231 32.062
10 1 6.99579 4.02713 29.2354
11 1 5.11219 0.345197 31.8107
12 1 6.25116 2.86299 31.5595
13 1 5.63378 1.52386 29.9687
14 1 3.25643 1.88578 29.5454
15 1 4.50045 3.81657 29.7646
16 2 0.783367 1.35777 14.2669
17 2 5.14908 1.80101 16.753
18 2 3.55434 3.11225 15.2883
19 2 2.64941 0.859404 17.0906
20 2 1.64557 3.08195 9.55551
21 2 6.1259 4.25388 14.9289
22 2 2.9752 4.08645 12.1631
23 2 5.55486 2.79275 11.9288
24 2 5.71823 1.95252 6.98801
25 2 3.04865 0.381851 7.00279
26 2 4.2443 1.7766 9.61939
27 2 2.93967 1.32699 12.1209
28 2 1.6305 0.205769 9.97449
29 2 3.14844 3.56406 7.04324
30 2 2.24452 1.60201 4.59635
31 2 4.78197 2.83273 4.54886
32 2 3.13145 0.285396 2.52319
33 2 3.30682 3.61164 2.56003
34 2 5.75526 2.00532 2.08928
35 2 7.2546 4.42578 4.63162
ITEM: TIMESTEP
11400
ITEM: NUMBER OF ATOMS
35
ITEM: BOX BOUNDS xy xz yz pp pp pp
0.0000000000000000e+00 7.6685730000000003e+00 2.5561910000000001e+00
0.0000000000000000e+00 4.4274529999999999e+00 0.0000000000000000e+00
0.0000000000000000e+00 3.5699264999999997e+01 0.0000000000000000e+00
ITEM: ATOMS id type x y z
1 1 0.680305 0.623041 35.6799
2 1 6.16263 3.03152 0.148165
3 1 4.8347 3.2578 34.0806
4 1 5.68946 1.52768 33.3159
5 1 3.01649 1.63945 35.597
6 1 2.42459 0.789043 31.6943
7 1 2.56432 3.12604 33.7419
8 1 3.61816 0.701643 33.5299
9 1 3.9961 2.80262 31.5966
10 1 7.12928 3.62879 28.9409
11 1 4.92882 0.347686 30.9546
12 1 6.33467 2.9575 31.5282
13 1 6.13221 1.85617 28.8702
14 1 3.37154 1.65593 29.3778
15 1 4.60649 3.89087 29.5243
16 2 0.930312 1.31348 14.4086
17 2 5.18078 1.627 16.9869
18 2 3.6432 3.09628 15.1224
19 2 2.41489 0.828338 17.3138
20 2 6.65031 3.24888 9.74625
21 2 6.16688 4.42229 15.1093
22 2 2.64074 4.00976 12.2458
23 2 5.31721 2.8614 12.3321
24 2 5.88127 1.94971 7.32246
25 2 3.2893 0.397592 7.15111
26 2 4.42772 1.42934 9.48079
27 2 3.20053 1.22651 12.0463
28 2 1.71675 0.126783 9.74243
29 2 3.23838 3.47024 7.50611
30 2 1.95719 1.32838 4.76136
31 2 4.98096 3.21093 4.82701
32 2 3.13666 0.66777 2.05588
33 2 3.07616 3.17478 1.99606
34 2 5.67497 1.80735 2.31982
35 2 4.674 0.355704 4.76917
ITEM: TIMESTEP
11500
ITEM: NUMBER OF ATOMS
35
ITEM: BOX BOUNDS xy xz yz pp pp pp
0.0000000000000000e+00 7.6685730000000003e+00 2.5561910000000001e+00
0.0000000000000000e+00 4.4274529999999999e+00 0.0000000000000000e+00
0.0000000000000000e+00 3.5699264999999997e+01 0.0000000000000000e+00
ITEM: ATOMS id type x y z
1 1 0.606929 0.667445 -0.0328306
2 1 5.95112 3.19278 0.163179
3 1 4.51201 3.84398 34.1114
4 1 1.03735 1.46473 32.9658
5 1 3.52468 1.87719 35.3304
6 1 2.17594 0.20336 30.8236
7 1 2.16011 3.4502 33.138
8 1 3.31295 1.04848 32.766
9 1 3.47764 2.58972 31.2925
10 1 2.44958 3.822 28.683
11 1 5.26831 1.47279 30.5757
12 1 6.55238 3.34899 30.5918
13 1 0.879056 1.43167 28.1753
14 1 3.22257 1.60613 28.8463
15 1 5.06842 3.64192 28.8248
16 2 1.53866 1.4072 14.8653
17 2 4.73568 1.88159 16.8815
18 2 3.5338 2.85588 14.9105
19 2 2.52195 0.35966 17.1189
20 2 7.01018 2.94977 10.1807
21 2 6.32229 4.3191 14.8257
22 2 2.68251 4.06825 12.6121
23 2 5.06622 2.99803 12.4962
24 2 6.0477 1.98787 7.47588
25 2 3.45782 0.541175 7.33483
26 2 4.24398 1.53317 9.90805
27 2 2.73891 1.24408 12.3784
28 2 1.86972 0.0971457 9.6111
29 2 3.36111 3.27969 7.31143
30 2 2.34918 1.92913 4.95437
31 2 4.42387 3.23148 4.86097
32 2 3.03719 0.204378 2.29056
33 2 3.10067 3.31427 1.95219
34 2 5.45456 1.59933 2.79296
35 2 4.6859 0.110223 4.80908
ITEM: TIMESTEP
11600
ITEM: NUMBER OF ATOMS
35
ITEM: BOX BOUNDS xy xz yz pp pp pp
0.0000000000000000e+00 7.6685730000000003e+00 2.5561910000000001e+00
0.0000000000000000e+00 4.4274529999999999e+00 0.0000000000000000e+00
0.0000000000000000e+00 3.5699264999999997e+01 0.0000000000000000e+00
ITEM: ATOMS id type x y z
1 1 0.470457 0.397855 0.298739
2 1 6.30588 2.98444 35.536
3 1 4.40245 3.76615 33.5046
4 1 0.388805 1.57436 33.2474
5 1 3.57063 1.95515 35.6584
6 1 1.96277 0.592138 30.2159
7 1 7.0338 3.63413 33.2142
8 1 3.28621 1.46459 32.8054
9 1 3.60565 2.85004 30.6241
10 1 2.64152 3.72244 27.8601
11 1 5.22425 1.67699 30.1349
12 1 6.51329 3.99153 30.4538
13 1 1.25399 1.38004 27.7486
14 1 3.68323 1.23277 28.4943
15 1 4.95482 3.54713 27.5867
16 2 1.23909 1.40625 15.0316
17 2 4.77382 1.82194 17.0313
18 2 3.99195 2.99565 14.6467
19 2 2.28921 -0.0241892 16.9242
20 2 1.96312 2.85491 10.2045
21 2 6.39716 4.08968 14.8266
22 2 2.61038 4.56167 12.4058
23 2 5.24703 2.73004 12.5502
24 2 5.84724 2.10959 7.51027
25 2 3.53026 0.415558 7.49107
26 2 4.58174 1.67609 10.4224
27 2 2.27778 1.31858 12.5358
28 2 1.93472 -0.123917 9.91119
29 2 3.45686 3.40978 7.38779
30 2 2.13211 1.64431 4.80266
31 2 4.85506 3.45113 4.82111
32 2 2.89439 0.143345 2.60272
33 2 3.03329 3.11291 2.29473
34 2 5.50643 1.70448 2.74249
35 2 4.51267 0.224392 5.03286
ITEM: TIMESTEP
11700
ITEM: NUMBER OF ATOMS
35
ITEM: BOX BOUNDS xy xz yz pp pp pp
0.0000000000000000e+00 7.6685730000000003e+00 2.5561910000000001e+00
0.0000000000000000e+00 4.4274529999999999e+00 0.0000000000000000e+00
0.0000000000000000e+00 3.5699264999999997e+01 0.0000000000000000e+00
ITEM: ATOMS id type x y z
1 1 0.808575 0.0187315 0.239839
2 1 6.217 2.8996 35.9186
3 1 4.35351 3.77933 32.4933
4 1 5.42246 1.45562 33.3515
5 1 3.57366 1.78155 0.0545171
6 1 2.33349 1.19983 29.924
7 1 6.69871 4.1389 33.1183
8 1 2.57179 1.52067 32.5169
9 1 3.44863 3.28265 30.5524
10 1 2.5813 3.35096 28.0649
11 1 5.26241 2.36464 29.6238
12 1 6.40442 4.26781 30.7752
13 1 1.46561 1.12628 27.7986
14 1 4.21048 1.21221 27.7578
15 1 5.08485 3.51486 27.6583
16 2 0.979561 1.492 14.9766
17 2 4.65977 1.18346 17.3496
18 2 3.68539 2.9447 14.7732
19 2 4.60931 4.18195 17.0216
20 2 2.02521 2.98001 9.66066
21 2 6.61491 4.30223 15.1293
22 2 5.00535 -0.14912 12.2746
23 2 5.34091 3.15622 12.3329
24 2 5.91507 1.98845 7.54322
25 2 3.19793 0.598153 7.97559
26 2 4.72611 1.31811 9.69765
27 2 2.87987 1.52053 12.6823
28 2 4.61048 4.41215 10.2415
29 2 3.35787 3.60594 7.58775
30 2 2.12942 1.55209 5.10209
31 2 4.81029 3.04533 5.22212
32 2 3.14442 0.298426 1.95088
33 2 2.73315 2.92835 2.95984
34 2 5.46003 1.70345 2.27607
35 2 4.84844 0.485512 5.0633
ITEM: TIMESTEP
11800
ITEM: NUMBER OF ATOMS
35
ITEM: BOX BOUNDS xy xz yz pp pp pp
0.0000000000000000e+00 7.6685730000000003e+00 2.5561910000000001e+00
0.0000000000000000e+00 4.4274529999999999e+00 0.0000000000000000e+00
0.0000000000000000e+00 3.5699264999999997e+01 0.0000000000000000e+00
ITEM: ATOMS id type x y z
1 1 3.99001 4.12491 0.0127004
2 1 6.51934 2.67071 35.5442
3 1 4.06359 3.69743 32.8475
4 1 5.50277 1.77305 33.3981
5 1 3.72426 1.5997 35.2505
6 1 2.57575 1.48483 29.7427
7 1 6.24465 4.13147 33.8591
8 1 2.47144 2.17355 32.1394
9 1 3.88357 4.25182 30.4012
10 1 2.66439 3.37777 28.0442
11 1 5.03244 1.89708 30.0531
12 1 4.02476 0.331834 31.086
13 1 1.22282 0.967159 27.4768
14 1 3.62488 1.30003 27.6237
15 1 5.69554 3.39256 27.7796
16 2 1.07802 1.71877 14.7617
17 2 4.5542 0.695275 17.4561
18 2 3.50873 2.77263 15.1507
19 2 4.30927 3.89779 17.1563
20 2 2.17557 2.8353 9.99136
21 2 3.60048 0.0625894 15.084
22 2 3.03547 4.49718 12.4979
23 2 5.36494 2.77278 12.5095
24 2 5.75771 2.17673 7.2841
25 2 3.17074 0.516096 7.46654
26 2 4.74138 1.48389 9.91298
27 2 3.06665 1.54062 12.5599
28 2 2.12938 0.255494 10.2506
29 2 3.23026 3.681 7.31037
30 2 2.54445 1.7289 5.25216
31 2 4.90981 3.16489 4.93414
32 2 2.90317 0.0915966 2.17331
33 2 2.86247 3.10447 2.93765
34 2 5.32283 1.66101 2.24517
35 2 4.51727 0.0208889 4.98767
ITEM: TIMESTEP
11900
ITEM: NUMBER OF ATOMS
35
ITEM: BOX BOUNDS xy xz yz pp pp pp
0.0000000000000000e+00 7.6685730000000003e+00 2.5561910000000001e+00
0.0000000000000000e+00 4.4274529999999999e+00 0.0000000000000000e+00
0.0000000000000000e+00 3.5699264999999997e+01 0.0000000000000000e+00
ITEM: ATOMS id type x y z
1 1 4.34848 4.11298 0.126508
2 1 1.5466 2.07435 0.25488
3 1 3.8507 3.81952 33.4621
4 1 5.13005 1.80104 33.1336
5 1 4.25748 1.56715 35.9017
6 1 2.77748 2.2276 29.7652
7 1 6.36763 4.01971 34.0085
8 1 2.4022 2.21223 32.0739
9 1 1.36846 0.0249807 30.7938
10 1 2.72446 3.66103 27.932
11 1 5.45255 2.29343 30.3925
12 1 6.13586 4.35541 31.5012
13 1 1.3993 1.54734 27.8083
14 1 4.05883 0.905608 27.3918
15 1 5.0029 3.47882 28.346
16 2 5.77271 1.42429 15.3435
17 2 4.45185 0.449037 17.0695
18 2 3.29825 2.89911 15.1082
19 2 4.55204 3.84277 17.4604
20 2 2.20119 3.23352 10.2456
21 2 3.06925 -0.0537565 14.7106
22 2 0.693031 -0.0884683 12.8337
23 2 5.97203 2.92509 12.4822
24 2 5.54476 2.24689 7.26927
25 2 3.603 0.537208 7.80349
26 2 4.60399 1.73255 10.066
27 2 3.08928 1.27519 12.406
28 2 2.10082 0.0166615 9.77099
29 2 3.30417 3.55498 7.5111
30 2 2.15619 1.74441 4.54525
31 2 4.76854 3.10456 4.43359
32 2 2.72861 0.246453 2.46261
33 2 2.93525 3.07981 1.88772
34 2 5.29579 1.48728 2.415
35 2 4.95413 0.267206 4.92695
ITEM: TIMESTEP
12000
ITEM: NUMBER OF ATOMS
35
ITEM: BOX BOUNDS xy xz yz pp pp pp
0.0000000000000000e+00 7.6685730000000003e+00 2.5561910000000001e+00
0.0000000000000000e+00 4.4274529999999999e+00 0.0000000000000000e+00
0.0000000000000000e+00 3.5699264999999997e+01 0.0000000000000000e+00
ITEM: ATOMS id type x y z
1 1 4.76618 3.66877 -0.0618656
2 1 1.45798 1.48834 35.126
3 1 3.66185 4.223 33.3255
4 1 4.99977 1.65124 32.9907
5 1 3.83809 1.17616 -0.0993633
6 1 3.37181 2.20434 30.0945
7 1 6.81018 3.86775 34.1124
8 1 2.38853 1.65076 32.8964
9 1 3.33533 4.36466 31.053
10 1 2.70633 3.9466 28.2854
11 1 5.70483 2.35674 30.7276
12 1 3.68594 0.259943 30.9105
13 1 1.26279 1.46814 28.6328
14 1 3.68432 1.68852 27.725
15 1 5.20731 4.04259 29.19
16 2 5.87333 1.68175 15.4041
17 2 4.17052 0.143926 17.1525
18 2 2.9465 2.82867 15.147
19 2 4.40888 3.3464 17.192
20 2 1.89486 3.40111 9.91895
21 2 5.43587 4.31323 14.802
22 2 3.35308 4.20111 12.5571
23 2 5.89969 2.76727 12.5989
24 2 6.33501 2.10023 7.44211
25 2 3.40053 0.911317 7.36636
26 2 4.85766 1.73067 10.0655
27 2 3.47871 1.31844 12.2517
28 2 1.94109 0.163601 9.90214
29 2 3.37989 3.48981 7.48028
30 2 2.29183 1.91126 4.56293
31 2 4.48903 3.07437 4.87598
32 2 2.98638 0.403504 2.2279
33 2 2.65266 3.30836 1.68356
34 2 5.45806 1.4794 2.48171
35 2 4.93322 0.220598 4.9308
ITEM: TIMESTEP
12100
ITEM: NUMBER OF ATOMS
35
ITEM: BOX BOUNDS xy xz yz pp pp pp
0.0000000000000000e+00 7.6685730000000003e+00 2.5561910000000001e+00
0.0000000000000000e+00 4.4274529999999999e+00 0.0000000000000000e+00
0.0000000000000000e+00 3.5699264999999997e+01 0.0000000000000000e+00
ITEM: ATOMS id type x y z
1 1 5.23735 3.21821 35.8384
2 1 0.887633 0.73532 35.7771
3 1 4.32356 3.83594 33.3102
4 1 5.14518 1.3629 33.4408
5 1 3.41985 0.961573 35.4111
6 1 3.33681 2.16275 30.723
7 1 6.64656 3.64834 33.9548
8 1 2.6566 1.898 33.0074
9 1 4.07149 4.59709 30.9163
10 1 2.14762 4.04886 29.1838
11 1 6.17702 2.46683 31.617
12 1 3.88097 0.297291 31.8723
13 1 5.98828 1.96681 28.9685
14 1 3.72117 2.16464 27.9405
15 1 4.9948 4.23406 28.6967
16 2 5.40443 1.40341 15.2785
17 2 4.26674 0.0357396 17.0729
18 2 3.01852 2.84165 14.6076
19 2 3.84058 2.72523 17.1913
20 2 7.1506 3.30254 9.80555
21 2 3.05858 0.165323 14.7263
22 2 3.34072 4.18663 12.2746
23 2 5.8809 2.46749 12.5599
24 2 6.05549 2.23715 7.30174
25 2 3.59821 0.638745 7.12462
26 2 4.59935 1.80075 9.65155
27 2 3.40275 1.30863 12.3729
28 2 2.26965 0.580781 10.152
29 2 3.70549 4.02208 7.42733
30 2 2.30326 1.75979 4.7678
31 2 5.0187 3.30783 5.10775
32 2 2.85061 0.270454 2.37318
33 2 2.65377 3.32499 1.69908
34 2 5.49597 2.04699 2.29349
35 2 4.60348 0.102538 4.72769
ITEM: TIMESTEP
12200
ITEM: NUMBER OF ATOMS
35
ITEM: BOX BOUNDS xy xz yz pp pp pp
0.0000000000000000e+00 7.6685730000000003e+00 2.5561910000000001e+00
0.0000000000000000e+00 4.4274529999999999e+00 0.0000000000000000e+00
0.0000000000000000e+00 3.5699264999999997e+01 0.0000000000000000e+00
ITEM: ATOMS id type x y z
1 1 4.91899 2.9653 0.170739
2 1 0.705246 0.712059 0.63207
3 1 4.6519 3.56894 33.2173
4 1 5.74934 1.76537 33.9484
5 1 3.09151 1.55792 0.268597
6 1 3.34975 2.56604 30.8369
7 1 2.31233 3.42927 34.7244
8 1 3.35136 1.40449 33.3622
9 1 2.09771 0.323113 30.8845
10 1 7.096 4.36155 29.6256
11 1 5.4979 2.37067 31.6121
12 1 4.87551 0.124669 32.3103
13 1 5.904 2.19632 29.4216
14 1 3.51342 2.19743 28.7483
15 1 1.83818 0.242119 28.3312
16 2 5.47191 1.32528 14.9378
17 2 6.52307 3.83639 17.004
18 2 3.0389 3.06286 14.4487
19 2 3.66412 2.44672 16.7303
20 2 2.2646 3.49331 9.85152
21 2 5.29631 4.3337 14.7407
22 2 3.2493 4.27001 12.04
23 2 5.96747 2.70955 12.3422
24 2 6.07692 2.46411 7.23025
25 2 3.70927 0.904182 7.40885
26 2 4.68546 2.09344 9.68433
27 2 3.44693 1.10549 12.2173
28 2 2.09008 0.460541 9.76252
29 2 3.58213 4.01137 7.41051
30 2 2.35259 1.63677 4.95192
31 2 4.72266 3.14524 4.80917
32 2 2.53559 0.504108 2.49073
33 2 2.82795 2.98872 2.12446
34 2 5.21321 2.09045 2.65216
35 2 0.184511 0.135671 4.08596
ITEM: TIMESTEP
12300
ITEM: NUMBER OF ATOMS
35
ITEM: BOX BOUNDS xy xz yz pp pp pp
0.0000000000000000e+00 7.6685730000000003e+00 2.5561910000000001e+00
0.0000000000000000e+00 4.4274529999999999e+00 0.0000000000000000e+00
0.0000000000000000e+00 3.5699264999999997e+01 0.0000000000000000e+00
ITEM: ATOMS id type x y z
1 1 5.02386 3.38819 0.36575
2 1 0.528227 0.887172 0.705439
3 1 5.05793 3.729 33.7408
4 1 6.53849 1.81827 34.1911
5 1 3.28021 1.14765 -0.0805873
6 1 3.0046 2.56639 31.1858
7 1 2.51426 3.61728 35.0912
8 1 3.75045 1.59976 33.2067
9 1 2.65065 0.206048 30.9791
10 1 7.11892 4.73314 29.5521
11 1 5.7983 1.98409 31.6545
12 1 5.19155 0.0854528 32.8185
13 1 5.78492 2.62394 29.0612
14 1 3.01605 2.28364 28.9943
15 1 1.63111 0.0141677 28.887
16 2 5.62327 1.44973 14.7845
17 2 6.25011 3.15385 16.7285
18 2 2.46019 2.94672 14.0171
19 2 3.72164 2.0123 16.5142
20 2 2.10777 3.48171 9.60745
21 2 5.23521 4.27287 14.6024
22 2 3.67751 4.50774 12.0727
23 2 5.85598 2.91627 12.1626
24 2 6.23837 2.61862 7.42392
25 2 3.62878 1.17081 7.28035
26 2 4.87631 2.08945 9.90884
27 2 3.48929 1.24962 12.0324
28 2 2.11165 0.521976 9.39679
29 2 3.4432 3.93166 7.02284
30 2 2.47615 1.70718 4.95088
31 2 5.11544 3.04781 5.22445
32 2 2.6862 0.222682 2.67517
33 2 2.38484 3.13232 2.28692
34 2 5.09909 2.11209 2.61749
35 2 -0.258008 0.156836 4.82062
ITEM: TIMESTEP
12400
ITEM: NUMBER OF ATOMS
35
ITEM: BOX BOUNDS xy xz yz pp pp pp
0.0000000000000000e+00 7.6685730000000003e+00 2.5561910000000001e+00
0.0000000000000000e+00 4.4274529999999999e+00 0.0000000000000000e+00
0.0000000000000000e+00 3.5699264999999997e+01 0.0000000000000000e+00
ITEM: ATOMS id type x y z
1 1 5.12272 3.2216 0.533586
2 1 1.4755 0.812235 0.643402
3 1 5.89524 4.08642 34.0219
4 1 1.41505 1.05772 33.7101
5 1 3.79222 1.18947 35.9639
6 1 3.35494 2.84879 30.8407
7 1 2.41289 3.34163 35.291
8 1 3.78861 2.31996 33.5517
9 1 2.70363 -0.123531 31.6444
10 1 4.31923 0.524438 30.1951
11 1 6.0364 1.76366 31.3402
12 1 -0.0344035 -0.182926 32.6631
13 1 5.45751 2.57227 29.1445
14 1 2.88807 2.19027 28.6154
15 1 1.71364 0.310951 29.4922
16 2 5.17294 1.0897 14.4778
17 2 6.35482 2.81181 16.3827
18 2 2.76946 2.90421 14.0227
19 2 3.37387 1.56563 16.3208
20 2 2.48933 3.61502 9.92995
21 2 5.19761 4.42797 14.4667
22 2 1.0238 0.274625 12.0035
23 2 5.81693 3.01405 11.8252
24 2 6.19249 2.46765 7.6202
25 2 3.63117 1.18129 7.34291
26 2 4.56208 1.9539 9.53814
27 2 3.69017 1.44275 12.0443
28 2 2.25158 0.567431 9.67092
29 2 3.7066 4.1783 7.29438
30 2 2.32338 1.88658 4.71421
31 2 5.15909 3.23802 4.98626
32 2 2.49917 0.296737 2.58719
33 2 2.32271 3.40552 2.13873
34 2 4.70392 1.58078 2.99518
35 2 4.75398 0.486486 5.20668
ITEM: TIMESTEP
12500
ITEM: NUMBER OF ATOMS
35
ITEM: BOX BOUNDS xy xz yz pp pp pp
0.0000000000000000e+00 7.6685730000000003e+00 2.5561910000000001e+00
0.0000000000000000e+00 4.4274529999999999e+00 0.0000000000000000e+00
0.0000000000000000e+00 3.5699264999999997e+01 0.0000000000000000e+00
ITEM: ATOMS id type x y z
1 1 5.27913 3.18082 0.627949
2 1 1.38742 1.11092 0.177875
3 1 5.84574 4.245 34.2245
4 1 1.38151 1.62289 33.4835
5 1 3.95997 0.540525 0.570875
6 1 3.65541 2.46452 30.8923
7 1 3.19696 3.15767 35.5
8 1 4.40197 1.99118 33.44
9 1 4.75195 3.94677 32.2434
10 1 4.01288 0.232647 29.7519
11 1 1.23122 2.33359 31.3804
12 1 2.29037 4.16821 32.2108
13 1 5.54539 2.65407 29.3552
14 1 3.06633 2.38791 28.4691
15 1 1.4641 0.392812 29.5457
16 2 5.02231 1.14429 14.4168
17 2 6.05713 2.82499 15.9667
18 2 2.82298 2.63048 14.1916
19 2 3.42176 1.20446 16.574
20 2 2.40449 3.49097 9.67172
21 2 4.93307 4.19993 14.2349
22 2 0.992817 0.27823 12.1504
23 2 5.97546 3.13204 11.9962
24 2 6.4331 2.90569 7.3668
25 2 3.48719 1.18376 7.18891
26 2 4.96845 2.08314 9.6233
27 2 3.49779 1.45016 12.0499
28 2 2.4432 0.604773 9.82182
29 2 3.80845 4.01735 7.621
30 2 2.30807 2.19518 5.01221
31 2 4.70846 3.58385 4.97125
32 2 1.91798 0.160349 2.51578
33 2 2.32226 3.14386 2.49361
34 2 4.90586 1.79023 2.61307
35 2 5.16776 0.490559 5.11607
ITEM: TIMESTEP
12600
ITEM: NUMBER OF ATOMS
35
ITEM: BOX BOUNDS xy xz yz pp pp pp
0.0000000000000000e+00 7.6685730000000003e+00 2.5561910000000001e+00
0.0000000000000000e+00 4.4274529999999999e+00 0.0000000000000000e+00
0.0000000000000000e+00 3.5699264999999997e+01 0.0000000000000000e+00
ITEM: ATOMS id type x y z
1 1 5.50226 2.8943 0.296569
2 1 1.70674 0.838521 -0.464305
3 1 5.93272 3.93748 34.0519
4 1 1.9376 2.06218 33.3261
5 1 4.39145 0.834919 0.752886
6 1 3.47657 1.54389 31.1601
7 1 2.93647 3.00376 35.6101
8 1 4.4155 2.14423 33.7166
9 1 4.82968 4.3334 31.8089
10 1 4.22107 0.269458 29.1668
11 1 6.2719 2.44675 30.973
12 1 4.98526 0.217905 32.0037
13 1 5.25335 2.45188 28.2326
14 1 2.72001 2.56762 29.2228
15 1 1.50812 0.142955 29.7843
16 2 4.82418 0.779767 14.4404
17 2 5.75314 2.73171 16.5119
18 2 2.50698 2.48963 14.6622
19 2 3.45129 0.923116 16.7394
20 2 2.25022 3.55317 9.79253
21 2 4.7632 4.36923 14.3964
22 2 0.885196 -0.00754685 11.7336
23 2 6.24542 2.91377 12.5464
24 2 6.21154 2.9315 7.28254
25 2 4.00113 1.47333 7.45415
26 2 5.30016 1.9371 9.62399
27 2 3.64807 1.81274 11.7865
28 2 2.60766 0.693671 9.44181
29 2 3.6725 4.24164 7.21156
30 2 2.47732 1.90374 5.03133
31 2 5.21729 3.56525 4.88482
32 2 1.94592 0.369069 2.6122
33 2 2.2004 3.04995 2.50813
34 2 4.6085 2.1349 2.80167
35 2 4.69492 0.758427 4.91821
ITEM: TIMESTEP
12700
ITEM: NUMBER OF ATOMS
35
ITEM: BOX BOUNDS xy xz yz pp pp pp
0.0000000000000000e+00 7.6685730000000003e+00 2.5561910000000001e+00
0.0000000000000000e+00 4.4274529999999999e+00 0.0000000000000000e+00
0.0000000000000000e+00 3.5699264999999997e+01 0.0000000000000000e+00
ITEM: ATOMS id type x y z
1 1 5.55005 2.92524 0.621737
2 1 1.44366 0.411652 34.911
3 1 4.58874 0.180708 33.6599
4 1 1.88338 1.84645 32.6707
5 1 4.05419 0.791226 0.202293
6 1 3.75193 2.11528 31.2716
7 1 3.09032 2.72439 -0.0535734
8 1 5.01339 2.37927 34.0363
9 1 5.04513 3.92945 32.3766
10 1 3.97778 0.373424 29.1346
11 1 5.65838 2.30116 30.2363
12 1 2.73453 4.18727 31.583
13 1 5.04512 2.33914 28.3197
14 1 2.5161 2.5023 28.7837
15 1 1.6747 0.0693798 29.3513
16 2 4.5876 0.91165 14.339
17 2 5.35831 2.30429 16.7283
18 2 2.55618 2.78442 15.4399
19 2 3.35242 0.671255 16.8951
20 2 2.58669 3.62089 9.60807
21 2 4.68859 4.11872 14.5523
22 2 1.37301 0.126663 12.0565
23 2 6.24116 2.75705 12.4689
24 2 6.53759 2.83394 7.42055
25 2 3.84487 1.71502 7.2577
26 2 5.16692 2.07779 9.98564
27 2 3.5875 1.4915 12.1742
28 2 2.41929 0.430235 9.5292
29 2 1.21397 0.196556 7.05065
30 2 2.35675 2.0797 5.05793
31 2 4.95079 3.52441 4.82289
32 2 2.07964 0.755711 2.21761
33 2 7.06972 3.82641 2.47633
34 2 4.30205 2.02939 2.58703
35 2 5.17906 0.156353 4.6028
ITEM: TIMESTEP
12800
ITEM: NUMBER OF ATOMS
35
ITEM: BOX BOUNDS xy xz yz pp pp pp
0.0000000000000000e+00 7.6685730000000003e+00 2.5561910000000001e+00
0.0000000000000000e+00 4.4274529999999999e+00 0.0000000000000000e+00
0.0000000000000000e+00 3.5699264999999997e+01 0.0000000000000000e+00
ITEM: ATOMS id type x y z
1 1 5.28307 2.60127 0.519696
2 1 1.77816 0.653889 34.9111
3 1 2.69917 3.96788 33.2639
4 1 1.5482 1.8555 32.8951
5 1 4.30215 0.600027 -0.307039
6 1 3.73659 1.9327 31.1613
7 1 2.77003 2.85643 35.3453
8 1 4.8754 2.85314 33.9155
9 1 5.43705 4.20038 31.7322
10 1 3.62181 0.248395 29.0338
11 1 6.54724 2.24375 30.5595
12 1 2.80362 4.24975 31.1538
13 1 4.95257 2.56426 27.7603
14 1 2.57154 2.42761 28.5134
15 1 4.08368 4.28606 29.1072
16 2 4.8715 1.18536 14.5854
17 2 5.30472 1.80361 16.9435
18 2 2.34653 2.91182 15.5885
19 2 2.97554 0.150397 17.0723
20 2 2.65443 3.60152 9.91328
21 2 4.85737 3.98835 14.7729
22 2 3.65302 4.11098 12.2682
23 2 6.38528 3.10586 12.4866
24 2 6.37203 3.28387 7.26155
25 2 3.89616 1.51857 7.21728
26 2 5.11492 2.12136 9.8971
27 2 3.53131 1.50281 12.28
28 2 2.83691 0.590912 9.83593
29 2 1.35069 0.159654 7.47382
30 2 2.39077 1.96702 4.50882
31 2 5.101 3.21835 4.97641
32 2 1.61322 0.9233 1.66617
33 2 6.90094 3.81656 2.20063
34 2 4.19893 2.38117 2.627
35 2 5.30788 0.63496 4.83297
ITEM: TIMESTEP
12900
ITEM: NUMBER OF ATOMS
35
ITEM: BOX BOUNDS xy xz yz pp pp pp
0.0000000000000000e+00 7.6685730000000003e+00 2.5561910000000001e+00
0.0000000000000000e+00 4.4274529999999999e+00 0.0000000000000000e+00
0.0000000000000000e+00 3.5699264999999997e+01 0.0000000000000000e+00
ITEM: ATOMS id type x y z
1 1 5.51505 2.9615 -0.117617
2 1 1.83771 0.396668 34.8525
3 1 2.21126 3.96506 33.0833
4 1 1.7698 1.51732 32.6134
5 1 4.30466 0.880859 35.0626
6 1 4.15413 2.18737 30.589
7 1 2.50649 2.77796 35.9969
8 1 4.60466 2.58298 32.8469
9 1 5.49059 4.59088 30.7746
10 1 4.03525 0.245164 28.636
11 1 1.50503 2.20592 30.3584
12 1 2.84318 4.54261 30.9406
13 1 5.22563 2.35177 28.5619
14 1 2.60737 2.08852 28.2984
15 1 3.87303 4.46549 28.4763
16 2 5.13122 1.11751 14.664
17 2 5.40137 1.18598 17.3076
18 2 2.60465 2.81633 15.4759
19 2 2.60524 -0.0720428 17.2965
20 2 2.5237 3.49504 9.81785
21 2 4.87115 4.09204 14.7807
22 2 3.59325 4.45679 12.358
23 2 6.02079 3.03343 12.5167
24 2 6.55425 3.01846 7.40807
25 2 3.88685 1.6373 7.39512
26 2 5.39999 2.16205 9.76146
27 2 3.72713 1.56847 12.4965
28 2 2.80473 0.776006 10.0117
29 2 1.35925 0.1182 7.66897
30 2 2.55476 1.68148 4.30699
31 2 5.12345 3.85675 5.02193
32 2 1.39786 0.765576 1.92582
33 2 6.56228 3.96432 2.27969
34 2 4.23074 2.7347 2.44252
35 2 5.10473 0.491107 4.97912
ITEM: TIMESTEP
13000
ITEM: NUMBER OF ATOMS
35
ITEM: BOX BOUNDS xy xz yz pp pp pp
0.0000000000000000e+00 7.6685730000000003e+00 2.5561910000000001e+00
0.0000000000000000e+00 4.4274529999999999e+00 0.0000000000000000e+00
0.0000000000000000e+00 3.5699264999999997e+01 0.0000000000000000e+00
ITEM: ATOMS id type x y z
1 1 5.67062 3.32239 35.0987
2 1 1.22693 0.416752 35.005
3 1 6.28022 3.7334 32.7358
4 1 2.41106 1.04072 32.8282
5 1 4.15122 0.67627 35.9271
6 1 4.03862 2.536 30.3944
7 1 2.81081 2.83016 0.380533
8 1 4.51064 2.27494 32.6999
9 1 2.64907 0.0343778 30.4297
10 1 4.49153 -0.273302 28.3477
11 1 1.25782 2.59144 30.6438
12 1 0.268689 0.590388 30.5265
13 1 5.72558 2.0474 28.0531
14 1 3.21224 2.38258 27.7562
15 1 1.70773 0.189304 28.2115
16 2 5.11237 1.16198 14.7824
17 2 5.23135 0.752715 17.4863
18 2 2.74042 2.37837 15.7155
19 2 5.24463 4.03023 17.1527
20 2 2.81015 3.73168 9.96046
21 2 5.23562 4.14725 14.6106
22 2 1.12232 0.399386 12.1776
23 2 6.25197 3.02708 12.4319
24 2 6.55939 2.68165 7.2294
25 2 4.01729 1.51672 7.39878
26 2 5.10872 2.22917 9.97865
27 2 3.44169 1.84549 12.7526
28 2 2.52585 0.6249 9.96707
29 2 1.51949 -0.0178346 7.45142
30 2 2.30387 2.42426 4.53176
31 2 4.97271 3.37224 5.07016
32 2 1.34998 1.16791 2.03166
33 2 6.28702 4.49457 2.54194
34 2 4.3328 2.45917 2.52086
35 2 5.11935 0.502382 4.80296
ITEM: TIMESTEP
13100
ITEM: NUMBER OF ATOMS
35
ITEM: BOX BOUNDS xy xz yz pp pp pp
0.0000000000000000e+00 7.6685730000000003e+00 2.5561910000000001e+00
0.0000000000000000e+00 4.4274529999999999e+00 0.0000000000000000e+00
0.0000000000000000e+00 3.5699264999999997e+01 0.0000000000000000e+00
ITEM: ATOMS id type x y z
1 1 5.02856 2.73154 35.2281
2 1 1.25935 0.72821 35.2174
3 1 6.8354 3.78593 33.0904
4 1 1.78744 1.40728 32.888
5 1 3.67073 1.25946 0.182247
6 1 3.73865 3.13267 29.7246
7 1 2.48809 3.19192 0.265863
8 1 4.46398 1.54952 33.0806
9 1 2.63074 0.605929 30.6459
10 1 7.42709 4.30885 28.274
11 1 6.38616 2.73207 30.3686
12 1 5.15087 0.347523 30.7271
13 1 6.24185 2.05602 27.691
14 1 3.57852 1.94295 27.7115
15 1 2.53086 -0.343897 28.1247
16 2 5.3335 1.05953 14.7991
17 2 5.00898 0.454393 17.4481
18 2 2.58758 2.1709 16.1992
19 2 5.56793 3.30007 16.8133
20 2 2.38457 3.60787 9.66145
21 2 5.34254 4.10221 14.4649
22 2 1.15315 0.321239 12.3015
23 2 6.44416 3.71364 12.0605
24 2 6.52145 2.87611 7.39009
25 2 4.09991 0.955201 7.33808
26 2 4.89663 2.35904 10.1719
27 2 3.57 2.10469 12.8507
28 2 2.789 0.882243 9.80407
29 2 3.92657 4.11001 7.25576
30 2 2.36204 2.18775 4.79991
31 2 4.81577 3.48562 5.01979
32 2 1.44134 1.4202 1.93152
33 2 3.83034 -0.269971 2.88526
34 2 3.91995 3.06217 2.57233
35 2 5.28297 0.810186 4.86909
ITEM: TIMESTEP
13200
ITEM: NUMBER OF ATOMS
35
ITEM: BOX BOUNDS xy xz yz pp pp pp
0.0000000000000000e+00 7.6685730000000003e+00 2.5561910000000001e+00
0.0000000000000000e+00 4.4274529999999999e+00 0.0000000000000000e+00
0.0000000000000000e+00 3.5699264999999997e+01 0.0000000000000000e+00
ITEM: ATOMS id type x y z
1 1 4.82321 3.19899 35.5192
2 1 0.895121 0.979525 34.8579
3 1 7.355 3.53311 33.6005
4 1 1.58982 1.44259 32.7776
5 1 3.2574 1.18986 0.602946
6 1 3.43956 2.932 30.2545
7 1 2.20363 3.46328 0.240092
8 1 4.06422 2.35431 33.2802
9 1 2.79493 0.697401 30.6144
10 1 8.03968 4.24308 28.2028
11 1 6.2618 2.6482 30.272
12 1 4.96589 0.57957 31.2964
13 1 1.67534 1.86192 28.1885
14 1 4.25838 1.78058 27.8732
15 1 5.41714 3.97451 27.6626
16 2 5.6063 0.677661 14.5979
17 2 5.0533 0.0764872 17.1535
18 2 3.00093 1.94949 16.1101
19 2 5.12001 2.87732 17.0089
20 2 2.51509 3.75612 9.73225
21 2 5.3865 4.03958 14.6316
22 2 1.331 0.851626 12.0331
23 2 6.33073 4.13694 11.9411
24 2 6.23748 2.29659 7.31308
25 2 3.72208 1.3623 7.34778
26 2 4.9911 2.32064 10.1489
27 2 3.77353 2.26253 12.9246
28 2 2.30327 0.930541 9.65847
29 2 3.8972 4.04375 7.55189
30 2 2.86731 1.94324 5.00161
31 2 5.17368 3.7347 4.95132
32 2 1.19405 1.47688 2.30631
33 2 6.34188 4.20612 2.60418
34 2 3.69289 3.16297 2.01052
35 2 5.16313 0.678444 4.89929
ITEM: TIMESTEP
13300
ITEM: NUMBER OF ATOMS
35
ITEM: BOX BOUNDS xy xz yz pp pp pp
0.0000000000000000e+00 7.6685730000000003e+00 2.5561910000000001e+00
0.0000000000000000e+00 4.4274529999999999e+00 0.0000000000000000e+00
0.0000000000000000e+00 3.5699264999999997e+01 0.0000000000000000e+00
ITEM: ATOMS id type x y z
1 1 4.43775 3.65667 35.3513
2 1 5.42675 1.21704 35.2905
3 1 6.54454 4.31323 33.1998
4 1 2.13939 1.22712 32.5643
5 1 2.96996 1.15274 -0.179142
6 1 3.52613 2.7145 30.9623
7 1 6.86198 3.46058 0.0953607
8 1 4.48973 2.63709 32.9627
9 1 2.33665 0.182268 29.9509
10 1 3.18552 3.88701 28.7989
11 1 5.83063 2.87292 31.141
12 1 4.94098 0.552451 31.0499
13 1 2.21484 1.71558 28.2544
14 1 4.87692 1.85782 29.0758
15 1 6.12593 4.08335 28.0572
16 2 0.428947 0.462479 14.436
17 2 2.67492 4.05596 16.9214
18 2 2.78058 1.6977 15.5851
19 2 5.08521 2.98257 17.2092
20 2 2.53281 3.74577 9.90547
21 2 5.78574 3.45764 14.788
22 2 1.31761 1.5278 12.0706
23 2 6.40452 4.25392 12.3423
24 2 6.19386 2.37603 7.15985
25 2 3.65182 1.17478 7.49566
26 2 4.74174 2.2618 9.91541
27 2 3.63405 2.70896 12.8683
28 2 2.33222 0.96705 9.68948
29 2 3.89704 3.99963 7.13131
30 2 2.69533 2.39433 4.61835
31 2 5.35053 3.35364 4.86861
32 2 0.932498 1.41067 2.54477
33 2 3.68641 0.193424 2.43827
34 2 4.06597 3.03729 2.55041
35 2 5.37122 0.493711 4.91974
ITEM: TIMESTEP
13400
ITEM: NUMBER OF ATOMS
35
ITEM: BOX BOUNDS xy xz yz pp pp pp
0.0000000000000000e+00 7.6685730000000003e+00 2.5561910000000001e+00
0.0000000000000000e+00 4.4274529999999999e+00 0.0000000000000000e+00
0.0000000000000000e+00 3.5699264999999997e+01 0.0000000000000000e+00
ITEM: ATOMS id type x y z
1 1 3.84776 3.86336 35.638
2 1 4.95357 1.51168 0.21714
3 1 6.94293 4.24115 33.8119
4 1 1.48561 1.07031 33.0532
5 1 2.63027 1.66874 34.9111
6 1 3.65951 2.38931 30.8944
7 1 6.36156 3.4121 0.439043
8 1 4.76098 2.45934 33.6066
9 1 2.40226 0.339579 30.7148
10 1 3.71065 3.86607 28.9112
11 1 5.92009 2.79575 31.467
12 1 4.99183 0.443714 31.3686
13 1 2.33471 1.72392 28.5571
14 1 5.29735 2.20197 29.2384
15 1 6.11613 4.23402 28.5896
16 2 0.376597 0.42262 14.4617
17 2 2.76786 3.9567 16.9136
18 2 2.94241 1.28452 15.2509
19 2 5.25595 2.79894 17.0552
20 2 2.20853 3.76849 9.79282
21 2 5.70072 2.94771 14.5693
22 2 1.1394 1.79001 12.3198
23 2 3.48003 0.354754 12.3097
24 2 6.6185 2.71994 7.45835
25 2 3.90374 0.835799 7.06146
26 2 4.88872 2.35 9.87965
27 2 3.67723 3.08881 12.6174
28 2 2.35896 0.664774 9.91972
29 2 3.76043 3.90088 7.27604
30 2 2.52374 1.77652 4.6848
31 2 5.25612 3.6657 4.69309
32 2 1.55107 1.39296 2.07338
33 2 3.87503 0.296661 2.3955
34 2 3.76448 3.0818 2.20008
35 2 5.13023 0.787597 4.8251
ITEM: TIMESTEP
13500
ITEM: NUMBER OF ATOMS
35
ITEM: BOX BOUNDS xy xz yz pp pp pp
0.0000000000000000e+00 7.6685730000000003e+00 2.5561910000000001e+00
0.0000000000000000e+00 4.4274529999999999e+00 0.0000000000000000e+00
0.0000000000000000e+00 3.5699264999999997e+01 0.0000000000000000e+00
ITEM: ATOMS id type x y z
1 1 1.06009 0.0806964 0.0959364
2 1 4.45385 1.2221 0.356727
3 1 6.83321 3.60306 33.7001
4 1 1.5702 0.640483 33.2974
5 1 2.43807 2.12214 35.3801
6 1 3.6505 2.69832 31.3346
7 1 5.60943 3.36773 0.182843
8 1 4.34763 2.6943 33.701
9 1 2.37623 0.573745 31.3268
10 1 3.94557 4.2912 28.8883
11 1 6.42182 2.61434 31.8274
12 1 4.89645 0.278711 31.4282
13 1 2.72561 2.18391 29.2629
14 1 5.14876 1.90468 29.1512
15 1 6.55377 4.13407 29.5893
16 2 2.9205 4.33416 14.4317
17 2 2.85166 3.83938 16.8237
18 2 3.08677 1.37374 15.442
19 2 5.46748 2.30027 16.6986
20 2 2.26657 3.91185 10.0574
21 2 5.45894 3.25644 14.3801
22 2 6.05016 1.76585 12.0413
23 2 3.43733 0.613232 12.3926
24 2 6.35698 2.27344 7.43912
25 2 3.95394 1.20281 7.23496
26 2 4.81679 2.22225 9.75902
27 2 3.64293 3.30145 11.9632
28 2 2.19763 0.701184 9.70168
29 2 4.19208 3.99806 7.24554
30 2 2.52702 2.20235 5.0358
31 2 4.98475 3.40068 4.57822
32 2 1.65597 1.55773 2.02266
33 2 4.11896 -0.0508556 2.41253
34 2 3.8921 3.12666 2.22275
35 2 5.26052 0.765647 4.53882
ITEM: TIMESTEP
13600
ITEM: NUMBER OF ATOMS
35
ITEM: BOX BOUNDS xy xz yz pp pp pp
0.0000000000000000e+00 7.6685730000000003e+00 2.5561910000000001e+00
0.0000000000000000e+00 4.4274529999999999e+00 0.0000000000000000e+00
0.0000000000000000e+00 3.5699264999999997e+01 0.0000000000000000e+00
ITEM: ATOMS id type x y z
1 1 0.845385 -0.0364892 -0.082441
2 1 4.10352 1.10596 0.300616
3 1 6.22418 4.07003 33.6473
4 1 1.89422 1.10979 33.7717
5 1 2.08985 2.24642 35.6271
6 1 3.69887 3.19319 31.4807
7 1 5.42832 3.56907 0.0495782
8 1 4.12977 2.27422 33.9919
9 1 2.77464 0.511398 31.5918
10 1 3.98061 4.47269 29.1489
11 1 6.69412 2.55742 31.4189
12 1 5.03512 0.652668 32.0908
13 1 2.91282 2.01405 29.516
14 1 5.03168 1.61956 29.6438
15 1 6.92937 4.11008 29.4234
16 2 3.00343 4.40562 14.0714
17 2 3.03123 3.76925 16.8528
18 2 2.84952 1.37832 15.5413
19 2 5.66191 1.81847 16.5217
20 2 1.90086 3.93032 9.40366
21 2 5.32523 2.98436 14.232
22 2 6.22615 1.87739 12.0167
23 2 3.63368 0.604173 12.508
24 2 6.48788 2.4976 7.30174
25 2 3.8627 0.946896 7.10261
26 2 4.52028 2.3571 9.48939
27 2 3.67677 3.30674 11.8297
28 2 2.18402 1.06676 9.5999
29 2 3.9894 4.06742 7.09239
30 2 2.63198 2.49744 4.87682
31 2 5.36889 3.62799 4.92814
32 2 1.37632 1.35182 2.60509
33 2 3.91282 -0.234043 2.45911
34 2 4.11041 2.76785 2.42154
35 2 5.47647 0.702396 4.83113
ITEM: TIMESTEP
13700
ITEM: NUMBER OF ATOMS
35
ITEM: BOX BOUNDS xy xz yz pp pp pp
0.0000000000000000e+00 7.6685730000000003e+00 2.5561910000000001e+00
0.0000000000000000e+00 4.4274529999999999e+00 0.0000000000000000e+00
0.0000000000000000e+00 3.5699264999999997e+01 0.0000000000000000e+00
ITEM: ATOMS id type x y z
1 1 0.385013 -0.0833736 35.379
2 1 3.75394 1.51535 0.165826
3 1 6.23609 3.94719 34.2942
4 1 1.88196 1.6432 34.0275
5 1 1.64131 2.44301 0.807147
6 1 4.13796 3.07239 31.5943
7 1 4.95483 3.55562 0.795324
8 1 4.09768 2.34172 33.703
9 1 2.95375 1.12734 31.4134
10 1 4.24256 3.70779 29.3966
11 1 6.63239 3.42501 32.0482
12 1 5.36733 0.798718 31.9883
13 1 2.85105 1.69774 29.2525
14 1 5.86348 1.99609 30.1157
15 1 6.63781 4.0097 29.0874
16 2 0.492546 0.0906933 14.224
17 2 3.15248 3.34853 16.4319
18 2 3.10828 0.776059 15.0443
19 2 5.42077 1.89651 16.846
20 2 6.74331 4.16416 9.51673
21 2 5.30945 2.75566 14.4099
22 2 1.36639 2.2899 12.0249
23 2 3.50739 0.64403 12.0997
24 2 6.65874 2.45097 6.92079
25 2 3.65121 1.08485 7.10601
26 2 4.47257 2.54565 9.23124
27 2 3.73406 3.52622 11.5989
28 2 1.89522 1.15337 9.62443
29 2 3.65882 4.09975 7.48791
30 2 3.01804 2.04006 4.70552
31 2 5.51623 3.80477 4.80847
32 2 1.46798 0.724444 2.57015
33 2 6.67977 4.23523 2.6464
34 2 3.8947 2.58108 2.58367
35 2 5.52947 0.905288 4.94438
ITEM: TIMESTEP
13800
ITEM: NUMBER OF ATOMS
35
ITEM: BOX BOUNDS xy xz yz pp pp pp
0.0000000000000000e+00 7.6685730000000003e+00 2.5561910000000001e+00
0.0000000000000000e+00 4.4274529999999999e+00 0.0000000000000000e+00
0.0000000000000000e+00 3.5699264999999997e+01 0.0000000000000000e+00
ITEM: ATOMS id type x y z
1 1 2.61511 4.1179 34.9656
2 1 4.28609 1.59003 0.298103
3 1 5.82881 4.28187 33.8473
4 1 1.55658 1.80914 34.0661
5 1 1.49233 2.35471 0.441593
6 1 4.71845 3.51796 31.5172
7 1 5.11565 4.24215 0.594983
8 1 4.24212 2.37755 33.8245
9 1 2.922 1.41419 31.4991
10 1 4.49106 3.74028 29.2583
11 1 6.93392 3.32485 32.2613
12 1 0.388147 1.03021 32.451
13 1 3.11263 1.52816 28.5625
14 1 5.86397 1.69056 29.4569
15 1 6.84176 4.12629 29.5713
16 2 3.17221 4.28717 13.7855
17 2 2.86601 2.84472 16.1417
18 2 2.99571 0.720463 14.8667
19 2 5.49444 1.86316 16.8432
20 2 6.74619 3.98611 9.82468
21 2 5.32483 2.47938 14.4836
22 2 6.36732 2.60858 12.2511
23 2 3.64675 1.11099 12.2609
24 2 5.9659 2.70822 7.09601
25 2 3.64012 0.997777 7.44736
26 2 4.62902 2.4827 9.648
27 2 3.87081 3.97885 11.4877
28 2 1.78968 1.39228 9.62411
29 2 3.65376 4.22678 7.32043
30 2 2.92442 2.09203 5.10933
31 2 5.12763 3.37969 4.68056
32 2 1.67561 1.08565 2.57082
33 2 6.928 3.96237 2.51454
34 2 4.16201 2.27093 2.46579
35 2 0.386958 0.532708 4.91347
ITEM: TIMESTEP
13900
ITEM: NUMBER OF ATOMS
35
ITEM: BOX BOUNDS xy xz yz pp pp pp
0.0000000000000000e+00 7.6685730000000003e+00 2.5561910000000001e+00
0.0000000000000000e+00 4.4274529999999999e+00 0.0000000000000000e+00
0.0000000000000000e+00 3.5699264999999997e+01 0.0000000000000000e+00
ITEM: ATOMS id type x y z
1 1 2.94264 3.94307 34.8397
2 1 4.41613 1.44594 0.0798494
3 1 2.72083 0.194621 33.3443
4 1 0.985922 2.37114 33.6629
5 1 1.98284 2.26543 0.402772
6 1 4.82742 3.50437 31.1918
7 1 4.92707 4.22249 0.429562
8 1 4.17847 2.46876 33.369
9 1 3.4094 1.25811 30.616
10 1 4.39029 3.93451 28.7306
11 1 2.48974 2.8798 31.9002
12 1 5.75696 0.950568 31.8469
13 1 3.31692 1.75146 28.635
14 1 5.86762 1.5497 29.5784
15 1 7.11539 3.91685 29.6373
16 2 2.86485 3.94504 14.0511
17 2 2.57083 3.25661 16.3098
18 2 2.74836 0.535521 14.9341
19 2 5.62949 1.22802 16.6937
20 2 7.04914 4.13869 9.71045
21 2 5.23064 2.37979 14.4783
22 2 6.43634 2.74458 12.0793
23 2 3.77918 1.703 12.5191
24 2 5.77498 2.6146 7.42139
25 2 3.68693 1.0079 7.32064
26 2 4.48649 2.32803 9.84129
27 2 3.99046 4.5472 11.6585
28 2 2.27085 1.26417 9.45658
29 2 3.40858 4.1182 7.47094
30 2 2.45948 1.93366 5.33015
31 2 5.3316 3.46564 4.76242
32 2 1.84193 1.2416 2.98924
33 2 7.18099 4.00683 2.33115
34 2 4.34129 2.33229 2.57664
35 2 4.87929 0.240812 4.92879
ITEM: TIMESTEP
14000
ITEM: NUMBER OF ATOMS
35
ITEM: BOX BOUNDS xy xz yz pp pp pp
0.0000000000000000e+00 7.6685730000000003e+00 2.5561910000000001e+00
0.0000000000000000e+00 4.4274529999999999e+00 0.0000000000000000e+00
0.0000000000000000e+00 3.5699264999999997e+01 0.0000000000000000e+00
ITEM: ATOMS id type x y z
1 1 3.11565 4.65212 34.3585
2 1 4.3364 1.5716 -0.00892618
3 1 2.62762 0.0265444 33.6071
4 1 6.66903 2.7423 34.1274
5 1 1.83063 1.88061 0.923256
6 1 4.78942 3.09006 30.6696
7 1 5.1413 3.96149 0.486158
8 1 3.89446 2.25899 33.0467
9 1 3.56512 1.08204 30.9176
10 1 4.82549 4.34715 28.3747
11 1 1.8212 3.38731 31.5868
12 1 1.06588 0.47393 31.8284
13 1 3.55571 1.80256 27.8623
14 1 5.84982 1.47291 29.1226
15 1 1.91084 3.54879 28.8467
16 2 2.42256 3.91914 14.2008
17 2 2.51861 2.68616 16.808
18 2 2.65486 0.859004 15.0707
19 2 5.53095 1.12489 16.8371
20 2 7.2733 4.20818 9.90978
21 2 5.2991 2.35483 14.4839
22 2 6.3526 3.21556 12.0285
23 2 3.81266 1.55016 12.0181
24 2 6.12875 2.45825 7.47305
25 2 3.69087 1.09031 7.22055
26 2 4.95362 2.67039 9.89425
27 2 1.52765 0.302231 12.287
28 2 2.02991 0.992854 9.51616
29 2 3.45861 3.78697 7.45454
30 2 2.17689 2.13364 5.13054
31 2 4.67919 3.36085 5.16406
32 2 2.01596 0.67649 2.84796
33 2 7.26802 4.17023 1.99024
34 2 4.32431 2.5445 2.57625
35 2 5.01201 0.625962 4.83559
ITEM: TIMESTEP
14100
ITEM: NUMBER OF ATOMS
35
ITEM: BOX BOUNDS xy xz yz pp pp pp
0.0000000000000000e+00 7.6685730000000003e+00 2.5561910000000001e+00
0.0000000000000000e+00 4.4274529999999999e+00 0.0000000000000000e+00
0.0000000000000000e+00 3.5699264999999997e+01 0.0000000000000000e+00
ITEM: ATOMS id type x y z
1 1 0.336887 0.512903 34.0911
2 1 3.50416 1.90177 35.8292
3 1 3.22412 0.237871 33.0347
4 1 2.32516 2.25185 33.9939
5 1 1.01975 1.82513 0.453599
6 1 4.09484 3.36629 30.2084
7 1 4.98236 4.06067 0.0294071
8 1 4.3234 2.44001 32.7962
9 1 3.15683 0.66478 30.3389
10 1 5.04046 4.08874 28.1553
11 1 6.91568 3.02398 31.5442
12 1 0.963601 1.07009 31.6808
13 1 3.80704 2.14915 28.2227
14 1 0.878516 1.14838 29.1704
15 1 2.19299 3.34495 29.2253
16 2 2.4883 3.80397 14.9784
17 2 2.75459 2.32456 17.0771
18 2 2.65021 0.856346 14.7361
19 2 5.03451 1.04892 16.8829
20 2 7.58726 4.27085 9.82031
21 2 4.89551 2.4506 14.672
22 2 6.29181 3.26195 12.3247
23 2 3.9003 1.85258 12.0944
24 2 6.22812 2.48123 7.34213
25 2 3.63702 0.723987 7.27852
26 2 4.86934 2.86095 9.65834
27 2 1.21128 0.263239 12.6531
28 2 2.45678 1.24576 10.1364
29 2 3.53113 3.74505 7.62983
30 2 2.00335 2.57934 4.37567
31 2 4.68638 3.56534 5.16448
32 2 2.50064 0.484521 2.8111
33 2 7.31902 3.94864 1.78151
34 2 4.497 2.26304 2.66258
35 2 4.78602 0.623987 4.60644
ITEM: TIMESTEP
14200
ITEM: NUMBER OF ATOMS
35
ITEM: BOX BOUNDS xy xz yz pp pp pp
0.0000000000000000e+00 7.6685730000000003e+00 2.5561910000000001e+00
0.0000000000000000e+00 4.4274529999999999e+00 0.0000000000000000e+00
0.0000000000000000e+00 3.5699264999999997e+01 0.0000000000000000e+00
ITEM: ATOMS id type x y z
1 1 0.00303794 0.00296755 34.094
2 1 3.20438 1.42955 0.171839
3 1 3.18705 0.753644 32.3963
4 1 2.00196 2.23967 33.8589
5 1 5.65813 1.66595 -0.0196976
6 1 4.58448 3.01098 30.3352
7 1 4.66814 3.90016 35.4041
8 1 4.95486 3.03834 33.0497
9 1 3.47244 1.03349 30.2184
10 1 5.06558 4.1559 27.7926
11 1 2.29736 2.90495 31.4858
12 1 0.658666 0.683262 31.899
13 1 3.81798 1.87734 28.2063
14 1 0.74925 0.992526 29.3907
15 1 6.9869 3.4124 29.1974
16 2 2.49381 3.66307 15.0023
17 2 2.51824 2.11045 17.3008
18 2 2.38064 0.948741 14.6648
19 2 4.98014 0.860175 17.2068
20 2 7.46101 4.46332 10.1851
21 2 5.09298 2.48172 15.1264
22 2 6.38449 3.27769 12.5338
23 2 3.83606 2.14388 12.704
24 2 6.27736 1.88008 6.97284
25 2 3.48833 0.756191 7.48218
26 2 5.10636 2.81948 9.81689
27 2 0.886128 0.400485 12.3952
28 2 2.5168 1.707 9.96546
29 2 3.49927 3.79929 7.40702
30 2 2.03673 2.44611 4.01511
31 2 4.78605 4.01191 5.06758
32 2 2.4122 0.458298 2.36751
33 2 2.43132 3.67783 1.45129
34 2 5.04216 2.22616 2.47554
35 2 4.78556 0.869088 4.99956
ITEM: TIMESTEP
14300
ITEM: NUMBER OF ATOMS
35
ITEM: BOX BOUNDS xy xz yz pp pp pp
0.0000000000000000e+00 7.6685730000000003e+00 2.5561910000000001e+00
0.0000000000000000e+00 4.4274529999999999e+00 0.0000000000000000e+00
0.0000000000000000e+00 3.5699264999999997e+01 0.0000000000000000e+00
ITEM: ATOMS id type x y z
1 1 7.71378 4.01042 34.056
2 1 3.45377 0.873713 35.4116
3 1 3.72598 1.00708 32.5964
4 1 1.61393 1.89838 33.861
5 1 5.9904 1.24326 36.0856
6 1 5.23059 3.15158 30.0648
7 1 4.21946 3.33325 35.7488
8 1 4.75064 3.12759 32.7775
9 1 3.50855 1.02525 29.9415
10 1 4.80552 4.41062 27.9136
11 1 2.13094 2.83731 31.3084
12 1 0.730212 0.705257 31.9301
13 1 4.10539 1.9789 27.6012
14 1 0.782855 0.972766 29.6137
15 1 2.29241 2.8971 28.5834
16 2 2.47482 4.13209 14.7567
17 2 2.12478 2.06551 17.2416
18 2 2.37373 0.662405 15.1641
19 2 5.04178 0.345921 17.3629
20 2 4.82056 0.275449 10.0695
21 2 5.27617 2.43547 15.6472
22 2 6.01476 3.50371 12.6319
23 2 3.59629 2.0239 12.7581
24 2 1.00513 2.20247 6.95058
25 2 3.75413 0.531156 7.80573
26 2 4.99591 3.14373 10.0419
27 2 1.40356 0.898258 12.3039
28 2 2.25122 1.72069 9.73459
29 2 3.43163 3.19975 7.39751
30 2 2.65604 2.70906 4.2109
31 2 4.79305 4.27525 4.87754
32 2 2.36695 0.4273 2.04928
33 2 2.22068 3.64584 1.39851
34 2 5.10796 1.99911 2.44743
35 2 4.6207 1.09848 4.77698
ITEM: TIMESTEP
14400
ITEM: NUMBER OF ATOMS
35
ITEM: BOX BOUNDS xy xz yz pp pp pp
0.0000000000000000e+00 7.6685730000000003e+00 2.5561910000000001e+00
0.0000000000000000e+00 4.4274529999999999e+00 0.0000000000000000e+00
0.0000000000000000e+00 3.5699264999999997e+01 0.0000000000000000e+00
ITEM: ATOMS id type x y z
1 1 3.26297 3.44702 34.096
2 1 3.61812 0.653518 35.27
3 1 3.35851 0.879092 32.1362
4 1 1.33843 2.05536 33.4408
5 1 1.18327 0.739383 0.178552
6 1 4.6751 3.47995 29.8025
7 1 4.97084 2.85076 -0.047491
8 1 5.06139 2.93493 32.2615
9 1 3.49835 1.3367 29.8488
10 1 2.76416 0.117926 27.8911
11 1 2.10807 3.08835 31.0372
12 1 1.02062 0.717897 31.5634
13 1 5.08701 1.53197 27.7762
14 1 1.04912 0.92875 29.3966
15 1 2.09667 2.83907 28.2959
16 2 2.77926 4.21171 14.5284
17 2 2.30829 1.84596 17.4415
18 2 2.81583 0.673005 15.3106
19 2 4.79327 0.0451016 17.1155
20 2 4.85774 0.40009 10.2214
21 2 4.62838 2.48202 15.8513
22 2 6.02228 3.87262 12.5568
23 2 3.89813 2.26894 12.7015
24 2 6.02266 1.9574 7.19905
25 2 3.7903 0.214909 7.48118
26 2 4.46518 3.33744 10.0418
27 2 1.06066 0.93662 12.361
28 2 2.02155 2.01281 9.7796
29 2 3.60304 3.24201 7.1311
30 2 2.44152 3.08404 4.216
31 2 4.92346 4.41376 4.99915
32 2 2.45179 0.568848 2.59459
33 2 7.07851 3.14602 1.69773
34 2 4.72232 2.02951 2.47009
35 2 4.88041 1.05997 5.03414
ITEM: TIMESTEP
14500
ITEM: NUMBER OF ATOMS
35
ITEM: BOX BOUNDS xy xz yz pp pp pp
0.0000000000000000e+00 7.6685730000000003e+00 2.5561910000000001e+00
0.0000000000000000e+00 4.4274529999999999e+00 0.0000000000000000e+00
0.0000000000000000e+00 3.5699264999999997e+01 0.0000000000000000e+00
ITEM: ATOMS id type x y z
1 1 3.75387 3.75178 33.8831
2 1 4.16435 0.761462 35.1676
3 1 3.35417 0.621681 32.8226
4 1 1.73618 1.46112 34.4756
5 1 1.34776 0.281789 0.522998
6 1 4.98196 3.18519 29.2253
7 1 5.38193 2.76561 35.7126
8 1 4.51273 2.77497 31.7758
9 1 3.71517 0.86127 29.8143
10 1 3.17817 0.292792 27.1592
11 1 1.89778 3.17851 30.7519
12 1 0.549951 0.529647 32.1516
13 1 4.93996 1.97577 27.1469
14 1 1.20986 1.1004 29.1113
15 1 2.505 3.42278 28.3941
16 2 2.91272 3.78519 14.651
17 2 2.28943 1.25143 17.4546
18 2 2.54662 0.966672 14.7179
19 2 4.75434 0.146206 16.8982
20 2 4.33114 0.65306 9.87905
21 2 4.95031 2.77044 16.1323
22 2 6.23063 4.03649 12.4352
23 2 3.62847 2.58655 12.4524
24 2 1.271 1.38014 7.75977
25 2 3.55554 0.200473 7.72374
26 2 4.69096 3.38874 9.79769
27 2 1.04113 1.24716 12.3697
28 2 2.0955 2.31614 9.97827
29 2 3.30017 3.19661 7.19572
30 2 1.8953 2.96742 4.34878
31 2 5.13678 4.30777 5.37761
32 2 2.03323 0.359989 2.8809
33 2 2.36862 3.00924 1.26805
34 2 4.49817 1.88992 2.52318
35 2 5.05957 1.56647 5.07484
ITEM: TIMESTEP
14600
ITEM: NUMBER OF ATOMS
35
ITEM: BOX BOUNDS xy xz yz pp pp pp
0.0000000000000000e+00 7.6685730000000003e+00 2.5561910000000001e+00
0.0000000000000000e+00 4.4274529999999999e+00 0.0000000000000000e+00
0.0000000000000000e+00 3.5699264999999997e+01 0.0000000000000000e+00
ITEM: ATOMS id type x y z
1 1 3.96301 3.14176 34.0223
2 1 4.16672 0.512083 35.5749
3 1 3.2557 -0.106455 32.5673
4 1 1.96012 2.3195 33.9142
5 1 1.65568 0.800224 0.532752
6 1 5.23573 3.24126 29.3643
7 1 5.0977 2.96843 0.468717
8 1 4.14023 2.73048 31.1716
9 1 4.12494 0.742611 29.7945
10 1 3.0394 0.577548 27.4999
11 1 1.8286 2.72835 31.4256
12 1 0.682929 0.883648 32.0546
13 1 4.87139 2.30161 26.9758
14 1 1.52266 1.4146 29.1031
15 1 2.82876 3.50302 28.139
16 2 2.49996 3.69167 14.7113
17 2 2.20273 0.996183 16.7724
18 2 2.32674 1.06358 14.419
19 2 4.8626 0.132388 17.2235
20 2 4.6701 1.07291 10.2772
21 2 5.55054 2.84139 16.247
22 2 6.10096 4.25652 12.3938
23 2 3.67948 2.92332 12.2492
24 2 0.734663 1.33885 7.92364
25 2 3.64289 -0.115001 7.57879
26 2 4.70996 3.8659 9.84188
27 2 1.05471 1.28246 12.1978
28 2 2.18354 2.43774 10.0296
29 2 3.2249 2.62535 7.32062
30 2 2.488 3.10609 4.16515
31 2 2.25173 0.109824 5.50077
32 2 4.37326 4.2405 3.0122
33 2 2.45014 2.95216 1.27712
34 2 4.59464 1.43437 2.45238
35 2 4.58607 1.49109 5.25782
ITEM: TIMESTEP
14700
ITEM: NUMBER OF ATOMS
35
ITEM: BOX BOUNDS xy xz yz pp pp pp
0.0000000000000000e+00 7.6685730000000003e+00 2.5561910000000001e+00
0.0000000000000000e+00 4.4274529999999999e+00 0.0000000000000000e+00
0.0000000000000000e+00 3.5699264999999997e+01 0.0000000000000000e+00
ITEM: ATOMS id type x y z
1 1 3.90502 2.95773 33.9068
2 1 3.90197 0.563937 35.3605
3 1 5.59089 4.97938 32.0064
4 1 6.47419 2.82368 33.9825
5 1 1.35591 0.793675 -0.418543
6 1 5.3398 3.72152 29.6272
7 1 5.12995 2.85155 0.504351
8 1 4.23464 2.69622 31.417
9 1 4.76825 0.879989 29.9685
10 1 3.38776 0.745028 27.7408
11 1 1.62476 2.69397 31.27
12 1 0.334032 0.266889 32.2825
13 1 5.10956 2.32967 27.876
14 1 1.93165 1.22048 29.402
15 1 2.78604 3.43229 28.4503
16 2 2.38709 4.12488 14.9134
17 2 2.66105 1.19491 16.9391
18 2 2.48804 0.716505 14.476
19 2 5.10771 -0.047631 17.3569
20 2 4.61547 1.15825 10.0696
21 2 4.92794 2.61419 15.9309
22 2 6.31824 4.26467 12.0932
23 2 3.6822 3.12455 12.6089
24 2 5.75642 1.15715 7.69381
25 2 6.08876 3.69748 7.46603
26 2 4.62903 4.34119 9.89776
27 2 0.915572 1.72284 12.4326
28 2 2.19537 2.74763 9.61464
29 2 3.4636 2.48634 7.37258
30 2 1.95145 2.80482 4.29867
31 2 1.64676 0.339845 5.63382
32 2 5.09441 4.2353 2.71714
33 2 2.55084 2.87366 1.60472
34 2 4.81836 0.860778 2.49857
35 2 4.6168 1.48704 4.96336
ITEM: TIMESTEP
14800
ITEM: NUMBER OF ATOMS
35
ITEM: BOX BOUNDS xy xz yz pp pp pp
0.0000000000000000e+00 7.6685730000000003e+00 2.5561910000000001e+00
0.0000000000000000e+00 4.4274529999999999e+00 0.0000000000000000e+00
0.0000000000000000e+00 3.5699264999999997e+01 0.0000000000000000e+00
ITEM: ATOMS id type x y z
1 1 3.58677 2.46043 34.1727
2 1 3.67083 0.52738 35.5956
3 1 2.47972 0.70339 32.0466
4 1 5.8857 3.11758 34.0467
5 1 1.12182 0.36686 35.2293
6 1 5.45845 3.81733 29.895
7 1 5.12997 2.77749 0.505109
8 1 4.23922 2.9838 32.0592
9 1 4.82443 0.844303 30.3496
10 1 3.86538 0.45793 27.8654
11 1 6.77085 3.1071 31.8657
12 1 0.204642 0.57432 32.9916
13 1 5.55781 2.29371 28.1161
14 1 2.16948 1.50628 29.721
15 1 3.25475 3.49454 29.0127
16 2 7.49316 4.06613 14.8091
17 2 2.83552 1.56465 17.3148
18 2 2.37081 0.691238 14.7793
19 2 2.9773 4.15729 17.4175
20 2 4.47585 1.77928 9.61956
21 2 4.63599 2.36674 15.3012
22 2 6.5056 4.76001 12.0159
23 2 3.52452 2.94019 12.7604
24 2 1.03055 0.654453 7.63299
25 2 5.88776 3.64778 6.88891
26 2 4.55239 4.40156 10.0327
27 2 6.05798 1.94608 12.7888
28 2 2.08761 3.05795 9.98182
29 2 3.28579 2.31046 7.20147
30 2 1.52843 2.69958 4.60465
31 2 1.61685 -0.112045 4.88366
32 2 5.38555 4.25914 2.65502
33 2 2.63996 2.24326 1.46174
34 2 5.69276 0.966293 2.20787
35 2 3.96097 1.75484 4.68021
ITEM: TIMESTEP
14900
ITEM: NUMBER OF ATOMS
35
ITEM: BOX BOUNDS xy xz yz pp pp pp
0.0000000000000000e+00 7.6685730000000003e+00 2.5561910000000001e+00
0.0000000000000000e+00 4.4274529999999999e+00 0.0000000000000000e+00
0.0000000000000000e+00 3.5699264999999997e+01 0.0000000000000000e+00
ITEM: ATOMS id type x y z
1 1 2.60404 2.00608 34.7117
2 1 4.13936 0.116492 0.141391
3 1 2.65855 0.829751 32.6055
4 1 5.71728 3.43597 34.0161
5 1 1.37764 0.170536 35.3728
6 1 5.66017 3.33475 30.2955
7 1 5.06688 2.36266 0.195168
8 1 3.97014 2.88771 31.8623
9 1 5.05049 1.0868 30.8124
10 1 4.09272 0.377513 28.8106
11 1 6.97938 3.51884 32.1879
12 1 5.12334 1.13249 33.3782
13 1 5.67321 2.1366 28.1121
14 1 2.39661 1.67207 30.1619
15 1 3.63776 3.83328 29.1143
16 2 7.1058 3.64068 14.9246
17 2 2.90004 1.6524 17.1377
18 2 2.08886 0.735573 14.9555
19 2 0.912279 0.0141976 17.1037
20 2 4.61947 2.03636 9.3668
21 2 4.88037 2.10451 15.1955
22 2 3.75938 0.616026 12.2319
23 2 3.74513 3.40651 12.4222
24 2 0.747296 0.552877 7.27932
25 2 5.93438 3.81329 7.2331
26 2 1.84801 0.391748 10.3372
27 2 1.15781 1.85585 12.595
28 2 1.8724 3.11609 9.95482
29 2 3.04065 2.01688 7.11736
30 2 6.51937 2.72467 4.49319
31 2 3.67924 4.25697 4.63517
32 2 5.83921 3.94479 2.44626
33 2 2.91575 2.54085 1.61515
34 2 0.612747 0.745068 2.28726
35 2 3.85603 1.18061 4.29937
ITEM: TIMESTEP
15000
ITEM: NUMBER OF ATOMS
35
ITEM: BOX BOUNDS xy xz yz pp pp pp
0.0000000000000000e+00 7.6685730000000003e+00 2.5561910000000001e+00
0.0000000000000000e+00 4.4274529999999999e+00 0.0000000000000000e+00
0.0000000000000000e+00 3.5699264999999997e+01 0.0000000000000000e+00
ITEM: ATOMS id type x y z
1 1 2.68153 2.38192 35.1294
2 1 4.1021 0.0721809 0.0599798
3 1 2.27149 1.26093 32.6254
4 1 5.31141 3.70597 33.8111
5 1 1.51028 -0.230472 35.9836
6 1 6.04479 3.53724 30.5696
7 1 5.37678 2.08469 0.239932
8 1 4.29023 2.96073 32.016
9 1 5.64837 0.729475 31.0855
10 1 3.92613 0.553426 28.5523
11 1 7.20874 3.41964 32.4416
12 1 5.10166 1.18988 33.5085
13 1 6.07829 1.88618 28.8814
14 1 2.79568 1.86707 30.2515
15 1 3.82497 3.70459 29.1391
16 2 6.98612 3.47836 15.0946
17 2 3.21659 1.81692 16.9869
18 2 2.18895 0.510269 14.3532
19 2 0.889972 0.173461 16.9205
20 2 4.36913 1.90674 9.61578
21 2 4.7925 1.91694 15.0503
22 2 3.92499 0.529095 12.3991
23 2 3.87857 3.7054 12.3468
24 2 0.280404 0.673546 7.18575
25 2 5.5505 3.69299 7.55914
26 2 1.81488 0.765425 9.58546
27 2 1.14788 2.25167 12.1566
28 2 2.09268 3.60678 9.76241
29 2 2.89423 2.09264 6.87817
30 2 6.34606 2.34581 4.90045
31 2 3.73955 3.81799 4.95096
32 2 5.51055 3.5977 2.04146
33 2 3.18998 2.43654 2.18939
34 2 0.76126 0.955511 2.32824
35 2 3.74831 0.994233 4.44201
ITEM: TIMESTEP
15100
ITEM: NUMBER OF ATOMS
35
ITEM: BOX BOUNDS xy xz yz pp pp pp
0.0000000000000000e+00 7.6685730000000003e+00 2.5561910000000001e+00
0.0000000000000000e+00 4.4274529999999999e+00 0.0000000000000000e+00
0.0000000000000000e+00 3.5699264999999997e+01 0.0000000000000000e+00
ITEM: ATOMS id type x y z
1 1 3.00558 2.25173 35.0316
2 1 3.91734 0.245728 0.603137
3 1 2.4831 1.12048 32.7287
4 1 4.90751 3.66398 34.095
5 1 3.63781 4.38607 0.199318
6 1 6.38257 4.02685 30.5598
7 1 5.94431 2.28828 0.299962
8 1 4.83354 2.98637 31.8408
9 1 0.815647 0.662893 31.0785
10 1 4.04293 0.431092 28.1993
11 1 2.24453 3.44606 33.1027
12 1 4.94305 1.36351 33.6568
13 1 6.06677 1.74836 28.8111
14 1 2.81032 1.7703 30.1664
15 1 4.2266 3.69098 29.0171
16 2 7.18831 3.31148 15.0351
17 2 3.23715 1.64231 16.8565
18 2 2.11418 0.556593 14.2475
19 2 1.01529 0.431177 16.614
20 2 4.18488 2.26071 9.96288
21 2 4.683 2.02659 14.4192
22 2 4.24462 0.833648 12.1853
23 2 3.67543 3.41344 12.0344
24 2 5.01357 0.750666 7.09615
25 2 5.05114 3.34919 7.47326
26 2 1.91776 0.974561 9.21004
27 2 6.41793 2.47965 11.9531
28 2 7.27914 3.95121 9.57697
29 2 2.76507 2.13358 7.16038
30 2 6.06862 2.09577 4.99885
31 2 3.97457 3.6188 4.9923
32 2 5.65635 3.73841 2.63498
33 2 3.19878 2.05051 2.37801
34 2 0.771261 0.886308 2.81538
35 2 3.58591 0.576669 4.82396
ITEM: TIMESTEP
15200
ITEM: NUMBER OF ATOMS
35
ITEM: BOX BOUNDS xy xz yz pp pp pp
0.0000000000000000e+00 7.6685730000000003e+00 2.5561910000000001e+00
0.0000000000000000e+00 4.4274529999999999e+00 0.0000000000000000e+00
0.0000000000000000e+00 3.5699264999999997e+01 0.0000000000000000e+00
ITEM: ATOMS id type x y z
1 1 2.90452 2.14197 34.9205
2 1 4.18206 0.384886 0.359082
3 1 3.37894 1.19194 32.1956
4 1 4.77012 4.07473 34.0637
5 1 4.30973 4.13252 0.795928
6 1 6.7449 3.73654 30.4863
7 1 6.111 2.24448 1.00734
8 1 4.82931 2.6669 31.5231
9 1 1.01395 0.754299 31.2529
10 1 4.01966 0.332611 28.5666
11 1 2.11662 3.4169 32.9103
12 1 5.33231 1.24913 33.7741
13 1 5.85678 1.97691 28.7744
14 1 3.18259 1.89504 29.8325
15 1 4.48725 3.9623 29.4579
16 2 2.0029 3.44667 14.6076
17 2 3.70059 1.36135 16.3813
18 2 2.25612 0.797991 14.0028
19 2 0.932652 0.570778 16.2782
20 2 4.6316 2.62121 9.67429
21 2 4.63036 2.40731 14.3555
22 2 3.917 0.657642 11.8628
23 2 3.86303 3.90728 12.1563
24 2 5.02512 0.458046 7.38641
25 2 5.06785 3.50793 7.31952
26 2 1.75444 1.00595 9.91021
27 2 1.4614 2.22895 11.9687
28 2 6.82677 3.8849 9.56735
29 2 2.32912 2.19399 7.37072
30 2 6.3533 1.89189 4.95064
31 2 3.2133 3.35652 4.93654
32 2 5.721 3.5585 3.19112
33 2 3.24866 2.28366 2.37666
34 2 0.29993 0.343615 2.74417
35 2 3.53723 0.569559 5.24117
ITEM: TIMESTEP
15300
ITEM: NUMBER OF ATOMS
35
ITEM: BOX BOUNDS xy xz yz pp pp pp
0.0000000000000000e+00 7.6685730000000003e+00 2.5561910000000001e+00
0.0000000000000000e+00 4.4274529999999999e+00 0.0000000000000000e+00
0.0000000000000000e+00 3.5699264999999997e+01 0.0000000000000000e+00
ITEM: ATOMS id type x y z
1 1 3.26293 2.13437 34.7975
2 1 4.97952 -0.32286 -0.182373
3 1 3.90202 0.913495 32.3609
4 1 4.8297 3.98627 33.8907
5 1 5.07863 4.2152 0.609262
6 1 7.19971 3.85829 30.4362
7 1 6.19615 1.87511 0.570593
8 1 4.47766 3.24696 31.6755
9 1 1.53703 1.13577 31.807
10 1 4.56827 -0.250124 28.1887
11 1 2.10467 3.12281 32.8686
12 1 5.64164 1.73261 33.9664
13 1 5.82153 2.14813 29.4499
14 1 3.46131 1.8659 29.6602
15 1 4.21317 4.28003 29.4757
16 2 7.28695 4.1003 14.4099
17 2 3.59778 1.34559 16.5474
18 2 2.58989 1.19172 14.1486
19 2 1.21231 0.297155 16.1662
20 2 4.24735 2.29624 9.6047
21 2 4.76079 2.68438 14.1397
22 2 3.69406 0.976675 11.9378
23 2 3.77729 3.58738 11.926
24 2 5.36376 0.749615 7.67156
25 2 4.95474 3.56807 6.84468
26 2 1.64016 0.655274 9.89443
27 2 1.33378 2.59485 12.2639
28 2 6.83465 3.66951 9.79654
29 2 2.57428 2.08331 7.92338
30 2 0.707222 1.3342 4.81955
31 2 3.14638 3.29033 5.00806
32 2 5.11412 3.55225 3.20937
33 2 2.97352 1.84201 2.35199
34 2 5.13486 0.430467 2.40888
35 2 3.52411 0.881361 5.3308
ITEM: TIMESTEP
15400
ITEM: NUMBER OF ATOMS
35
ITEM: BOX BOUNDS xy xz yz pp pp pp
0.0000000000000000e+00 7.6685730000000003e+00 2.5561910000000001e+00
0.0000000000000000e+00 4.4274529999999999e+00 0.0000000000000000e+00
0.0000000000000000e+00 3.5699264999999997e+01 0.0000000000000000e+00
ITEM: ATOMS id type x y z
1 1 3.93008 1.33573 35.501
2 1 2.82947 3.55863 35.2901
3 1 3.84058 1.23197 32.35
4 1 4.8275 4.17131 33.8628
5 1 4.98403 4.14065 0.830024
6 1 7.53787 4.22889 30.601
7 1 0.873783 2.21299 0.376048
8 1 4.62387 3.48041 31.4166
9 1 1.72223 1.49995 31.5933
10 1 7.50038 3.49339 28.4364
11 1 2.51719 3.3463 33.0447
12 1 6.25705 1.68653 33.8248
13 1 5.88889 2.47315 29.811
14 1 3.30023 1.66288 29.8696
15 1 4.52692 4.30886 29.0063
16 2 7.516 4.54403 14.396
17 2 3.77133 1.78189 16.7552
18 2 2.12135 1.43604 14.3015
19 2 1.53125 -0.0187018 16.8148
20 2 4.3853 2.06794 9.73017
21 2 4.99123 2.84619 14.9309
22 2 3.95718 0.862179 12.0024
23 2 3.65923 3.86073 12.2835
24 2 5.11127 0.526493 7.32542
25 2 5.33177 3.24219 7.06819
26 2 1.64272 0.545344 9.82549
27 2 6.06709 2.46421 11.8984
28 2 6.56274 3.56834 9.4705
29 2 2.70487 2.18449 7.05225
30 2 6.01047 1.70892 4.84114
31 2 2.63718 3.564 4.7566
32 2 4.88907 3.37527 3.21803
33 2 2.45017 1.80428 2.49611
34 2 5.0096 0.0986665 2.03954
35 2 3.28996 0.655976 5.00772
ITEM: TIMESTEP
15500
ITEM: NUMBER OF ATOMS
35
ITEM: BOX BOUNDS xy xz yz pp pp pp
0.0000000000000000e+00 7.6685730000000003e+00 2.5561910000000001e+00
0.0000000000000000e+00 4.4274529999999999e+00 0.0000000000000000e+00
0.0000000000000000e+00 3.5699264999999997e+01 0.0000000000000000e+00
ITEM: ATOMS id type x y z
1 1 3.88886 0.800337 35.4338
2 1 2.7844 3.20974 35.2135
3 1 4.09183 1.68325 33.0948
4 1 5.42978 3.70864 33.9835
5 1 4.5745 4.43175 0.682488
6 1 7.53103 4.34209 30.44
7 1 5.8861 2.15765 0.510316
8 1 5.31456 3.65368 31.35
9 1 1.48517 1.65345 31.3826
10 1 2.60702 3.23672 28.1766
11 1 3.00684 3.91859 32.9612
12 1 1.22448 1.51776 33.8844
13 1 5.74669 1.94014 29.0487
14 1 3.70519 1.97991 30.2805
15 1 2.1336 0.173042 28.9861
16 2 4.80612 0.138381 15.0156
17 2 3.62252 1.71115 16.8288
18 2 2.44447 1.65674 14.5562
19 2 1.52683 0.333643 17.1347
20 2 4.03831 2.11858 9.51241
21 2 5.2319 3.271 15.0212
22 2 3.59911 0.591101 12.2405
23 2 3.76976 3.7918 12.3511
24 2 5.2987 0.303655 7.11923
25 2 5.07723 3.51607 6.96312
26 2 1.7399 0.558109 9.51826
27 2 6.1324 2.27323 12.1058
28 2 6.8911 3.56029 9.43913
29 2 2.7175 1.83164 7.05432
30 2 5.51763 1.92011 4.97006
31 2 3.1781 3.5064 4.66537
32 2 4.8632 2.86967 2.62323
33 2 2.26352 1.88707 2.5366
34 2 4.58017 0.264572 2.16707
35 2 3.11135 0.586926 4.52633
ITEM: TIMESTEP
15600
ITEM: NUMBER OF ATOMS
35
ITEM: BOX BOUNDS xy xz yz pp pp pp
0.0000000000000000e+00 7.6685730000000003e+00 2.5561910000000001e+00
0.0000000000000000e+00 4.4274529999999999e+00 0.0000000000000000e+00
0.0000000000000000e+00 3.5699264999999997e+01 0.0000000000000000e+00
ITEM: ATOMS id type x y z
1 1 4.06828 0.537171 35.3099
2 1 3.01245 2.81199 35.4339
3 1 4.15432 1.62187 32.9235
4 1 5.78129 3.59965 33.44
5 1 1.40638 0.447132 0.314566
6 1 7.5627 4.48479 30.1364
7 1 5.67623 2.55615 35.4112
8 1 5.58427 4.07657 31.566
9 1 1.18277 1.58392 31.2423
10 1 3.0962 2.88713 28.4341
11 1 2.81795 4.10524 32.3169
12 1 2.08899 1.2476 33.6512
13 1 5.48228 1.91561 28.6414
14 1 3.74881 2.32645 30.7634
15 1 2.79941 0.292152 29.3421
16 2 5.12337 0.139364 14.9991
17 2 3.83791 1.95766 17.0903
18 2 2.69813 1.83436 14.5213
19 2 1.33234 0.854106 17.2005
20 2 4.26981 2.14668 9.58971
21 2 4.92356 3.41421 15.0344
22 2 3.48394 0.551351 12.228
23 2 3.49166 3.43807 12.3187
24 2 5.09868 0.357179 7.2431
25 2 5.22097 3.42981 7.28244
26 2 1.71108 0.630471 9.65154
27 2 1.10568 1.92901 12.3523
28 2 6.85081 3.70383 9.8397
29 2 2.75803 1.81714 7.15228
30 2 5.57392 1.9557 4.82085
31 2 2.98815 3.26568 4.74661
32 2 4.59804 2.99439 1.99611
33 2 2.11365 1.86092 2.23448
34 2 4.47789 0.0770357 2.22047
35 2 3.07494 0.152605 4.60017
ITEM: TIMESTEP
15700
ITEM: NUMBER OF ATOMS
35
ITEM: BOX BOUNDS xy xz yz pp pp pp
0.0000000000000000e+00 7.6685730000000003e+00 2.5561910000000001e+00
0.0000000000000000e+00 4.4274529999999999e+00 0.0000000000000000e+00
0.0000000000000000e+00 3.5699264999999997e+01 0.0000000000000000e+00
ITEM: ATOMS id type x y z
1 1 3.73939 0.372941 35.5022
2 1 2.93004 2.47108 35.2028
3 1 4.62259 1.51319 33.1758
4 1 6.03558 3.54214 33.3658
5 1 1.23066 0.276618 35.1528
6 1 2.6026 4.37019 29.6715
7 1 5.56787 2.52288 0.132569
8 1 2.62376 0.357156 30.9211
9 1 1.56265 2.62799 30.9644
10 1 3.2312 2.60889 28.3367
11 1 3.35902 3.53568 32.5143
12 1 2.05894 0.912795 33.0603
13 1 5.98615 2.57432 28.8206
14 1 4.15614 2.30544 30.7612
15 1 2.25241 0.237339 28.065
16 2 4.99256 0.342124 14.4524
17 2 4.01719 2.44624 17.0786
18 2 2.57293 1.79737 14.8725
19 2 1.38057 1.50017 17.1158
20 2 4.54117 2.16331 10.1086
21 2 5.34552 3.3072 15.0533
22 2 3.50778 0.288304 12.2878
23 2 3.38407 3.17316 12.1998
24 2 5.08086 0.416129 7.34147
25 2 5.45966 2.97726 7.53032
26 2 1.74193 0.83588 9.96885
27 2 5.73237 1.77895 12.4645
28 2 6.76924 3.66167 9.94934
29 2 2.72058 2.09324 7.23744
30 2 5.62627 1.3199 4.38807
31 2 2.81855 3.12519 4.74502
32 2 4.34087 3.38092 2.28096
33 2 1.93135 1.58199 2.13901
34 2 4.58237 0.104177 2.17237
35 2 2.88988 0.159256 4.8877
ITEM: TIMESTEP
15800
ITEM: NUMBER OF ATOMS
35
ITEM: BOX BOUNDS xy xz yz pp pp pp
0.0000000000000000e+00 7.6685730000000003e+00 2.5561910000000001e+00
0.0000000000000000e+00 4.4274529999999999e+00 0.0000000000000000e+00
0.0000000000000000e+00 3.5699264999999997e+01 0.0000000000000000e+00
ITEM: ATOMS id type x y z
1 1 3.58422 0.306819 35.4144
2 1 1.92715 2.38069 35.0815
3 1 5.10471 1.12406 33.349
4 1 5.86909 3.48161 33.188
5 1 3.98592 4.29492 35.3154
6 1 0.375683 0.052475 29.3058
7 1 4.79481 2.1654 0.38974
8 1 2.54903 0.619523 29.8291
9 1 1.97122 3.33044 30.9358
10 1 3.60886 1.94971 28.32
11 1 3.79682 3.38904 32.771
12 1 2.29043 1.4684 32.5208
13 1 6.15929 3.24005 28.4522
14 1 4.83195 2.29542 30.5128
15 1 1.51354 0.202661 27.5095
16 2 5.38347 0.432899 15.06
17 2 3.7865 3.11952 16.8942
18 2 2.86696 1.74687 14.5347
19 2 1.30309 1.623 16.9518
20 2 4.29568 2.12865 9.94444
21 2 5.42546 3.40925 14.8388
22 2 2.77445 0.042778 12.4683
23 2 3.04697 3.11844 12.5527
24 2 5.50495 0.239312 7.25048
25 2 5.16992 3.29436 7.33648
26 2 1.95959 0.788736 9.96344
27 2 5.86978 1.82007 12.4678
28 2 7.20933 3.68034 9.68222
29 2 2.90436 1.54289 7.59019
30 2 5.34191 1.43133 4.64449
31 2 2.78323 2.74715 4.87864
32 2 4.54891 3.25055 2.81239
33 2 2.06356 1.65904 1.9897
34 2 4.26561 0.291377 2.2031
35 2 2.79022 0.060409 5.17649
ITEM: TIMESTEP
15900
ITEM: NUMBER OF ATOMS
35
ITEM: BOX BOUNDS xy xz yz pp pp pp
0.0000000000000000e+00 7.6685730000000003e+00 2.5561910000000001e+00
0.0000000000000000e+00 4.4274529999999999e+00 0.0000000000000000e+00
0.0000000000000000e+00 3.5699264999999997e+01 0.0000000000000000e+00
ITEM: ATOMS id type x y z
1 1 3.35103 -0.100518 35.505
2 1 1.93237 2.11565 35.0767
3 1 5.36821 1.23492 33.3916
4 1 6.34246 3.69152 32.9663
5 1 3.13112 4.54629 0.666191
6 1 0.657393 0.0883368 28.9057
7 1 4.32444 2.19953 0.450043
8 1 2.60961 0.601826 29.843
9 1 7.07227 3.50189 30.7448
10 1 4.26686 1.8039 28.0245
11 1 3.53864 3.28865 32.5926
12 1 2.44708 1.19415 32.1428
13 1 5.89264 3.23261 28.2318
14 1 4.72334 2.64851 30.6496
15 1 2.01331 0.789398 27.0238
16 2 0.348365 0.387314 14.7848
17 2 3.583 3.26369 16.9981
18 2 3.32168 1.72724 14.7148
19 2 1.45348 1.91911 17.1036
20 2 4.59177 2.19199 9.87844
21 2 5.61994 3.31206 14.9045
22 2 2.90639 0.115754 12.2134
23 2 2.62356 3.51297 12.2711
24 2 0.432163 0.0920043 7.2281
25 2 5.45286 2.79708 7.51672
26 2 1.76384 0.587469 9.91523
27 2 5.32412 1.59991 12.244
28 2 7.04209 3.74663 9.73756
29 2 3.06409 1.35986 7.4965
30 2 5.21842 1.54369 5.11237
31 2 2.46753 2.85728 5.09026
32 2 4.56548 3.17109 2.8078
33 2 1.96364 1.93876 2.22031
34 2 4.37219 0.0436981 2.51212
35 2 2.88588 0.0713173 4.83519
ITEM: TIMESTEP
16000
ITEM: NUMBER OF ATOMS
35
ITEM: BOX BOUNDS xy xz yz pp pp pp
0.0000000000000000e+00 7.6685730000000003e+00 2.5561910000000001e+00
0.0000000000000000e+00 4.4274529999999999e+00 0.0000000000000000e+00
0.0000000000000000e+00 3.5699264999999997e+01 0.0000000000000000e+00
ITEM: ATOMS id type x y z
1 1 5.83478 3.98995 0.552637
2 1 2.15708 2.09869 34.7585
3 1 4.99984 1.32123 33.4587
4 1 6.51838 3.65642 33.0329
5 1 0.597244 0.262251 0.0350268
6 1 3.54227 4.14344 28.399
7 1 4.22988 1.93862 -0.0426813
8 1 2.76174 1.00762 29.6575
9 1 7.03576 3.3616 30.5149
10 1 4.75989 2.16638 27.9788
11 1 3.80321 3.59687 33.559
12 1 2.3467 1.11911 32.6653
13 1 6.49045 3.3801 28.042
14 1 4.64051 2.23406 30.3523
15 1 2.07957 1.23912 27.2847
16 2 0.891293 0.144068 14.2228
17 2 3.83678 3.39436 17.0386
18 2 3.1135 1.93317 14.9353
19 2 1.27472 1.86989 16.9927
20 2 4.10061 2.26926 9.75839
21 2 5.9914 3.28831 14.8718
22 2 2.77525 0.385539 12.3563
23 2 2.81142 2.83341 12.0557
24 2 3.14648 4.01192 7.63119
25 2 5.93567 2.65014 7.41603
26 2 1.67449 0.814207 9.6445
27 2 5.16932 2.03576 12.5173
28 2 6.51366 3.65542 9.82195
29 2 3.09273 1.34972 7.26275
30 2 5.25851 1.65769 4.99011
31 2 2.58107 3.17663 5.01189
32 2 4.21197 2.93664 2.5394
33 2 1.71636 1.6297 2.56399
34 2 4.47494 0.300521 2.96863
35 2 2.43505 0.241748 5.07914
ITEM: TIMESTEP
16100
ITEM: NUMBER OF ATOMS
35
ITEM: BOX BOUNDS xy xz yz pp pp pp
0.0000000000000000e+00 7.6685730000000003e+00 2.5561910000000001e+00
0.0000000000000000e+00 4.4274529999999999e+00 0.0000000000000000e+00
0.0000000000000000e+00 3.5699264999999997e+01 0.0000000000000000e+00
ITEM: ATOMS id type x y z
1 1 5.90051 3.53382 0.825022
2 1 1.63741 1.93041 35.1961
3 1 4.71149 1.47625 33.0357
4 1 6.31371 3.16608 32.9591
5 1 0.866708 -0.116318 36.156
6 1 4.1397 3.51994 28.8582
7 1 4.13976 1.7633 0.0735752
8 1 2.19335 1.03563 29.9892
9 1 2.3803 3.50855 30.6399
10 1 5.15447 1.61525 28.2544
11 1 4.39423 3.75585 33.6545
12 1 2.48833 1.33006 32.1291
13 1 6.55174 4.31279 28.0778
14 1 5.01188 2.32321 30.8576
15 1 2.50145 1.75582 27.5401
16 2 1.0443 0.0626967 14.4025
17 2 4.1813 3.64585 16.5919
18 2 3.41236 1.5893 15.0397
19 2 0.784531 1.58827 16.7899
20 2 3.70843 2.21532 9.64342
21 2 6.35202 3.5895 14.8664
22 2 2.93175 0.219525 12.1541
23 2 2.74463 3.26602 12.0737
24 2 3.43459 4.09872 7.59209
25 2 5.85445 2.7281 7.41634
26 2 1.17615 1.05107 10.1126
27 2 5.52687 1.87129 12.6491
28 2 6.15243 3.89518 9.8858
29 2 3.64266 0.856723 7.21061
30 2 4.98577 2.02759 4.99394
31 2 2.53371 3.01733 4.88825
32 2 3.89614 3.11871 2.37852
33 2 1.66914 1.36344 2.30655
34 2 4.24078 0.289806 2.86794
35 2 2.13614 0.296082 5.0081
ITEM: TIMESTEP
16200
ITEM: NUMBER OF ATOMS
35
ITEM: BOX BOUNDS xy xz yz pp pp pp
0.0000000000000000e+00 7.6685730000000003e+00 2.5561910000000001e+00
0.0000000000000000e+00 4.4274529999999999e+00 0.0000000000000000e+00
0.0000000000000000e+00 3.5699264999999997e+01 0.0000000000000000e+00
ITEM: ATOMS id type x y z
1 1 5.49785 3.53453 0.332123
2 1 1.87204 1.6649 34.5409
3 1 4.98916 1.13679 33.3931
4 1 6.92699 3.42862 32.783
5 1 2.7489 3.50008 0.0168428
6 1 4.13398 3.48693 29.448
7 1 4.08188 1.24295 35.6096
8 1 2.71671 1.29919 30.328
9 1 0.149029 0.144255 30.8868
10 1 5.7219 1.20535 28.5278
11 1 3.95533 3.72935 33.4876
12 1 2.62825 0.948674 32.4067
13 1 6.37406 3.97241 28.7696
14 1 5.09603 2.26412 31.1707
15 1 2.8613 2.19041 27.8209
16 2 1.38333 0.249987 14.3285
17 2 4.38669 3.74294 16.9054
18 2 3.59342 1.64549 14.7952
19 2 5.5553 1.25902 16.5141
20 2 3.48599 2.52402 9.84804
21 2 6.69155 3.19049 14.9846
22 2 3.09364 0.525035 12.2851
23 2 3.06212 3.47871 12.1575
24 2 3.89435 4.10104 7.23361
25 2 6.33947 2.18288 7.52566
26 2 0.568975 0.950782 10.1306
27 2 5.18009 2.06499 12.6826
28 2 5.93805 3.95304 9.54365
29 2 3.81659 0.914087 7.10541
30 2 4.72388 1.94759 4.87738
31 2 1.94537 3.0985 5.06701
32 2 3.80884 3.06322 2.76482
33 2 1.54803 1.73089 1.96331
34 2 3.90536 0.179589 2.90981
35 2 2.11892 0.396296 4.80129
ITEM: TIMESTEP
16300
ITEM: NUMBER OF ATOMS
35
ITEM: BOX BOUNDS xy xz yz pp pp pp
0.0000000000000000e+00 7.6685730000000003e+00 2.5561910000000001e+00
0.0000000000000000e+00 4.4274529999999999e+00 0.0000000000000000e+00
0.0000000000000000e+00 3.5699264999999997e+01 0.0000000000000000e+00
ITEM: ATOMS id type x y z
1 1 4.9323 3.83714 35.5239
2 1 2.00182 1.47783 35.0853
3 1 5.16889 0.798126 33.668
4 1 1.82484 3.0367 33.2362
5 1 2.59954 3.68569 0.407994
6 1 4.32891 4.03242 29.4017
7 1 4.20808 1.36867 0.405892
8 1 3.38167 1.66818 30.1996
9 1 5.24133 0.462199 31.349
10 1 5.59674 1.43111 28.7073
11 1 3.89441 3.04698 33.5217
12 1 2.86215 0.68708 32.5501
13 1 6.79824 3.43231 29.5294
14 1 5.22272 3.01934 31.2467
15 1 2.76876 1.86787 28.0098
16 2 1.56928 0.0637972 14.4875
17 2 4.91282 3.67776 16.9634
18 2 3.86824 1.70172 14.7657
19 2 5.17398 1.00593 16.7939
20 2 3.13826 2.55395 9.51402
21 2 6.58699 3.37542 15.0137
22 2 3.05283 0.863299 11.9484
23 2 2.63731 3.55861 12.2254
24 2 4.13528 3.42708 7.08196
25 2 1.50913 2.05054 7.58355
26 2 0.622562 0.923206 9.77998
27 2 5.58621 2.58061 12.5159
28 2 5.60213 3.98342 9.71307
29 2 3.93258 0.864392 7.41596
30 2 4.72419 1.72808 4.82453
31 2 7.03205 3.5487 5.22888
32 2 3.79558 3.08998 2.55095
33 2 1.08074 1.71262 1.94065
34 2 6.44809 4.36875 2.3851
35 2 1.80972 0.512004 4.52482
ITEM: TIMESTEP
16400
ITEM: NUMBER OF ATOMS
35
ITEM: BOX BOUNDS xy xz yz pp pp pp
0.0000000000000000e+00 7.6685730000000003e+00 2.5561910000000001e+00
0.0000000000000000e+00 4.4274529999999999e+00 0.0000000000000000e+00
0.0000000000000000e+00 3.5699264999999997e+01 0.0000000000000000e+00
ITEM: ATOMS id type x y z
1 1 5.64249 3.95594 0.126145
2 1 1.65428 1.6118 0.0339053
3 1 5.39276 0.445979 33.553
4 1 6.5284 2.6141 33.5042
5 1 2.89094 4.01382 0.345287
6 1 4.4407 4.34168 28.9703
7 1 4.11591 1.90776 35.5751
8 1 3.25566 1.50325 30.7785
9 1 0.889409 0.418631 31.1982
10 1 5.09904 2.02391 29.2903
11 1 3.91743 2.81441 33.3877
12 1 2.63573 0.810867 32.9659
13 1 2.08686 3.4843 29.9611
14 1 5.16671 3.06885 31.318
15 1 3.12037 1.94524 28.2001
16 2 1.37683 0.363853 14.6562
17 2 5.22731 3.82204 16.9318
18 2 4.06821 1.77365 14.5206
19 2 5.02675 0.671691 17.1098
20 2 2.98783 2.48471 9.6435
21 2 6.87174 3.16661 14.8595
22 2 2.88158 1.3406 12.0101
23 2 2.98217 4.27139 12.186
24 2 4.26958 3.56327 6.99759
25 2 1.38512 1.82795 7.11692
26 2 5.54478 1.0342 9.79469
27 2 5.38108 2.2943 12.0858
28 2 5.32093 3.7672 9.81172
29 2 4.28945 0.0605832 7.57051
30 2 4.46457 2.10699 4.65264
31 2 7.03681 3.41709 4.88605
32 2 3.55648 2.90237 2.28563
33 2 0.946566 1.34927 2.35753
34 2 6.15754 4.3037 2.52912
35 2 2.16217 0.678966 4.52648
ITEM: TIMESTEP
16500
ITEM: NUMBER OF ATOMS
35
ITEM: BOX BOUNDS xy xz yz pp pp pp
0.0000000000000000e+00 7.6685730000000003e+00 2.5561910000000001e+00
0.0000000000000000e+00 4.4274529999999999e+00 0.0000000000000000e+00
0.0000000000000000e+00 3.5699264999999997e+01 0.0000000000000000e+00
ITEM: ATOMS id type x y z
1 1 5.44978 3.70856 0.214218
2 1 1.97533 2.32016 35.6726
3 1 4.86407 0.866056 33.1767
4 1 6.44857 2.65844 33.4158
5 1 3.11768 4.14477 -0.258762
6 1 4.60016 4.17319 29.0777
7 1 4.45561 1.79921 35.58
8 1 3.62333 1.45426 30.9969
9 1 1.13422 0.825675 31.358
10 1 5.82622 1.81292 29.1949
11 1 3.72403 2.75396 33.07
12 1 2.35341 0.512715 33.7948
13 1 1.98737 4.00544 29.998
14 1 5.4073 3.32131 31.3993
15 1 2.98913 2.24898 28.7047
16 2 1.72931 0.41328 14.6643
17 2 5.19097 3.9367 16.7204
18 2 4.31719 1.70471 14.6676
19 2 5.19825 0.595078 16.7264
20 2 2.62589 2.40541 9.5461
21 2 1.65837 3.19075 14.596
22 2 2.66018 1.26423 12.3745
23 2 2.93111 3.98731 12.1901
24 2 4.24315 3.10713 7.36018
25 2 1.59562 1.72715 7.16997
26 2 5.31967 1.01945 9.52202
27 2 5.43678 3.06952 12.2895
28 2 5.43991 4.07444 9.65999
29 2 6.72036 4.54693 7.15619
30 2 4.62479 2.18081 4.85982
31 2 2.1485 3.53456 4.58389
32 2 3.1608 2.44077 2.26786
33 2 0.702091 1.17197 2.69166
34 2 5.84307 4.2359 2.34184
35 2 2.32975 0.444045 4.97274
ITEM: TIMESTEP
16600
ITEM: NUMBER OF ATOMS
35
ITEM: BOX BOUNDS xy xz yz pp pp pp
0.0000000000000000e+00 7.6685730000000003e+00 2.5561910000000001e+00
0.0000000000000000e+00 4.4274529999999999e+00 0.0000000000000000e+00
0.0000000000000000e+00 3.5699264999999997e+01 0.0000000000000000e+00
ITEM: ATOMS id type x y z
1 1 5.72642 3.89076 -0.0607671
2 1 1.73445 1.55612 0.0607349
3 1 4.35523 0.682384 33.2488
4 1 5.71528 2.85388 33.5386
5 1 3.07234 3.80858 35.5258
6 1 4.96235 4.16788 29.0126
7 1 4.41322 1.65326 35.9214
8 1 4.0083 1.74632 31.4791
9 1 1.5613 1.41391 31.1062
10 1 5.73212 1.82057 28.9793
11 1 3.2001 3.24161 32.9606
12 1 2.08525 0.785281 33.4144
13 1 7.661 4.13596 29.9594
14 1 5.69061 3.85638 31.3524
15 1 3.27224 1.96777 29.178
16 2 1.7201 0.186861 14.1715
17 2 5.39847 3.64379 16.886
18 2 4.13323 1.9773 14.4594
19 2 5.56291 0.660866 16.5967
20 2 2.5892 2.75608 10.0151
21 2 6.87716 3.50653 14.7207
22 2 2.90853 1.33279 11.9471
23 2 2.6843 4.29933 12.0246
24 2 4.0697 2.81842 7.74383
25 2 1.60758 1.8562 7.37419
26 2 5.27478 1.11414 9.8227
27 2 5.35854 2.5956 12.1572
28 2 5.34943 4.29744 9.5308
29 2 3.97608 0.217829 6.89268
30 2 4.91179 1.88469 4.96712
31 2 2.56127 3.46251 4.71464
32 2 3.1733 2.44458 2.46076
33 2 0.557149 0.969403 2.28399
34 2 5.55383 3.8628 2.60113
35 2 2.12189 0.393144 4.89192
ITEM: TIMESTEP
16700
ITEM: NUMBER OF ATOMS
35
ITEM: BOX BOUNDS xy xz yz pp pp pp
0.0000000000000000e+00 7.6685730000000003e+00 2.5561910000000001e+00
0.0000000000000000e+00 4.4274529999999999e+00 0.0000000000000000e+00
0.0000000000000000e+00 3.5699264999999997e+01 0.0000000000000000e+00
ITEM: ATOMS id type x y z
1 1 5.53279 4.0145 0.223753
2 1 1.69155 1.31714 35.5375
3 1 4.32835 0.366791 34.0252
4 1 4.6581 3.48473 33.9359
5 1 3.04942 3.69378 0.054683
6 1 4.96144 4.14897 28.9897
7 1 4.33124 1.51863 0.150502
8 1 4.71049 2.26628 31.0489
9 1 1.89189 2.01502 30.9269
10 1 5.96219 1.98083 28.6548
11 1 2.57674 2.98343 32.8599
12 1 1.83242 0.835086 33.1091
13 1 3.19835 4.10015 30.646
14 1 5.80669 4.38034 31.4927
15 1 3.4084 1.91688 28.7839
16 2 1.86013 0.569463 14.2743
17 2 5.50711 3.47526 16.7018
18 2 4.033 1.94175 14.7144
19 2 0.905432 0.858263 16.4027
20 2 2.53069 3.26527 9.77186
21 2 6.78613 3.2799 14.6009
22 2 2.85676 1.06225 11.9948
23 2 2.70731 4.08464 12.3792
24 2 3.86754 3.27981 7.38102
25 2 1.26516 1.54714 7.29114
26 2 5.36423 1.52586 9.43232
27 2 5.36868 2.80757 11.9794
28 2 5.20247 4.44111 9.68113
29 2 6.61505 4.29472 7.29235
30 2 4.97708 2.04007 4.85675
31 2 2.43427 3.08532 5.07623
32 2 3.11768 2.26888 2.52103
33 2 0.545727 0.542652 2.26934
34 2 5.67301 3.38446 2.55093
35 2 2.26396 0.446994 4.92828
ITEM: TIMESTEP
16800
ITEM: NUMBER OF ATOMS
35
ITEM: BOX BOUNDS xy xz yz pp pp pp
0.0000000000000000e+00 7.6685730000000003e+00 2.5561910000000001e+00
0.0000000000000000e+00 4.4274529999999999e+00 0.0000000000000000e+00
0.0000000000000000e+00 3.5699264999999997e+01 0.0000000000000000e+00
ITEM: ATOMS id type x y z
1 1 5.27289 4.16724 0.378198
2 1 1.8101 1.84727 35.3729
3 1 3.23477 0.52175 33.755
4 1 4.6735 2.47508 33.8913
5 1 2.61684 4.18199 0.0651447
6 1 5.22829 4.12899 29.3578
7 1 4.5442 1.56108 0.807268
8 1 4.93496 2.54437 31.1035
9 1 2.57088 2.34519 30.4039
10 1 6.02961 1.51759 28.7034
11 1 2.57087 3.00838 32.6909
12 1 0.866721 1.30189 32.9429
13 1 0.767606 0.184774 30.515
14 1 3.66515 0.250538 31.3495
15 1 3.93135 2.27171 28.4053
16 2 1.95865 0.467203 14.2862
17 2 5.59075 3.81363 16.7376
18 2 4.33682 1.85027 15.1171
19 2 0.871616 0.806225 16.8746
20 2 2.6288 3.15288 9.52768
21 2 6.67591 3.24501 14.3365
22 2 2.90576 1.53758 11.9352
23 2 2.96945 4.05973 12.1141
24 2 4.08908 2.9548 7.02907
25 2 1.35908 1.37393 6.84493
26 2 4.92993 1.92902 9.74842
27 2 5.2924 2.8534 12.1171
28 2 2.32229 0.246934 9.6833
29 2 3.70365 0.140975 7.46302
30 2 4.73501 1.78218 4.77204
31 2 2.24406 3.428 4.99636
32 2 2.87947 1.47049 2.50121
33 2 0.629617 0.0859782 2.85153
34 2 6.00357 3.15322 2.68967
35 2 2.68175 0.243451 4.71901
ITEM: TIMESTEP
16900
ITEM: NUMBER OF ATOMS
35
ITEM: BOX BOUNDS xy xz yz pp pp pp
0.0000000000000000e+00 7.6685730000000003e+00 2.5561910000000001e+00
0.0000000000000000e+00 4.4274529999999999e+00 0.0000000000000000e+00
0.0000000000000000e+00 3.5699264999999997e+01 0.0000000000000000e+00
ITEM: ATOMS id type x y z
1 1 5.42628 4.44504 0.254543
2 1 1.28136 2.06999 35.1746
3 1 3.34744 0.463564 33.7745
4 1 4.14545 2.65209 34.2522
5 1 2.54962 4.11854 35.9061
6 1 6.332 4.28695 28.8641
7 1 4.35393 2.20515 0.829913
8 1 5.03827 2.67939 31.3085
9 1 2.22966 2.34887 30.3086
10 1 1.3249 1.54811 28.2297
11 1 2.08626 2.88713 32.9997
12 1 0.911565 0.585187 32.5735
13 1 1.07143 0.149629 30.2552
14 1 3.67961 0.634639 31.4236
15 1 3.89584 2.66453 28.5921
16 2 1.56733 0.257942 14.4529
17 2 5.93633 4.17416 16.8569
18 2 4.25937 1.91034 14.9993
19 2 0.668119 0.673276 16.8617
20 2 2.16594 3.03025 9.26917
21 2 2.05433 3.33966 14.7035
22 2 2.94886 1.65483 12.1581
23 2 0.471037 0.34729 11.7376
24 2 4.12088 2.77995 7.20557
25 2 1.29157 1.51822 7.18909
26 2 4.84697 1.80944 9.65006
27 2 5.6553 2.8628 12.3938
28 2 2.01857 0.38625 9.63042
29 2 3.89966 0.113821 7.46061
30 2 4.79159 1.61382 4.33048
31 2 2.41415 3.17796 5.30263
32 2 2.96373 1.18102 2.29955
33 2 3.33246 3.97431 2.50127
34 2 6.11375 2.91373 2.62811
35 2 2.15136 0.37329 4.95786
ITEM: TIMESTEP
17000
ITEM: NUMBER OF ATOMS
35
ITEM: BOX BOUNDS xy xz yz pp pp pp
0.0000000000000000e+00 7.6685730000000003e+00 2.5561910000000001e+00
0.0000000000000000e+00 4.4274529999999999e+00 0.0000000000000000e+00
0.0000000000000000e+00 3.5699264999999997e+01 0.0000000000000000e+00
ITEM: ATOMS id type x y z
1 1 4.97747 4.19716 -0.0619521
2 1 1.62602 1.98114 35.4769
3 1 3.59906 0.366007 33.4103
4 1 4.34805 2.80254 33.3324
5 1 5.0009 -0.050959 -0.302615
6 1 7.01484 4.36462 28.7543
7 1 3.98139 2.10132 0.0242172
8 1 4.73435 3.0712 31.0264
9 1 1.9676 2.69218 30.5426
10 1 1.68699 1.93792 28.2302
11 1 1.84128 2.50906 32.812
12 1 0.773586 0.220569 32.8522
13 1 1.2693 0.441151 30.232
14 1 3.67883 0.699492 30.8627
15 1 4.27326 2.20355 29.053
16 2 1.93434 0.458276 14.2436
17 2 5.68539 4.2725 16.8636
18 2 4.45522 1.89858 14.7683
19 2 0.852121 0.81712 16.7196
20 2 1.96259 3.12568 9.83031
21 2 1.84142 3.08904 14.9399
22 2 3.1779 1.83668 12.4128
23 2 0.326953 0.130859 12.0146
24 2 4.05831 3.25808 7.28526
25 2 1.20096 1.34188 7.46782
26 2 4.38762 1.75398 9.70546
27 2 5.74761 3.53601 12.4668
28 2 2.29778 -0.034632 9.74918
29 2 3.90858 0.188767 7.06047
30 2 4.75033 1.34229 4.5567
31 2 2.12918 2.90098 5.0726
32 2 3.0331 1.15029 2.61937
33 2 3.59918 3.93854 2.33252
34 2 6.10885 2.91591 2.55562
35 2 2.02313 0.0923067 4.90836
ITEM: TIMESTEP
17100
ITEM: NUMBER OF ATOMS
35
ITEM: BOX BOUNDS xy xz yz pp pp pp
0.0000000000000000e+00 7.6685730000000003e+00 2.5561910000000001e+00
0.0000000000000000e+00 4.4274529999999999e+00 0.0000000000000000e+00
0.0000000000000000e+00 3.5699264999999997e+01 0.0000000000000000e+00
ITEM: ATOMS id type x y z
1 1 4.93762 4.08441 35.6501
2 1 1.17642 1.77883 -0.00609729
3 1 2.82718 0.0630726 33.1843
4 1 5.02842 2.17401 33.5122
5 1 2.7437 4.2241 34.8827
6 1 7.2653 4.14534 28.153
7 1 3.86977 1.68622 35.7359
8 1 4.90316 3.22867 31.1646
9 1 2.60186 3.38282 30.6877
10 1 2.14051 1.55062 28.5781
11 1 2.17162 2.70124 33.222
12 1 0.42718 0.209153 32.5618
13 1 0.933247 1.48116 30.5551
14 1 3.56958 0.983791 30.967
15 1 4.55654 2.17471 28.4782
16 2 2.03791 0.35268 14.479
17 2 5.59592 4.20389 16.7535
18 2 4.55906 1.78379 14.5967
19 2 0.600249 1.24107 16.8009
20 2 2.09628 3.02351 10.0611
21 2 2.14231 3.14452 14.9822
22 2 3.19837 2.26306 12.2831
23 2 0.607325 0.692776 12.256
24 2 3.824 2.97822 7.26367
25 2 1.40772 1.8767 7.61639
26 2 4.38569 1.3607 9.9606
27 2 5.64919 3.21289 12.2218
28 2 4.4702 4.43356 10.0649
29 2 3.68848 0.30296 7.14208
30 2 4.83022 1.27902 4.89899
31 2 1.99215 2.59008 4.77366
32 2 3.60076 1.29187 2.33063
33 2 3.18583 4.16917 2.16502
34 2 5.79465 2.69699 2.31792
35 2 4.59817 4.00439 4.71589
ITEM: TIMESTEP
17200
ITEM: NUMBER OF ATOMS
35
ITEM: BOX BOUNDS xy xz yz pp pp pp
0.0000000000000000e+00 7.6685730000000003e+00 2.5561910000000001e+00
0.0000000000000000e+00 4.4274529999999999e+00 0.0000000000000000e+00
0.0000000000000000e+00 3.5699264999999997e+01 0.0000000000000000e+00
ITEM: ATOMS id type x y z
1 1 5.41222 3.77083 0.34395
2 1 1.38447 1.63959 35.5347
3 1 5.60869 4.48586 33.886
4 1 4.68953 2.31237 33.231
5 1 2.29268 3.86479 35.1803
6 1 7.49265 4.18636 28.1164
7 1 3.76276 1.83392 35.6112
8 1 5.1123 3.81393 31.0714
9 1 2.51433 3.59403 30.3624
10 1 2.86063 0.494999 28.7157
11 1 2.25168 2.04934 32.8381
12 1 0.44805 0.124225 32.4104
13 1 0.938188 1.53497 30.2641
14 1 3.71725 1.65064 30.9182
15 1 4.77481 2.91338 28.9231
16 2 2.08515 0.169454 14.4795
17 2 5.6473 4.14208 16.8754
18 2 4.62523 1.67971 14.6857
19 2 5.53098 1.53175 17.0395
20 2 1.94473 2.80274 9.80217
21 2 2.43435 3.36412 15.0441
22 2 3.04061 2.15904 12.43
23 2 0.58459 0.7454 12.3428
24 2 3.67679 3.27696 7.28691
25 2 1.06466 1.72559 7.38237
26 2 4.5137 1.35275 9.67582
27 2 5.94373 4.04561 12.3109
28 2 1.76671 -0.0361132 9.76052
29 2 3.43143 0.0966113 7.68461
30 2 4.80918 0.860232 4.96781
31 2 2.41911 2.42981 4.77184
32 2 3.12747 1.34134 2.44945
33 2 3.05894 4.2334 1.80609
34 2 5.86298 2.70829 2.41949
35 2 4.70801 3.8549 4.44069
ITEM: TIMESTEP
17300
ITEM: NUMBER OF ATOMS
35
ITEM: BOX BOUNDS xy xz yz pp pp pp
0.0000000000000000e+00 7.6685730000000003e+00 2.5561910000000001e+00
0.0000000000000000e+00 4.4274529999999999e+00 0.0000000000000000e+00
0.0000000000000000e+00 3.5699264999999997e+01 0.0000000000000000e+00
ITEM: ATOMS id type x y z
1 1 5.2947 4.0556 0.422562
2 1 1.44205 1.74161 35.4648
3 1 3.18327 0.508698 33.4947
4 1 4.55416 2.50099 33.3882
5 1 2.94061 3.41061 35.0661
6 1 3.09668 4.51063 27.8746
7 1 4.15339 1.69581 0.335456
8 1 5.08385 4.3174 31.4073
9 1 2.30389 3.65707 30.2959
10 1 3.59984 0.703338 28.9321
11 1 1.5574 2.09255 31.9924
12 1 3.02882 4.42518 32.8676
13 1 1.35927 1.18639 29.6507
14 1 4.38929 1.49694 31.1343
15 1 4.08583 2.92827 28.9878
16 2 2.15633 0.370856 14.6707
17 2 5.51833 4.32466 17.0457
18 2 4.78017 1.82812 14.6497
19 2 5.73852 1.37343 17.161
20 2 1.84561 2.64385 9.90306
21 2 2.19166 3.23477 15.3671
22 2 3.34875 2.75511 12.2814
23 2 0.768115 0.849064 11.8775
24 2 3.31614 3.19163 7.25256
25 2 5.67103 1.57168 6.82665
26 2 4.39321 1.67476 9.7421
27 2 5.80472 4.00041 12.1296
28 2 4.59249 4.23453 9.84817
29 2 3.41744 0.191323 7.26939
30 2 4.66137 0.417032 4.59978
31 2 2.50549 2.19892 5.1098
32 2 3.03445 1.12223 2.42718
33 2 2.97907 4.04213 2.17482
34 2 5.74987 2.582 2.6939
35 2 4.79539 3.96681 4.76385
ITEM: TIMESTEP
17400
ITEM: NUMBER OF ATOMS
35
ITEM: BOX BOUNDS xy xz yz pp pp pp
0.0000000000000000e+00 7.6685730000000003e+00 2.5561910000000001e+00
0.0000000000000000e+00 4.4274529999999999e+00 0.0000000000000000e+00
0.0000000000000000e+00 3.5699264999999997e+01 0.0000000000000000e+00
ITEM: ATOMS id type x y z
1 1 5.86057 3.75257 0.0457097
2 1 1.91638 1.42368 35.5119
3 1 2.90526 0.93338 33.5038
4 1 5.13816 2.8223 33.7674
5 1 3.42265 3.89744 35.498
6 1 0.830932 0.5351 27.3131
7 1 4.60069 1.25733 0.442826
8 1 4.86762 4.0651 31.2647
9 1 2.6558 3.60121 30.3609
10 1 3.63513 0.375049 28.764
11 1 1.62278 2.41047 32.3945
12 1 0.256722 -0.0318432 32.8436
13 1 1.47054 1.5815 29.7858
14 1 4.12348 1.63457 31.1531
15 1 4.93115 2.94243 29.0452
16 2 2.01225 0.639315 14.4269
17 2 3.01501 0.0569315 16.9443
18 2 4.71002 1.96387 14.6257
19 2 0.640916 1.19716 16.9539
20 2 1.82228 2.99875 9.71319
21 2 2.26216 3.15745 15.5213
22 2 3.41687 2.77782 12.4735
23 2 0.849824 1.36435 11.9527
24 2 3.10089 3.01248 7.68453
25 2 5.59412 1.94955 7.10347
26 2 4.38472 1.18965 9.67069
27 2 6.14882 3.8985 12.4803
28 2 1.95726 0.104426 9.31129
29 2 3.29353 0.202247 7.0687
30 2 4.82488 0.560576 4.63894
31 2 2.32707 2.03463 4.81773
32 2 2.89924 0.877582 2.35179
33 2 3.00795 3.49942 2.10237
34 2 5.25922 2.46804 2.68958
35 2 4.36545 3.47627 5.12946
ITEM: TIMESTEP
17500
ITEM: NUMBER OF ATOMS
35
ITEM: BOX BOUNDS xy xz yz pp pp pp
0.0000000000000000e+00 7.6685730000000003e+00 2.5561910000000001e+00
0.0000000000000000e+00 4.4274529999999999e+00 0.0000000000000000e+00
0.0000000000000000e+00 3.5699264999999997e+01 0.0000000000000000e+00
ITEM: ATOMS id type x y z
1 1 6.08949 3.61296 0.308665
2 1 2.43174 1.60973 -0.1395
3 1 3.38326 0.735651 33.7025
4 1 4.81337 2.51504 33.1851
5 1 3.69197 3.76167 35.2358
6 1 1.07726 0.785828 28.2622
7 1 5.00791 1.38873 0.10265
8 1 5.20506 3.75542 31.3101
9 1 2.85709 3.99372 30.2542
10 1 3.72182 0.70698 28.8638
11 1 1.9343 2.43757 32.0211
12 1 0.586387 0.398716 33.0105
13 1 1.79387 1.54125 30.0354
14 1 4.1852 1.68674 31.1042
15 1 4.91087 2.86699 28.7243
16 2 1.8127 0.632144 14.3518
17 2 2.99374 0.0949083 16.4445
18 2 4.60429 2.07888 14.6342
19 2 5.56756 1.23839 16.9453
20 2 6.56454 3.05085 10.3167
21 2 2.62267 3.28908 15.4441
22 2 3.53223 2.70043 12.1692
23 2 0.998419 1.10386 11.862
24 2 2.98643 3.13306 7.25371
25 2 5.83727 1.73846 7.54433
26 2 4.3205 1.4371 9.71289
27 2 3.97748 0.136483 12.8579
28 2 1.72897 0.109367 9.43285
29 2 3.31329 0.400281 7.03963
30 2 4.78214 0.484043 4.92148
31 2 1.83136 2.02398 4.57952
32 2 2.16849 0.337882 2.40041
33 2 2.7386 3.43345 2.09834
34 2 5.39896 2.15125 2.61603
35 2 4.56925 3.2181 5.04058
ITEM: TIMESTEP
17600
ITEM: NUMBER OF ATOMS
35
ITEM: BOX BOUNDS xy xz yz pp pp pp
0.0000000000000000e+00 7.6685730000000003e+00 2.5561910000000001e+00
0.0000000000000000e+00 4.4274529999999999e+00 0.0000000000000000e+00
0.0000000000000000e+00 3.5699264999999997e+01 0.0000000000000000e+00
ITEM: ATOMS id type x y z
1 1 6.15635 3.86351 0.132214
2 1 2.19956 1.77072 35.8069
3 1 3.66318 0.0184868 33.1484
4 1 4.87694 2.53989 33.3964
5 1 3.61635 3.49164 35.7207
6 1 0.944426 0.585921 28.3237
7 1 4.81308 1.38162 35.3031
8 1 5.75965 4.32376 30.9713
9 1 3.13574 3.90527 30.4694
10 1 3.70822 0.702838 28.6255
11 1 2.61639 2.83214 33.5364
12 1 1.45888 0.361621 32.3653
13 1 1.84524 1.82765 30.4386
14 1 4.6874 1.6678 30.9019
15 1 4.74976 2.79493 28.9345
16 2 1.6708 0.772858 14.1555
17 2 2.95603 0.0837457 16.4335
18 2 4.87371 2.41418 14.3856
19 2 5.61293 1.48248 16.928
20 2 6.60616 3.52018 10.2767
21 2 2.46155 3.23939 15.5103
22 2 3.88498 2.91796 12.1484
23 2 1.34059 1.1065 11.7287
24 2 3.07634 3.45281 7.22138
25 2 5.79858 1.85238 7.59433
26 2 3.62003 1.66017 9.71907
27 2 6.42759 4.05866 13.1126
28 2 4.19173 4.19205 9.4879
29 2 3.03663 0.259684 7.31776
30 2 4.58581 0.239608 4.46316
31 2 2.24166 1.91432 5.04514
32 2 2.57128 0.293751 2.6145
33 2 2.13065 3.16477 2.40385
34 2 4.73941 1.59628 2.05813
35 2 4.74226 3.33001 4.81698
ITEM: TIMESTEP
17700
ITEM: NUMBER OF ATOMS
35
ITEM: BOX BOUNDS xy xz yz pp pp pp
0.0000000000000000e+00 7.6685730000000003e+00 2.5561910000000001e+00
0.0000000000000000e+00 4.4274529999999999e+00 0.0000000000000000e+00
0.0000000000000000e+00 3.5699264999999997e+01 0.0000000000000000e+00
ITEM: ATOMS id type x y z
1 1 6.06571 3.51482 0.0827381
2 1 1.92665 1.46272 0.246217
3 1 4.30518 0.398511 32.7827
4 1 5.7069 3.14749 33.3756
5 1 3.38946 3.43789 0.653029
6 1 0.96688 0.662135 28.6151
7 1 4.74818 1.28976 34.9201
8 1 6.20423 3.90496 30.527
9 1 3.47255 3.97578 30.5548
10 1 3.31357 0.675509 28.4773
11 1 2.8604 2.48961 34.1812
12 1 1.68345 0.699471 33.0549
13 1 2.09962 1.76365 30.468
14 1 4.50096 1.86929 31.1137
15 1 4.97533 2.83805 28.641
16 2 2.02759 0.934667 14.1602
17 2 2.94951 0.256004 16.5317
18 2 4.57107 2.28109 14.6377
19 2 5.62306 1.60763 16.8031
20 2 6.58879 3.62209 10.1161
21 2 2.53899 3.25197 15.7746
22 2 3.86033 2.7354 12.19
23 2 1.26887 1.50831 11.4954
24 2 3.06136 3.53925 6.9309
25 2 5.44835 1.97061 7.65938
26 2 3.39296 1.69664 9.47042
27 2 6.76148 3.9095 13.0564
28 2 3.8437 4.39081 9.43032
29 2 3.30851 0.199539 7.18624
30 2 4.9721 0.534117 4.7094
31 2 2.33756 1.55848 5.26719
32 2 2.02118 0.127281 2.56948
33 2 2.0017 2.76861 2.62829
34 2 4.55077 1.55748 1.76458
35 2 4.74274 3.0806 4.68277
ITEM: TIMESTEP
17800
ITEM: NUMBER OF ATOMS
35
ITEM: BOX BOUNDS xy xz yz pp pp pp
0.0000000000000000e+00 7.6685730000000003e+00 2.5561910000000001e+00
0.0000000000000000e+00 4.4274529999999999e+00 0.0000000000000000e+00
0.0000000000000000e+00 3.5699264999999997e+01 0.0000000000000000e+00
ITEM: ATOMS id type x y z
1 1 5.54171 3.38037 0.441754
2 1 1.96969 1.21753 0.248942
3 1 4.75648 0.80254 32.6619
4 1 5.95556 2.85947 33.389
5 1 2.87971 3.36788 0.0767131
6 1 0.612082 0.391083 28.6482
7 1 4.89151 1.0455 34.9275
8 1 6.16276 3.83227 30.7999
9 1 3.7254 3.91278 31.1432
10 1 3.29584 1.16165 28.6725
11 1 3.56773 3.02997 33.0156
12 1 2.0853 0.905647 33.4641
13 1 2.48091 1.73252 30.9596
14 1 4.92487 1.75264 30.3409
15 1 4.86149 3.37691 28.3947
16 2 1.9984 0.910127 14.0755
17 2 2.87034 0.36718 16.4796
18 2 4.76605 2.05867 14.4141
19 2 5.65861 1.54677 17.173
20 2 6.02658 3.64743 10.0372
21 2 2.65665 3.6082 16.0029
22 2 3.83786 2.75514 11.7427
23 2 0.905233 1.15889 11.7241
24 2 3.32666 3.29321 6.91686
25 2 5.66454 1.98776 7.50655
26 2 3.52716 2.06583 9.40569
27 2 7.00284 4.11143 13.2976
28 2 1.17148 0.325543 9.18623
29 2 3.35974 0.230188 7.24594
30 2 4.93219 0.192767 4.54358
31 2 2.1958 1.56266 5.14549
32 2 4.1629 4.24932 2.50297
33 2 1.76528 2.8399 2.97888
34 2 4.58375 1.41199 2.03483
35 2 4.93458 2.98264 4.8292
ITEM: TIMESTEP
17900
ITEM: NUMBER OF ATOMS
35
ITEM: BOX BOUNDS xy xz yz pp pp pp
0.0000000000000000e+00 7.6685730000000003e+00 2.5561910000000001e+00
0.0000000000000000e+00 4.4274529999999999e+00 0.0000000000000000e+00
0.0000000000000000e+00 3.5699264999999997e+01 0.0000000000000000e+00
ITEM: ATOMS id type x y z
1 1 5.47784 3.14144 0.0599825
2 1 2.03158 1.01103 0.318447
3 1 4.98576 1.0257 32.8161
4 1 6.41375 3.07509 33.1783
5 1 3.27025 3.69845 35.4128
6 1 -0.188823 0.00952091 28.4965
7 1 4.14242 1.11824 35.4577
8 1 6.68578 4.07655 30.6894
9 1 4.40312 3.76064 30.1515
10 1 2.55138 1.97331 29.2918
11 1 3.84336 3.45699 33.081
12 1 2.61519 0.507013 33.7599
13 1 2.57932 1.75218 31.6581
14 1 5.55408 1.86262 30.5716
15 1 5.6058 3.63614 28.1842
16 2 2.0404 0.869044 14.0206
17 2 3.00184 0.318144 16.4956
18 2 4.88574 2.5369 14.7162
19 2 5.48392 1.92894 16.9247
20 2 6.11537 3.66362 10.342
21 2 2.9221 3.40754 15.9702
22 2 3.68307 2.83449 12.1685
23 2 0.862193 1.19284 11.606
24 2 3.35477 3.42088 7.04105
25 2 6.1732 2.15659 6.96006
26 2 3.37944 1.91157 9.45909
27 2 6.69503 3.61576 13.5118
28 2 0.837842 0.48897 9.18249
29 2 3.54048 0.445404 7.3363
30 2 4.59947 0.069103 4.87203
31 2 2.3883 1.25363 4.83353
32 2 4.21526 4.14794 2.36632
33 2 1.57906 2.50854 2.23975
34 2 3.94206 1.09845 2.3407
35 2 4.85354 2.96805 4.77048
ITEM: TIMESTEP
18000
ITEM: NUMBER OF ATOMS
35
ITEM: BOX BOUNDS xy xz yz pp pp pp
0.0000000000000000e+00 7.6685730000000003e+00 2.5561910000000001e+00
0.0000000000000000e+00 4.4274529999999999e+00 0.0000000000000000e+00
0.0000000000000000e+00 3.5699264999999997e+01 0.0000000000000000e+00
ITEM: ATOMS id type x y z
1 1 5.46636 3.54169 35.2125
2 1 1.49576 0.973828 0.0500691
3 1 5.48474 1.05397 33.4444
4 1 7.02094 3.27819 32.8863
5 1 2.89571 3.00221 35.7126
6 1 5.59889 0.837446 28.3331
7 1 4.43754 1.59248 0.202214
8 1 7.10748 4.08935 30.9075
9 1 4.25986 4.32302 30.1384
10 1 2.78376 2.46457 29.2064
11 1 4.23919 3.31513 32.2018
12 1 2.9738 1.08939 33.8162
13 1 3.03549 1.06669 31.3914
14 1 5.60293 2.01921 30.7332
15 1 5.11631 2.78559 28.4872
16 2 1.86763 0.94105 14.2831
17 2 3.21545 0.443711 16.558
18 2 4.56415 2.01636 14.6144
19 2 5.70612 1.99084 17.0095
20 2 6.13942 3.79103 10.4956
21 2 2.66925 3.36053 16.0351
22 2 3.64247 2.62701 12.2399
23 2 0.854986 1.39654 11.8219
24 2 3.92895 3.58745 6.90566
25 2 6.23061 2.07149 7.18857
26 2 3.30768 2.0627 9.95031
27 2 6.84047 4.10247 13.4347
28 2 0.662452 0.515307 9.33581
29 2 3.5758 0.747708 7.26852
30 2 7.46056 4.08669 4.71511
31 2 2.03742 1.39615 4.34534
32 2 3.71072 3.72395 2.18685
33 2 1.31699 2.65 2.07331
34 2 3.82102 0.731655 2.3771
35 2 4.70178 2.55489 4.4604
ITEM: TIMESTEP
18100
ITEM: NUMBER OF ATOMS
35
ITEM: BOX BOUNDS xy xz yz pp pp pp
0.0000000000000000e+00 7.6685730000000003e+00 2.5561910000000001e+00
0.0000000000000000e+00 4.4274529999999999e+00 0.0000000000000000e+00
0.0000000000000000e+00 3.5699264999999997e+01 0.0000000000000000e+00
ITEM: ATOMS id type x y z
1 1 5.32442 3.56776 34.9429
2 1 1.74134 0.892104 0.386096
3 1 6.20518 1.17497 33.5182
4 1 1.86237 3.44672 32.7183
5 1 2.54547 3.20193 35.2844
6 1 0.745232 0.585081 27.9355
7 1 4.16674 1.23534 -0.146114
8 1 2.27877 4.09493 30.2146
9 1 2.27905 0.0250892 30.5488
10 1 2.71033 1.76831 28.5638
11 1 4.73788 3.88392 32.9307
12 1 3.68414 1.39881 33.4674
13 1 3.32098 2.2105 31.2837
14 1 5.59506 1.82006 30.9505
15 1 5.45514 2.97633 28.3362
16 2 1.73048 0.773965 14.4741
17 2 2.99609 0.402523 16.8646
18 2 4.65954 2.13589 14.9011
19 2 5.87284 1.82534 17.2025
20 2 5.79164 4.00419 10.3897
21 2 2.77288 3.50892 15.9346
22 2 3.5739 2.92102 12.3731
23 2 1.14548 1.23758 12.0028
24 2 4.07477 3.70016 6.9989
25 2 6.4246 2.33514 7.42282
26 2 3.27899 2.23862 9.23831
27 2 6.43157 4.18231 13.2878
28 2 0.895764 0.444597 9.43832
29 2 3.8225 0.843343 7.16786
30 2 2.17254 3.90953 4.70468
31 2 2.09319 1.02255 4.52751
32 2 3.36692 3.42622 2.04844
33 2 5.75527 2.31591 1.97669
34 2 3.7011 0.75134 2.41812
35 2 4.63096 2.37013 4.55519
ITEM: TIMESTEP
18200
ITEM: NUMBER OF ATOMS
35
ITEM: BOX BOUNDS xy xz yz pp pp pp
0.0000000000000000e+00 7.6685730000000003e+00 2.5561910000000001e+00
0.0000000000000000e+00 4.4274529999999999e+00 0.0000000000000000e+00
0.0000000000000000e+00 3.5699264999999997e+01 0.0000000000000000e+00
ITEM: ATOMS id type x y z
1 1 5.46308 3.02344 35.5533
2 1 1.86324 0.964339 0.0410708
3 1 1.45424 2.32209 33.5968
4 1 7.28802 3.98511 31.8956
5 1 2.89997 3.16492 35.2791
6 1 0.625426 0.190221 27.5734
7 1 4.54961 0.692014 0.0484102
8 1 4.78983 0.31686 29.675
9 1 2.64524 0.205373 30.5768
10 1 2.86372 1.04895 28.4873
11 1 4.31352 3.77192 33.168
12 1 3.91503 1.53927 32.7883
13 1 3.6522 2.72791 30.1871
14 1 1.22377 1.76255 31.0305
15 1 6.04246 2.78772 28.716
16 2 1.86168 0.959041 14.6571
17 2 2.95243 0.136157 17.0048
18 2 4.79088 2.45121 14.8672
19 2 5.80658 1.73968 17.3659
20 2 5.9804 3.7728 10.132
21 2 2.46919 3.61373 15.9065
22 2 3.49482 2.96277 12.3323
23 2 1.23087 1.50114 11.8194
24 2 4.01927 4.02986 7.01621
25 2 6.4588 2.6236 7.43759
26 2 3.50599 2.26125 9.44673
27 2 6.19807 3.95894 13.1009
28 2 0.77953 0.754214 9.3857
29 2 4.19093 0.762758 7.05269
30 2 6.92333 3.57231 4.80669
31 2 2.03944 0.682468 4.73703
32 2 3.02351 3.40578 2.45375
33 2 5.67276 2.15546 2.191
34 2 3.11612 0.356817 2.28399
35 2 4.56198 2.4216 4.74393
ITEM: TIMESTEP
18300
ITEM: NUMBER OF ATOMS
35
ITEM: BOX BOUNDS xy xz yz pp pp pp
0.0000000000000000e+00 7.6685730000000003e+00 2.5561910000000001e+00
0.0000000000000000e+00 4.4274529999999999e+00 0.0000000000000000e+00
0.0000000000000000e+00 3.5699264999999997e+01 0.0000000000000000e+00
ITEM: ATOMS id type x y z
1 1 5.82364 3.10155 0.209381
2 1 1.52769 0.856934 35.6349
3 1 6.53934 2.88986 33.6681
4 1 3.06097 4.22387 31.6856
5 1 3.42142 2.68611 35.5336
6 1 3.55168 4.20645 27.4101
7 1 4.55552 0.629259 0.148304
8 1 5.61253 0.489385 29.5066
9 1 5.15328 4.2093 31.031
10 1 2.98475 0.513612 28.2369
11 1 4.46423 4.39319 33.386
12 1 3.72182 1.68825 32.3111
13 1 3.67431 2.75355 29.2101
14 1 6.3126 2.36336 31.1193
15 1 6.41286 2.88717 28.6546
16 2 2.10065 1.16821 14.4901
17 2 2.73571 0.280451 16.9646
18 2 4.53994 2.18696 14.9052
19 2 5.57557 1.63378 17.1239
20 2 6.11918 3.71539 9.93936
21 2 2.33919 3.6315 15.5863
22 2 3.68418 3.08771 12.3358
23 2 1.00936 1.49755 11.9708
24 2 4.36209 3.91566 7.26956
25 2 6.65232 2.49062 7.44095
26 2 3.64343 2.22965 9.89813
27 2 6.50373 4.48701 12.9636
28 2 0.699277 0.581185 9.3763
29 2 4.04686 1.26243 7.20288
30 2 6.80981 3.6857 4.97448
31 2 1.57904 0.947165 4.81664
32 2 2.99719 3.31913 2.33555
33 2 5.69646 1.60796 2.48842
34 2 2.76845 0.220259 2.31485
35 2 4.15974 1.98566 4.64992
ITEM: TIMESTEP
18400
ITEM: NUMBER OF ATOMS
35
ITEM: BOX BOUNDS xy xz yz pp pp pp
0.0000000000000000e+00 7.6685730000000003e+00 2.5561910000000001e+00
0.0000000000000000e+00 4.4274529999999999e+00 0.0000000000000000e+00
0.0000000000000000e+00 3.5699264999999997e+01 0.0000000000000000e+00
ITEM: ATOMS id type x y z
1 1 5.67635 2.7554 0.492299
2 1 2.26369 0.882481 0.187198
3 1 6.79511 3.08353 33.8191
4 1 2.40479 4.27926 31.9172
5 1 3.65394 3.20741 35.0933
6 1 3.59737 3.70298 27.0875
7 1 4.57116 0.573231 0.0167801
8 1 0.488067 0.676312 29.1949
9 1 3.27515 0.0181728 30.5762
10 1 2.85234 0.665113 28.3937
11 1 2.60892 0.617019 33.4128
12 1 3.93108 2.32123 31.9895
13 1 4.37382 2.58473 29.9098
14 1 1.6742 1.85871 31.0623
15 1 1.95278 2.59647 28.4763
16 2 1.85298 0.950096 14.3588
17 2 2.64109 0.441616 16.6214
18 2 4.75757 2.34147 14.6094
19 2 5.33179 1.60027 17.0206
20 2 5.93016 3.71187 10.2271
21 2 7.26464 3.87948 15.3427
22 2 3.87229 3.50198 12.4826
23 2 1.08271 1.80058 11.7429
24 2 4.43963 3.75417 7.16564
25 2 1.94555 2.53887 7.57166
26 2 3.39264 1.93398 10.1033
27 2 3.96825 0.237506 12.5977
28 2 1.04424 0.324738 9.64782
29 2 4.17698 0.873507 7.5121
30 2 6.59281 4.03243 5.04197
31 2 1.33028 0.734355 5.09231
32 2 2.80261 2.80993 2.19079
33 2 5.18419 1.2456 2.53328
34 2 2.97274 0.0242916 2.7488
35 2 3.56528 2.49407 4.58302
ITEM: TIMESTEP
18500
ITEM: NUMBER OF ATOMS
35
ITEM: BOX BOUNDS xy xz yz pp pp pp
0.0000000000000000e+00 7.6685730000000003e+00 2.5561910000000001e+00
0.0000000000000000e+00 4.4274529999999999e+00 0.0000000000000000e+00
0.0000000000000000e+00 3.5699264999999997e+01 0.0000000000000000e+00
ITEM: ATOMS id type x y z
1 1 5.82831 3.33181 0.432193
2 1 2.26225 0.855025 0.217187
3 1 6.52177 2.70586 33.766
4 1 5.59428 0.455996 32.5322
5 1 3.89975 3.48302 34.6175
6 1 3.8714 2.8614 27.5146
7 1 4.8454 0.716569 35.0992
8 1 0.536661 0.388838 29.1506
9 1 3.78161 0.48809 30.4966
10 1 3.32145 0.164514 27.8702
11 1 3.16345 0.873567 33.1841
12 1 4.95982 2.92556 32.1955
13 1 4.31901 2.76713 29.7217
14 1 1.86546 1.94668 31.2939
15 1 1.62707 2.59509 29.1275
16 2 1.79124 1.02284 14.0882
17 2 2.66481 0.647486 16.7311
18 2 4.71271 2.77407 14.5829
19 2 5.18827 1.73082 16.9002
20 2 5.93895 3.6443 9.61169
21 2 2.24001 3.62616 15.1089
22 2 3.59743 3.52311 12.0781
23 2 1.41642 1.96268 12.0582
24 2 4.48691 3.36611 7.39925
25 2 2.00825 2.13366 7.73283
26 2 3.53495 1.97213 10.0068
27 2 3.82515 0.454901 12.494
28 2 0.80451 0.31093 9.72006
29 2 4.65253 0.664457 7.59151
30 2 6.12077 3.88789 5.42126
31 2 1.16065 1.45614 5.1308
32 2 2.55923 2.54503 2.01806
33 2 5.06997 0.920279 2.82924
34 2 4.92663 3.82621 2.79641
35 2 3.58553 2.78009 4.93267
ITEM: TIMESTEP
18600
ITEM: NUMBER OF ATOMS
35
ITEM: BOX BOUNDS xy xz yz pp pp pp
0.0000000000000000e+00 7.6685730000000003e+00 2.5561910000000001e+00
0.0000000000000000e+00 4.4274529999999999e+00 0.0000000000000000e+00
0.0000000000000000e+00 3.5699264999999997e+01 0.0000000000000000e+00
ITEM: ATOMS id type x y z
1 1 5.88778 3.1792 0.489911
2 1 2.06773 1.00813 0.11077
3 1 6.74679 2.64941 33.859
4 1 1.08317 0.393213 33.0884
5 1 3.60665 3.26773 35.341
6 1 3.59079 2.0275 27.3167
7 1 4.60308 1.18958 35.6142
8 1 0.980237 0.39217 29.2708
9 1 4.254 0.508086 30.7971
10 1 3.74098 0.0764558 28.4431
11 1 3.59007 0.543335 33.2338
12 1 5.13579 3.52097 31.63
13 1 3.86798 2.68482 29.6442
14 1 2.47987 2.49112 31.6822
15 1 1.73596 2.50172 29.2122
16 2 1.81104 1.03161 14.5512
17 2 2.77787 0.699567 16.755
18 2 4.62933 2.57006 14.3607
19 2 5.25283 1.91804 16.6618
20 2 6.25017 3.4205 9.52714
21 2 2.12381 3.77274 15.2079
22 2 3.66682 3.4594 12.1872
23 2 1.01011 2.49167 11.8301
24 2 4.26828 3.39183 7.45689
25 2 2.2629 1.3703 7.60363
26 2 3.75031 1.969 9.75183
27 2 3.90989 0.718399 12.5037
28 2 0.802325 0.509987 10.0207
29 2 4.87361 0.73153 7.19276
30 2 5.87028 4.53619 5.2219
31 2 0.966446 1.4664 4.9085
32 2 2.38637 2.23091 2.39839
33 2 4.76129 0.633668 2.49417
34 2 4.71862 3.62413 2.67441
35 2 3.46021 2.74751 5.04126
ITEM: TIMESTEP
18700
ITEM: NUMBER OF ATOMS
35
ITEM: BOX BOUNDS xy xz yz pp pp pp
0.0000000000000000e+00 7.6685730000000003e+00 2.5561910000000001e+00
0.0000000000000000e+00 4.4274529999999999e+00 0.0000000000000000e+00
0.0000000000000000e+00 3.5699264999999997e+01 0.0000000000000000e+00
ITEM: ATOMS id type x y z
1 1 5.92628 3.32207 0.205948
2 1 2.11159 0.927802 0.15136
3 1 6.3373 2.62081 33.6931
4 1 1.10754 0.0484956 33.7063
5 1 3.16083 3.13344 36.1981
6 1 3.17325 2.32761 27.3062
7 1 4.74035 1.47089 -0.0335918
8 1 1.1018 -0.35976 29.0498
9 1 5.12685 0.573442 31.5513
10 1 3.40838 0.350495 28.9853
11 1 3.79387 1.18738 33.6909
12 1 5.37473 3.36706 31.7207
13 1 4.76264 2.02697 29.4602
14 1 3.05221 2.5443 31.7603
15 1 1.79975 2.7633 29.8844
16 2 1.85276 1.07039 14.1078
17 2 2.84513 0.621831 16.7955
18 2 4.51837 2.50568 14.5087
19 2 5.5445 2.08116 16.9178
20 2 6.56814 3.55599 9.33725
21 2 7.2227 3.98238 15.2585
22 2 3.38898 3.79071 12.3782
23 2 6.14121 2.47566 12.1627
24 2 4.66323 3.18951 7.28976
25 2 2.27919 1.73125 7.26125
26 2 3.60911 1.99847 10.057
27 2 3.70353 0.715298 12.3319
28 2 1.52279 0.513215 9.97501
29 2 4.78433 0.380258 7.34686
30 2 3.21054 0.154745 4.61231
31 2 0.402829 1.35178 4.72699
32 2 1.98157 1.79285 2.59061
33 2 4.58262 0.438674 2.42579
34 2 4.72623 3.42337 2.39158
35 2 3.10917 3.13812 4.71615
ITEM: TIMESTEP
18800
ITEM: NUMBER OF ATOMS
35
ITEM: BOX BOUNDS xy xz yz pp pp pp
0.0000000000000000e+00 7.6685730000000003e+00 2.5561910000000001e+00
0.0000000000000000e+00 4.4274529999999999e+00 0.0000000000000000e+00
0.0000000000000000e+00 3.5699264999999997e+01 0.0000000000000000e+00
ITEM: ATOMS id type x y z
1 1 5.80638 3.79824 35.546
2 1 1.9741 1.24619 0.0802048
3 1 6.33084 2.29713 33.5608
4 1 3.86859 3.68175 33.8201
5 1 3.00268 3.27262 0.184331
6 1 2.65545 1.94988 28.1202
7 1 4.89431 1.32116 35.6032
8 1 1.116 0.0168649 29.1569
9 1 0.60571 0.78913 31.9953
10 1 3.24087 0.253329 29.6072
11 1 3.42296 1.16611 33.9445
12 1 5.60126 4.06578 31.6945
13 1 5.05762 1.99163 29.3882
14 1 3.77596 2.00977 31.4961
15 1 2.01666 2.69464 30.0935
16 2 1.93641 1.19941 14.3446
17 2 2.70468 0.635844 16.6035
18 2 4.49064 2.60518 14.9371
19 2 5.83876 2.19399 17.051
20 2 6.6591 3.53862 9.85643
21 2 7.29246 3.91189 15.0991
22 2 3.25386 3.70599 12.428
23 2 5.90279 2.3218 12.0109
24 2 5.10145 3.30931 7.24283
25 2 2.25447 1.84158 6.9014
26 2 4.26358 2.30912 9.84631
27 2 3.45606 0.782008 12.2068
28 2 1.71068 0.499907 9.69049
29 2 4.80656 0.292245 7.19826
30 2 5.41563 4.29872 4.82826
31 2 5.18827 1.85304 5.08014
32 2 1.79259 1.7629 2.39694
33 2 4.53222 0.246487 2.20224
34 2 4.51267 2.88628 2.32702
35 2 2.87963 3.20683 4.49729
ITEM: TIMESTEP
18900
ITEM: NUMBER OF ATOMS
35
ITEM: BOX BOUNDS xy xz yz pp pp pp
0.0000000000000000e+00 7.6685730000000003e+00 2.5561910000000001e+00
0.0000000000000000e+00 4.4274529999999999e+00 0.0000000000000000e+00
0.0000000000000000e+00 3.5699264999999997e+01 0.0000000000000000e+00
ITEM: ATOMS id type x y z
1 1 5.87463 3.51792 35.6846
2 1 1.95475 1.40287 0.169863
3 1 6.56079 2.55419 33.4123
4 1 3.65519 3.28373 33.6402
5 1 2.98952 3.80096 0.02219
6 1 2.24897 1.46671 28.3445
7 1 4.32683 1.32022 35.7992
8 1 0.71181 0.424135 29.1117
9 1 1.15596 0.135628 31.381
10 1 3.76109 0.400694 29.6597
11 1 3.25688 0.953092 33.7796
12 1 6.06832 4.09278 31.621
13 1 4.45442 2.65711 29.1082
14 1 4.72233 1.99081 31.4652
15 1 2.25135 2.26743 31.1984
16 2 1.75119 1.36707 14.3767
17 2 3.07428 0.491679 17.0216
18 2 4.47664 2.59784 14.7398
19 2 5.87886 2.18285 17.0787
20 2 2.23341 3.59647 10.0307
21 2 7.05984 4.17118 14.9674
22 2 3.40142 3.56629 12.3714
23 2 5.58337 2.13082 12.1367
24 2 4.84173 3.58787 7.35665
25 2 2.75539 1.90234 7.01108
26 2 4.38358 2.00238 9.40971
27 2 3.24128 0.757831 12.0841
28 2 1.7277 0.93084 9.48333
29 2 5.11721 0.275252 7.39325
30 2 2.55233 0.380672 4.6974
31 2 5.10321 1.56423 4.69778
32 2 1.77382 1.37972 2.64567
33 2 6.69856 4.30188 2.22344
34 2 4.43781 2.93977 2.3337
35 2 2.56954 3.37459 4.65214
ITEM: TIMESTEP
19000
ITEM: NUMBER OF ATOMS
35
ITEM: BOX BOUNDS xy xz yz pp pp pp
0.0000000000000000e+00 7.6685730000000003e+00 2.5561910000000001e+00
0.0000000000000000e+00 4.4274529999999999e+00 0.0000000000000000e+00
0.0000000000000000e+00 3.5699264999999997e+01 0.0000000000000000e+00
ITEM: ATOMS id type x y z
1 1 5.32785 3.80442 35.6884
2 1 1.97582 1.66733 35.4677
3 1 5.92447 2.07514 33.5808
4 1 3.64676 3.64314 33.6763
5 1 2.99252 3.91494 0.5107
6 1 2.24612 3.1604 28.4952
7 1 4.19861 1.46769 0.200534
8 1 0.395812 0.593473 28.7745
9 1 4.06492 3.67039 31.0396
10 1 3.07862 0.286668 29.3474
11 1 3.2447 0.472577 33.6219
12 1 6.98153 3.75334 31.4783
13 1 4.51509 2.62345 28.9849
14 1 5.68142 1.75142 31.1664
15 1 2.88536 1.35053 31.3312
16 2 2.02158 1.1852 14.8261
17 2 3.28859 0.569793 16.9814
18 2 4.24382 2.86733 14.7271
19 2 5.85041 1.93527 16.7598
20 2 2.23878 3.71662 9.70812
21 2 4.32209 0.0158551 14.4998
22 2 3.1704 3.66119 12.3203
23 2 5.78019 1.88983 12.1342
24 2 5.51838 3.38286 7.20703
25 2 2.7216 2.10997 7.29081
26 2 4.48947 1.97907 9.73481
27 2 3.07511 0.61926 12.0544
28 2 1.96003 0.833908 9.6531
29 2 5.14178 0.539621 7.13529
30 2 2.52853 0.452466 5.05364
31 2 5.02054 1.93048 4.67801
32 2 1.49156 1.20854 2.35901
33 2 6.60123 4.1059 2.48915
34 2 3.98602 2.92219 2.55542
35 2 2.44046 3.31058 4.90677
ITEM: TIMESTEP
19100
ITEM: NUMBER OF ATOMS
35
ITEM: BOX BOUNDS xy xz yz pp pp pp
0.0000000000000000e+00 7.6685730000000003e+00 2.5561910000000001e+00
0.0000000000000000e+00 4.4274529999999999e+00 0.0000000000000000e+00
0.0000000000000000e+00 3.5699264999999997e+01 0.0000000000000000e+00
ITEM: ATOMS id type x y z
1 1 5.24137 3.88255 0.433783
2 1 1.67312 1.8076 35.1335
3 1 5.2587 1.97312 33.0949
4 1 3.19382 3.47389 33.4805
5 1 2.92995 3.86803 0.38419
6 1 6.57705 2.94821 29.207
7 1 4.44007 1.77773 35.672
8 1 0.861805 0.835176 28.3767
9 1 4.98998 3.40112 30.943
10 1 3.36242 0.607196 29.2712
11 1 3.52075 0.0301334 33.74
12 1 2.21432 3.52289 31.2805
13 1 3.98299 2.88618 28.4034
14 1 0.925432 0.986913 31.1594
15 1 3.59698 1.57022 31.5157
16 2 1.925 1.38913 14.3452
17 2 3.42577 0.530922 16.712
18 2 4.36997 3.03447 14.7874
19 2 5.64854 1.9419 16.6994
20 2 6.91902 3.74042 9.65304
21 2 7.07811 4.19808 14.508
22 2 3.13321 3.34724 11.9954
23 2 5.85835 2.09947 12.3837
24 2 5.44639 3.36176 7.56056
25 2 3.08209 1.98998 7.53457
26 2 4.78212 2.40042 10.0441
27 2 3.19445 0.419629 12.1623
28 2 1.86268 0.492539 9.60418
29 2 5.5058 0.602277 7.07814
30 2 2.43225 0.592046 4.86848
31 2 5.18157 2.23303 4.96702
32 2 1.19341 1.34569 2.24744
33 2 6.1586 4.19199 2.75427
34 2 3.5648 2.5947 2.59885
35 2 2.54364 3.39086 5.01544
ITEM: TIMESTEP
19200
ITEM: NUMBER OF ATOMS
35
ITEM: BOX BOUNDS xy xz yz pp pp pp
0.0000000000000000e+00 7.6685730000000003e+00 2.5561910000000001e+00
0.0000000000000000e+00 4.4274529999999999e+00 0.0000000000000000e+00
0.0000000000000000e+00 3.5699264999999997e+01 0.0000000000000000e+00
ITEM: ATOMS id type x y z
1 1 5.17654 4.12214 0.544774
2 1 1.7177 1.5435 34.9651
3 1 5.43169 1.54328 33.1694
4 1 3.32822 3.38727 33.7445
5 1 2.50986 3.95756 0.304237
6 1 1.62773 2.03487 28.9738
7 1 4.07245 1.8952 -0.0928584
8 1 4.88485 0.843373 27.5016
9 1 5.12879 3.2716 31.1052
10 1 3.64274 1.00818 29.5185
11 1 5.7731 4.37794 33.7715
12 1 2.41526 3.4957 31.2117
13 1 4.43976 3.46893 28.8184
14 1 1.34172 1.03206 31.144
15 1 3.68923 1.1508 31.9686
16 2 2.11318 1.35818 14.4803
17 2 3.05292 0.534204 16.6405
18 2 4.61863 2.89044 14.5396
19 2 5.95048 1.89974 16.7205
20 2 7.06078 3.87112 9.70647
21 2 7.29819 4.20013 14.6428
22 2 3.24668 3.40205 12.1357
23 2 5.60456 1.96171 12.2876
24 2 5.51132 3.61345 7.22796
25 2 3.329 1.83756 7.60224
26 2 4.33434 2.02657 9.8372
27 2 3.29713 0.395607 12.0384
28 2 1.75889 1.07977 9.83312
29 2 0.530091 0.370118 7.45683
30 2 2.39287 0.82062 5.07667
31 2 5.01003 2.10175 4.82455
32 2 0.842216 1.40122 2.23062
33 2 6.1928 4.22939 2.81948
34 2 3.48746 2.53502 2.37237
35 2 2.61283 3.67204 4.95808
ITEM: TIMESTEP
19300
ITEM: NUMBER OF ATOMS
35
ITEM: BOX BOUNDS xy xz yz pp pp pp
0.0000000000000000e+00 7.6685730000000003e+00 2.5561910000000001e+00
0.0000000000000000e+00 4.4274529999999999e+00 0.0000000000000000e+00
0.0000000000000000e+00 3.5699264999999997e+01 0.0000000000000000e+00
ITEM: ATOMS id type x y z
1 1 4.5747 4.09482 0.626607
2 1 1.84835 1.95529 35.8078
3 1 5.78506 0.97933 33.4658
4 1 3.29769 2.95166 33.4055
5 1 1.94337 4.19442 0.504786
6 1 1.35371 2.06384 28.3157
7 1 4.32657 1.65476 35.237
8 1 4.35447 1.11426 27.5218
9 1 5.23494 2.90088 32.0793
10 1 4.03323 1.02788 29.5664
11 1 5.71397 3.76838 34.1717
12 1 2.69037 3.30487 30.6599
13 1 4.72909 3.82355 29.2178
14 1 1.31885 1.01528 30.587
15 1 3.29302 1.28278 32.2074
16 2 2.28804 1.27638 14.3075
17 2 3.05492 0.33693 16.8797
18 2 4.82311 2.5764 14.5873
19 2 5.96004 2.0694 16.7616
20 2 6.79657 3.89595 9.79296
21 2 7.30936 4.39131 14.8445
22 2 3.15516 3.43506 12.3684
23 2 5.75196 1.72304 12.1276
24 2 6.04528 3.06401 6.94862
25 2 3.10786 2.08554 7.12966
26 2 4.36946 2.86123 9.74074
27 2 3.29127 0.277027 12.19
28 2 1.94359 1.05249 9.92525
29 2 0.56695 0.536716 7.58796
30 2 2.24733 0.970859 4.88367
31 2 4.80161 2.09837 4.64107
32 2 0.902358 1.25157 2.26053
33 2 6.0843 4.14847 2.7821
34 2 3.25163 2.67989 2.36142
35 2 2.73319 3.82134 4.94981
ITEM: TIMESTEP
19400
ITEM: NUMBER OF ATOMS
35
ITEM: BOX BOUNDS xy xz yz pp pp pp
0.0000000000000000e+00 7.6685730000000003e+00 2.5561910000000001e+00
0.0000000000000000e+00 4.4274529999999999e+00 0.0000000000000000e+00
0.0000000000000000e+00 3.5699264999999997e+01 0.0000000000000000e+00
ITEM: ATOMS id type x y z
1 1 4.25051 4.02111 0.430862
2 1 2.00334 1.85469 0.129787
3 1 1.27832 0.81181 33.5634
4 1 2.5866 3.09253 33.2449
5 1 4.59511 0.0108546 0.553942
6 1 1.47708 2.13699 28.0973
7 1 4.35554 1.76331 34.9019
8 1 3.71881 1.47135 27.7738
9 1 5.66904 2.37286 31.6979
10 1 4.03147 1.34698 30.5322
11 1 5.95181 3.58784 34.6037
12 1 2.52533 3.24434 30.0308
13 1 4.95745 3.54489 29.0699
14 1 1.63755 0.932071 30.6116
15 1 3.22059 0.485402 32.3496
16 2 2.09803 1.35918 14.7299
17 2 3.06798 0.36111 16.8823
18 2 4.63754 2.74678 14.5912
19 2 6.02103 2.01106 17.0011
20 2 4.61815 0.0419902 9.61637
21 2 2.56982 4.13037 15.1845
22 2 3.25163 2.95541 12.1929
23 2 5.65179 1.78428 12.0179
24 2 5.62191 3.50692 6.98444
25 2 3.61643 1.84071 7.43233
26 2 4.47801 2.76786 9.66413
27 2 3.32957 0.131917 12.3357
28 2 2.06339 1.61008 9.52521
29 2 0.764707 0.455294 7.31053
30 2 2.22003 1.02455 4.68582
31 2 4.85969 2.32771 4.63948
32 2 5.73592 1.22856 2.3602
33 2 5.53892 3.95092 2.567
34 2 3.29627 2.44156 2.37809
35 2 2.37552 3.80912 5.00088
ITEM: TIMESTEP
19500
ITEM: NUMBER OF ATOMS
35
ITEM: BOX BOUNDS xy xz yz pp pp pp
0.0000000000000000e+00 7.6685730000000003e+00 2.5561910000000001e+00
0.0000000000000000e+00 4.4274529999999999e+00 0.0000000000000000e+00
0.0000000000000000e+00 3.5699264999999997e+01 0.0000000000000000e+00
ITEM: ATOMS id type x y z
1 1 3.8931 3.35751 0.269745
2 1 1.90881 1.89763 -0.00527259
3 1 1.17831 0.695195 33.7001
4 1 3.17259 2.94691 32.0848
5 1 6.8291 4.39906 0.228619
6 1 1.29122 1.58136 28.1405
7 1 4.00353 1.7844 34.2592
8 1 3.73153 1.41878 28.2418
9 1 5.87849 2.48088 31.833
10 1 3.87106 1.68046 30.7068
11 1 5.61235 3.43199 34.1734
12 1 2.21403 3.94234 29.7854
13 1 5.22587 3.30153 28.9815
14 1 1.84768 0.0241388 31.1745
15 1 4.17937 0.361198 32.2976
16 2 2.14317 1.45504 14.4506
17 2 3.06526 0.498685 16.8592
18 2 4.88709 2.52397 14.7957
19 2 5.82501 1.89405 17.0992
20 2 5.09004 0.204042 9.67475
21 2 2.40817 4.18317 15.2628
22 2 3.0237 2.98866 12.0608
23 2 5.95018 1.25276 12.0948
24 2 6.01556 3.54145 7.49693
25 2 3.44588 2.08915 7.20619
26 2 4.76343 3.06374 9.83951
27 2 3.29896 0.158417 12.4869
28 2 2.09145 1.99666 9.52946
29 2 0.757146 0.402636 6.96722
30 2 2.31762 1.17401 5.0062
31 2 4.69744 2.52002 5.05132
32 2 5.58284 1.09693 2.30874
33 2 5.54772 3.86936 2.47441
34 2 2.95082 2.26855 2.40339
35 2 7.05941 3.93657 4.63584
ITEM: TIMESTEP
19600
ITEM: NUMBER OF ATOMS
35
ITEM: BOX BOUNDS xy xz yz pp pp pp
0.0000000000000000e+00 7.6685730000000003e+00 2.5561910000000001e+00
0.0000000000000000e+00 4.4274529999999999e+00 0.0000000000000000e+00
0.0000000000000000e+00 3.5699264999999997e+01 0.0000000000000000e+00
ITEM: ATOMS id type x y z
1 1 4.07504 3.16556 0.220956
2 1 1.2954 1.56578 36.0393
3 1 1.18528 0.329924 33.705
4 1 3.58788 2.84713 32.0513
5 1 4.26276 0.356605 0.269695
6 1 1.08356 0.897017 28.7448
7 1 3.14637 1.20752 34.2436
8 1 3.88204 0.821855 27.5851
9 1 5.9164 2.33294 31.0857
10 1 3.69497 1.93805 29.8738
11 1 5.75538 3.0673 33.794
12 1 7.46779 3.83367 29.9953
13 1 5.36264 3.51956 29.2418
14 1 2.38635 0.559905 31.1497
15 1 4.41483 0.601856 31.9849
16 2 2.39071 1.44354 14.4466
17 2 2.84451 0.596997 16.7597
18 2 4.74639 2.65178 14.5476
19 2 5.68642 1.88456 16.9972
20 2 4.84789 0.597665 9.66304
21 2 7.49435 4.15031 15.043
22 2 3.22813 2.77289 12.3012
23 2 0.702129 1.24354 12.3077
24 2 6.08964 3.16943 7.69346
25 2 3.63287 2.40353 7.4444
26 2 4.86726 3.58701 10.1832
27 2 3.46061 -0.207627 12.3814
28 2 2.64641 1.53253 9.79016
29 2 0.729735 0.727948 7.18049
30 2 1.96802 1.12628 4.81853
31 2 4.77569 2.82684 4.87341
32 2 5.43788 0.82503 2.3712
33 2 5.28584 3.86315 2.29051
34 2 2.81112 2.28886 2.56419
35 2 7.23194 4.27673 4.60386
ITEM: TIMESTEP
19700
ITEM: NUMBER OF ATOMS
35
ITEM: BOX BOUNDS xy xz yz pp pp pp
0.0000000000000000e+00 7.6685730000000003e+00 2.5561910000000001e+00
0.0000000000000000e+00 4.4274529999999999e+00 0.0000000000000000e+00
0.0000000000000000e+00 3.5699264999999997e+01 0.0000000000000000e+00
ITEM: ATOMS id type x y z
1 1 4.14731 2.82199 35.6075
2 1 1.43909 1.84249 0.0917785
3 1 2.82107 4.11467 34.092
4 1 3.73583 2.85434 32.2546
5 1 6.87986 4.11408 0.216231
6 1 1.08619 1.33218 28.7863
7 1 3.0405 1.13331 33.9471
8 1 4.53565 0.400962 27.2356
9 1 5.9649 2.48459 31.0649
10 1 3.55358 1.61518 29.2029
11 1 5.97439 2.72219 33.4204
12 1 2.60915 3.96002 29.8616
13 1 5.0937 3.63078 28.6058
14 1 2.30023 0.489097 30.9731
15 1 4.38238 0.654544 32.1893
16 2 2.12002 1.31289 14.4585
17 2 2.81216 0.422311 16.8112
18 2 4.83501 2.96977 14.5796
19 2 5.54694 2.01426 16.6317
20 2 5.09591 0.351656 9.84336
21 2 2.4675 4.16479 15.0966
22 2 3.43 2.53918 12.2797
23 2 5.87076 1.2706 12.2005
24 2 6.03635 3.95232 7.57469
25 2 3.53487 2.05936 7.26527
26 2 4.89603 3.10904 10.0159
27 2 6.21544 4.08368 12.5776
28 2 2.11834 2.21868 9.95445
29 2 1.20487 0.596059 7.4163
30 2 2.10217 1.48302 4.92104
31 2 4.65063 2.91157 4.71069
32 2 5.2845 0.84945 2.76147
33 2 5.18371 3.8137 2.2334
34 2 2.8684 2.42852 2.43813
35 2 7.14355 4.24486 5.34613
ITEM: TIMESTEP
19800
ITEM: NUMBER OF ATOMS
35
ITEM: BOX BOUNDS xy xz yz pp pp pp
0.0000000000000000e+00 7.6685730000000003e+00 2.5561910000000001e+00
0.0000000000000000e+00 4.4274529999999999e+00 0.0000000000000000e+00
0.0000000000000000e+00 3.5699264999999997e+01 0.0000000000000000e+00
ITEM: ATOMS id type x y z
1 1 4.58454 2.45328 0.250577
2 1 1.58804 0.791798 0.48645
3 1 2.92058 4.38747 34.1797
4 1 3.34852 2.56702 31.9823
5 1 6.79492 4.6568 0.524422
6 1 1.45234 2.04748 28.5555
7 1 2.57743 0.38538 33.5287
8 1 5.65796 0.0112537 27.2508
9 1 6.06062 2.64344 30.7305
10 1 3.80741 1.54234 29.3511
11 1 5.908 2.39539 33.3993
12 1 2.33503 4.08197 29.2906
13 1 4.68823 3.74756 28.6453
14 1 1.89622 0.402715 30.9768
15 1 4.78171 0.364018 31.6403
16 2 2.16733 1.61201 14.6078
17 2 2.82744 0.205677 16.8172
18 2 4.73746 3.0418 14.4595
19 2 5.66374 1.88127 17.0007
20 2 4.68366 0.292096 9.97044
21 2 7.40652 4.28729 15.2277
22 2 3.46538 2.59151 12.1886
23 2 1.24422 0.775126 12.2114
24 2 6.28019 3.73645 7.72775
25 2 3.56553 2.48812 7.40357
26 2 4.54323 3.41949 9.66883
27 2 6.24685 4.11707 12.322
28 2 2.19414 1.68924 9.6739
29 2 0.983741 0.77048 7.56008
30 2 2.34303 1.46133 4.8364
31 2 4.54012 3.16648 4.97149
32 2 5.24203 1.00492 3.00994
33 2 5.26658 4.04824 2.57216
34 2 2.59916 2.49593 2.21819
35 2 7.12264 4.30554 5.04002
ITEM: TIMESTEP
19900
ITEM: NUMBER OF ATOMS
35
ITEM: BOX BOUNDS xy xz yz pp pp pp
0.0000000000000000e+00 7.6685730000000003e+00 2.5561910000000001e+00
0.0000000000000000e+00 4.4274529999999999e+00 0.0000000000000000e+00
0.0000000000000000e+00 3.5699264999999997e+01 0.0000000000000000e+00
ITEM: ATOMS id type x y z
1 1 5.25307 2.50791 0.155552
2 1 1.45667 0.62192 0.562029
3 1 2.67575 3.97107 33.7731
4 1 2.80735 2.47297 31.9272
5 1 4.11608 0.0730422 0.426071
6 1 1.60416 1.90511 27.9138
7 1 2.80405 -0.0748237 33.0491
8 1 3.76064 4.24251 27.2699
9 1 5.6866 2.52351 31.0269
10 1 3.65318 1.9743 29.272
11 1 5.65218 1.87195 33.4184
12 1 7.95618 4.08747 29.6794
13 1 5.65232 4.15826 28.8976
14 1 1.97446 0.2575 30.9276
15 1 4.58134 0.283519 31.6621
16 2 2.37354 1.8489 14.8197
17 2 2.58273 -0.00836111 16.9012
18 2 4.92791 2.87293 14.6971
19 2 5.78295 1.81948 17.0111
20 2 4.67064 0.397104 9.93608
21 2 7.53057 4.64074 14.978
22 2 3.58787 2.21954 12.0827
23 2 1.11092 0.884599 12.4691
24 2 6.21988 3.6689 7.35794
25 2 3.54077 2.43458 7.50855
26 2 4.44217 3.26748 9.87502
27 2 6.16138 3.62275 12.3958
28 2 1.9009 1.65451 9.75772
29 2 0.578335 1.09268 7.0031
30 2 2.12436 1.59911 4.95337
31 2 4.64318 3.02234 5.31511
32 2 5.27156 1.60462 2.51105
33 2 5.32255 4.13843 3.0409
34 2 2.60609 2.875 2.19352
35 2 7.31183 4.29724 4.97253
ITEM: TIMESTEP
20000
ITEM: NUMBER OF ATOMS
35
ITEM: BOX BOUNDS xy xz yz pp pp pp
0.0000000000000000e+00 7.6685730000000003e+00 2.5561910000000001e+00
0.0000000000000000e+00 4.4274529999999999e+00 0.0000000000000000e+00
0.0000000000000000e+00 3.5699264999999997e+01 0.0000000000000000e+00
ITEM: ATOMS id type x y z
1 1 5.09504 2.75617 35.4094
2 1 1.57084 0.462202 0.203294
3 1 2.76531 2.93067 35.0394
4 1 2.79174 2.59841 32.219
5 1 4.03233 0.506536 0.354148
6 1 1.61415 1.75789 28.3684
7 1 4.94359 4.29886 33.7021
8 1 4.15912 3.44707 27.2305
9 1 5.45027 2.70176 30.5933
10 1 4.28719 1.76073 28.9808
11 1 5.60558 1.26964 33.2486
12 1 3.22889 4.5102 29.4698
13 1 6.12397 4.0411 28.5744
14 1 2.1046 0.530064 30.8708
15 1 4.33633 0.530177 31.5298
16 2 2.66539 1.57579 14.9543
17 2 5.25326 4.45196 16.9881
18 2 4.94501 3.26684 14.646
19 2 5.56587 1.70551 16.955
20 2 4.78095 -0.0414273 9.76002
21 2 4.96337 0.13405 14.8638
22 2 3.53825 1.87435 12.5452
23 2 0.853539 0.55052 12.4322
24 2 5.67648 4.28639 7.30719
25 2 2.93275 2.3287 7.72639
26 2 4.58098 3.43533 9.91075
27 2 6.27055 3.45086 12.4335
28 2 1.6524 2.01711 9.83728
29 2 0.870478 0.680773 7.45849
30 2 2.08041 1.85022 4.87819
31 2 4.60013 2.62318 5.05428
32 2 5.20661 1.77557 2.31265
33 2 2.75814 0.252962 2.87702
34 2 3.00496 3.16784 2.27612
35 2 5.01616 0.133293 4.51622
