Li6 Ti12 P18 O72
1.0
   8.5109999999999992    0.0000000000000000    0.0000000000000005
  -4.2554999999999987    7.3707422116093575    0.0000000000000005
   0.0000000000000000    0.0000000000000000   20.8430000000000000
Li Ti P O
6 12 18 72
direct
   0.3333333333000000    0.6666666667000000    0.1666666667000000 Li
   0.0000000000000000    0.0000000000000000    0.5000000000000000 Li
   0.6666666667000000    0.3333333333000000    0.3333333333000000 Li
   0.0000000000000000    0.0000000000000000    0.0000000000000000 Li
   0.3333333333000000    0.6666666667000000    0.6666666667000000 Li
   0.6666666667000000    0.3333333333000000    0.8333333333000000 Li
   0.3333333333000000    0.6666666667000000    0.3087666667000000 Ti
   0.0000000000000000    0.0000000000000000    0.6421000000000000 Ti
   0.6666666667000000    0.3333333333000000    0.4754333333000000 Ti
   0.0000000000000000    0.0000000000000000    0.3579000000000000 Ti
   0.0000000000000000    0.0000000000000000    0.1421000000000000 Ti
   0.0000000000000000    0.0000000000000000    0.8579000000000000 Ti
   0.3333333333000000    0.6666666667000000    0.5245666667000000 Ti
   0.6666666667000000    0.3333333333000000    0.6912333333000000 Ti
   0.6666666667000000    0.3333333333000000    0.1912333333000000 Ti
   0.6666666667000000    0.3333333333000000    0.9754333333000000 Ti
   0.3333333333000000    0.6666666667000000    0.8087666667000000 Ti
   0.3333333333000000    0.6666666667000000    0.0245666667000000 Ti
   0.0430333333000000    0.6666666667000000    0.4166666667000000 P
   0.2903000000000000    0.2903000000000000    0.7500000000000000 P
   0.7097000000000000    0.0000000000000000    0.7500000000000000 P
   0.9569666667000000    0.3333333333000000    0.5833333333000000 P
   0.0000000000000000    0.2903000000000000    0.2500000000000000 P
   0.7097000000000000    0.7097000000000000    0.2500000000000000 P
   0.2903000000000000    0.0000000000000000    0.2500000000000000 P
   0.3333333333000000    0.3763666667000000    0.4166666667000000 P
   0.6236333333000000    0.9569666667000000    0.4166666667000000 P
   0.0000000000000000    0.7097000000000000    0.7500000000000000 P
   0.6666666667000000    0.6236333333000000    0.5833333333000000 P
   0.3763666667000000    0.0430333333000000    0.5833333333000000 P
   0.3763666667000000    0.3333333333000000    0.0833333333000000 P
   0.6666666667000000    0.0430333333000000    0.0833333333000000 P
   0.9569666667000000    0.6236333333000000    0.0833333333000000 P
   0.6236333333000000    0.6666666667000000    0.9166666667000000 P
   0.3333333333000000    0.9569666667000000    0.9166666667000000 P
   0.0430333333000000    0.3763666667000000    0.9166666667000000 P
   0.1443333333000001    0.6626666667000001    0.3567666667000000 O
   0.1850000000000000    0.1889999999999999    0.6900999999999999 O
   0.8110000000000001    0.9960000000000000    0.6900999999999999 O
   0.8516666667000000    0.3293333332999999    0.5234333333000000 O
   0.9960000000000000    0.1850000000000000    0.3099000000000000 O
   0.8149999999999999    0.8110000000000001    0.3099000000000000 O
   0.0040000000000000    0.1889999999999999    0.1901000000000000 O
   0.8110000000000001    0.8149999999999999    0.1901000000000000 O
   0.1850000000000000    0.9960000000000000    0.1901000000000000 O
   0.1889999999999999    0.0040000000000000    0.3099000000000000 O
   0.8149999999999999    0.0040000000000000    0.8099000000000001 O
   0.1483333333000000    0.6706666667000001    0.4765666667000000 O
   0.3293333332999999    0.4776666667000000    0.4765666667000000 O
   0.5223333333000000    0.8516666667000000    0.4765666667000000 O
   0.9960000000000000    0.8110000000000001    0.8099000000000001 O
   0.1889999999999999    0.1850000000000000    0.8099000000000001 O
   0.0040000000000000    0.8149999999999999    0.6900999999999999 O
   0.6706666667000001    0.5223333333000000    0.5234333333000000 O
   0.4776666667000000    0.1483333333000000    0.5234333333000000 O
   0.6626666667000001    0.5183333333000000    0.6432333333000000 O
   0.4816666667000000    0.1443333333000001    0.6432333333000000 O
   0.8556666667000000    0.3373333333000000    0.6432333333000000 O
   0.4816666667000000    0.3373333333000000    0.1432333333000000 O
   0.6626666667000001    0.1443333333000001    0.1432333333000000 O
   0.3373333333000000    0.4816666667000000    0.3567666667000000 O
   0.5183333333000000    0.8556666667000000    0.3567666667000000 O
   0.8556666667000000    0.5183333333000000    0.1432333333000000 O
   0.6706666667000001    0.1483333333000000    0.0234333333000000 O
   0.8516666667000000    0.5223333333000000    0.0234333333000000 O
   0.4776666667000000    0.3293333332999999    0.0234333333000000 O
   0.5183333333000000    0.6626666667000001    0.8567666667000000 O
   0.3373333333000000    0.8556666667000000    0.8567666667000000 O
   0.1443333333000001    0.4816666667000000    0.8567666667000000 O
   0.3293333332999999    0.8516666667000000    0.9765666667000000 O
   0.1483333333000000    0.4776666667000000    0.9765666667000000 O
   0.5223333333000000    0.6706666667000001    0.9765666667000000 O
   0.3090333333000000    0.8307666667000000    0.2476666667000000 O
   0.1884000000000000    0.0243000000000000    0.5810000000000000 O
   0.9757000000000000    0.1641000000000000    0.5810000000000000 O
   0.8550666667000000    0.4974333333000000    0.4143333333000000 O
   0.1641000000000000    0.1884000000000000    0.4190000000000000 O
   0.8116000000000000    0.9757000000000000    0.4190000000000000 O
   0.8359000000000000    0.0243000000000000    0.0810000000000000 O
   0.9757000000000000    0.8116000000000000    0.0810000000000000 O
   0.1884000000000000    0.1641000000000000    0.0810000000000000 O
   0.0243000000000000    0.8359000000000000    0.4190000000000000 O
   0.8116000000000000    0.8359000000000000    0.9190000000000000 O
   0.1449333333000000    0.5025666667000001    0.5856666667000000 O
   0.4974333333000000    0.6423666667000000    0.5856666667000000 O
   0.3576333333000000    0.8550666667000000    0.5856666667000000 O
   0.1641000000000000    0.9757000000000000    0.9190000000000000 O
   0.0243000000000000    0.1884000000000000    0.9190000000000000 O
   0.8359000000000000    0.8116000000000000    0.5810000000000000 O
   0.5025666667000001    0.3576333333000000    0.4143333333000000 O
   0.6423666667000000    0.1449333333000000    0.4143333333000000 O
   0.8307666667000000    0.5217333333000000    0.7523333333000000 O
   0.4782666667000000    0.3090333333000000    0.7523333333000000 O
   0.6909666667000000    0.1692333333000000    0.7523333333000000 O
   0.4782666667000000    0.1692333333000000    0.2523333333000000 O
   0.8307666667000000    0.3090333333000000    0.2523333333000000 O
   0.1692333333000000    0.4782666667000000    0.2476666667000000 O
   0.5217333333000000    0.6909666667000000    0.2476666667000000 O
   0.6909666667000000    0.5217333333000000    0.2523333333000000 O
   0.5025666667000001    0.1449333333000000    0.9143333333000000 O
   0.8550666667000000    0.3576333333000000    0.9143333333000000 O
   0.6423666667000000    0.4974333333000000    0.9143333333000000 O
   0.5217333333000000    0.8307666667000000    0.7476666667000000 O
   0.1692333333000000    0.6909666667000000    0.7476666667000000 O
   0.3090333333000000    0.4782666667000000    0.7476666667000000 O
   0.4974333333000000    0.8550666667000000    0.0856666666999999 O
   0.1449333333000000    0.6423666667000000    0.0856666666999999 O
   0.3576333333000000    0.5025666667000001    0.0856666666999999 O
