
     Program PWSCF v.7.5 starts on  4Dec2025 at 10:10:23 

     This program is part of the open-source Quantum ESPRESSO suite
     for quantum simulation of materials; please cite
         "P. Giannozzi et al., J. Phys.:Condens. Matter 21 395502 (2009);
         "P. Giannozzi et al., J. Phys.:Condens. Matter 29 465901 (2017);
         "P. Giannozzi et al., J. Chem. Phys. 152 154105 (2020);
          URL http://www.quantum-espresso.org", 
     in publications or presentations arising from this work. More details at
     http://www.quantum-espresso.org/quote

     Parallel version (MPI & OpenMP), running on      16 processor cores
     Number of MPI processes:                 4
     Threads/MPI process:                     4

     MPI processes distributed on     1 nodes
     418980 MiB available memory on the printing compute node when the environment starts

     Reading input from qe/gap6/cu_ta_gap6.in
Warning: card &CELL ignored
Warning: card &FCP ignored
Warning: card &RISM ignored

     Current dimensions of program PWSCF are:
     Max number of different atomic species (ntypx) = 10
     Max number of k-points (npk) =  40000
     Max angular momentum in pseudopotentials (lmaxx) =  4
     file Cu.paw.z_11.ld1.psl.v1.0.0-low.upf: wavefunction(s)  4S 3D renormalized
     Message from routine setup:
     using ibrav=0 with symmetry is DISCOURAGED, use correct ibrav instead

     R & G space division:  proc/nbgrp/npool/nimage =       4
     Subspace diagonalization in iterative solution of the eigenvalue problem:
     a serial algorithm will be used


     Parallelization info
     --------------------
     sticks:   dense  smooth     PW     G-vecs:    dense   smooth      PW
     Min         480     289     73                53602    24959    3126
     Max         481     290     74                53613    24972    3132
     Sum        1921    1159    295               214427    99867   12515

     Using Slab Decomposition



     bravais-lattice index     =            0
     lattice parameter (alat)  =       9.6610  a.u.
     unit-cell volume          =    2443.9584 (a.u.)^3
     number of atoms/cell      =            7
     number of atomic types    =            2
     number of electrons       =        83.00
     number of Kohn-Sham states=           50
     kinetic-energy cutoff     =      45.0000  Ry
     charge density cutoff     =     300.0000  Ry
     scf convergence threshold =      1.0E-04
     mixing beta               =       0.3000
     number of iterations used =            8  plain     mixing
     Exchange-correlation= SLA  PW   PBX  PBC
                           (   1   4   3   4   0   0   0)

     celldm(1)=   9.661002  celldm(2)=   0.000000  celldm(3)=   0.000000
     celldm(4)=   0.000000  celldm(5)=   0.000000  celldm(6)=   0.000000

     crystal axes: (cart. coord. in units of alat)
               a(1) = (   1.000000   0.000000   0.000000 )  
               a(2) = (   0.500000   0.866025   0.000000 )  
               a(3) = (   0.000000   0.000000   3.129657 )  

     reciprocal axes: (cart. coord. in units 2 pi/alat)
               b(1) = (  1.000000 -0.577350  0.000000 )  
               b(2) = (  0.000000  1.154701  0.000000 )  
               b(3) = (  0.000000  0.000000  0.319524 )  


     PseudoPot. # 1 for Ta read from file:
     /apps/QE/pseudo/efficiency/Ta_pbe_v1.uspp.F.UPF
     MD5 check sum: f8bbe9446314a3b8ea5d9f3e3836c939
     Pseudo is Ultrasoft + core correction, Zval = 13.0
     Generated by new atomic code, or converted to UPF format
     Using radial grid of  921 points,  7 beta functions with: 
                l(1) =   0
                l(2) =   0
                l(3) =   1
                l(4) =   1
                l(5) =   2
                l(6) =   2
                l(7) =   3
     Q(r) pseudized with  6 coefficients,  rinner =    1.300   1.300   1.300
                                                       1.300   1.300   1.300
                                                       1.300

     PseudoPot. # 2 for Cu read from file:
     /apps/QE/pseudo/efficiency/Cu.paw.z_11.ld1.psl.v1.0.0-low.upf
     MD5 check sum: 619f40885d92a09a85a8b37550532d0c
     Pseudo is Projector augmented-wave + core cor, Zval = 11.0
     Generated using &quot;atomic&quot; code by A. Dal Corso  v.6.3MaX
     Shape of augmentation charge: PSQ
     Using radial grid of 1199 points,  6 beta functions with: 
                l(1) =   0
                l(2) =   0
                l(3) =   1
                l(4) =   1
                l(5) =   2
                l(6) =   2
     Q(r) pseudized with 0 coefficients 


     atomic species   valence    mass     pseudopotential
     Ta               13.00   180.94788     Ta( 1.00)
     Cu               11.00    63.54600     Cu( 1.00)

     12 Sym. Ops. (no inversion) found ( 6 have fractional translation)



   Cartesian axes

     site n.     atom                  positions (alat units)
         1        Ta     tau(   1) = (   0.0000000   0.0000000   2.2354690  )
         2        Ta     tau(   2) = (   0.5000000   0.2886751   2.2354690  )
         3        Ta     tau(   3) = (   1.0000000   0.5773503   2.2354690  )
         4        Cu     tau(   4) = (   0.7500000   0.1443376   1.0618478  )
         5        Cu     tau(   5) = (   0.2500000   0.1443376   1.0618478  )
         6        Cu     tau(   6) = (   1.0000000   0.5773503   1.0618478  )
         7        Cu     tau(   7) = (   0.5000000   0.5773503   1.0618478  )

     number of k points=     1  Methfessel-Paxton smearing, width (Ry)=  0.0200
                       cart. coord. in units 2pi/alat
        k(    1) = (   0.0000000   0.0000000   0.0000000), wk =   2.0000000

     Dense  grid:   214427 G-vectors     FFT dimensions: (  54,  54, 180)

     Smooth grid:    99867 G-vectors     FFT dimensions: (  45,  45, 135)

     Estimated max dynamical RAM per process >     338.44 MB

     Estimated total dynamical RAM >       1.32 GB

     Check: negative core charge=   -0.000002

     Initial potential from superposition of free atoms

     starting charge      82.9958, renormalised to      83.0000

     negative rho (up, down):  2.872E-01 0.000E+00
     Starting wfcs are   75 randomized atomic wfcs
     Checking if some PAW data can be deallocated... 

     total cpu time spent up to now is        3.8 secs

     per-process dynamical memory:    86.2 Mb

     Self-consistent Calculation

     iteration #  1     ecut=    45.00 Ry     beta= 0.30
     Davidson diagonalization with overlap
     ethr =  1.00E-02,  avg # of iterations =  2.0

     negative rho (up, down):  2.924E-01 0.000E+00

     total cpu time spent up to now is        7.5 secs

     total energy              =   -1274.59430469 Ry
     estimated scf accuracy    <       3.79143900 Ry

     iteration #  2     ecut=    45.00 Ry     beta= 0.30
     Davidson diagonalization with overlap
     ethr =  4.57E-03,  avg # of iterations = 11.0

     negative rho (up, down):  2.923E-01 0.000E+00

     total cpu time spent up to now is       13.4 secs

     total energy              =   -1273.65710922 Ry
     estimated scf accuracy    <     153.51890927 Ry

     iteration #  3     ecut=    45.00 Ry     beta= 0.30
     Davidson diagonalization with overlap
     ethr =  4.57E-03,  avg # of iterations = 19.0

     negative rho (up, down):  2.931E-01 0.000E+00

     total cpu time spent up to now is       20.0 secs

     total energy              =   -1276.02751686 Ry
     estimated scf accuracy    <       2.53081807 Ry

     iteration #  4     ecut=    45.00 Ry     beta= 0.30
     Davidson diagonalization with overlap
     ethr =  3.05E-03,  avg # of iterations =  5.0

     negative rho (up, down):  2.947E-01 0.000E+00

     total cpu time spent up to now is       24.1 secs

     total energy              =   -1276.12511797 Ry
     estimated scf accuracy    <       0.34587783 Ry

     iteration #  5     ecut=    45.00 Ry     beta= 0.30
     Davidson diagonalization with overlap
     ethr =  4.17E-04,  avg # of iterations =  9.0

     negative rho (up, down):  2.951E-01 0.000E+00

     total cpu time spent up to now is       28.9 secs

     total energy              =   -1276.19570341 Ry
     estimated scf accuracy    <       0.64440701 Ry

     iteration #  6     ecut=    45.00 Ry     beta= 0.30
     Davidson diagonalization with overlap
     ethr =  4.17E-04,  avg # of iterations =  1.0

     negative rho (up, down):  2.954E-01 0.000E+00

     total cpu time spent up to now is       32.7 secs

     total energy              =   -1276.19745404 Ry
     estimated scf accuracy    <       0.41392039 Ry

     iteration #  7     ecut=    45.00 Ry     beta= 0.30
     Davidson diagonalization with overlap
     ethr =  4.17E-04,  avg # of iterations =  1.0

     negative rho (up, down):  3.014E-01 0.000E+00

     total cpu time spent up to now is       37.2 secs

     total energy              =   -1276.10294579 Ry
     estimated scf accuracy    <       0.41188776 Ry

     iteration #  8     ecut=    45.00 Ry     beta= 0.30
     Davidson diagonalization with overlap
     ethr =  4.17E-04,  avg # of iterations =  2.0

     negative rho (up, down):  3.013E-01 0.000E+00

     total cpu time spent up to now is       41.1 secs

     total energy              =   -1275.84930526 Ry
     estimated scf accuracy    <      30.85386559 Ry

     iteration #  9     ecut=    45.00 Ry     beta= 0.30
     Davidson diagonalization with overlap
     ethr =  4.17E-04,  avg # of iterations =  2.0

     negative rho (up, down):  3.012E-01 0.000E+00

     total cpu time spent up to now is       45.5 secs

     total energy              =   -1276.13870145 Ry
     estimated scf accuracy    <       1.63703014 Ry

     iteration # 10     ecut=    45.00 Ry     beta= 0.30
     Davidson diagonalization with overlap
     ethr =  4.17E-04,  avg # of iterations =  1.0

     negative rho (up, down):  3.010E-01 0.000E+00

     total cpu time spent up to now is       49.8 secs

     total energy              =   -1276.16135801 Ry
     estimated scf accuracy    <       0.09912273 Ry

     iteration # 11     ecut=    45.00 Ry     beta= 0.30
     Davidson diagonalization with overlap
     ethr =  1.19E-04,  avg # of iterations =  1.0

     negative rho (up, down):  3.032E-01 0.000E+00

     total cpu time spent up to now is       54.2 secs

     total energy              =   -1276.15892059 Ry
     estimated scf accuracy    <       0.10711896 Ry

     iteration # 12     ecut=    45.00 Ry     beta= 0.30
     Davidson diagonalization with overlap
     ethr =  1.19E-04,  avg # of iterations =  1.0

     negative rho (up, down):  3.032E-01 0.000E+00

     total cpu time spent up to now is       58.4 secs

     total energy              =   -1276.16108078 Ry
     estimated scf accuracy    <       1.39666499 Ry

     iteration # 13     ecut=    45.00 Ry     beta= 0.30
     Davidson diagonalization with overlap
     ethr =  1.19E-04,  avg # of iterations =  1.0

     negative rho (up, down):  3.032E-01 0.000E+00

     total cpu time spent up to now is       63.6 secs

     total energy              =   -1276.16218935 Ry
     estimated scf accuracy    <       0.12936325 Ry

     iteration # 14     ecut=    45.00 Ry     beta= 0.30
     Davidson diagonalization with overlap
     ethr =  1.19E-04,  avg # of iterations =  1.0

     negative rho (up, down):  3.035E-01 0.000E+00

     total cpu time spent up to now is       67.9 secs

     total energy              =   -1276.16313748 Ry
     estimated scf accuracy    <       0.01145425 Ry

     iteration # 15     ecut=    45.00 Ry     beta= 0.30
     Davidson diagonalization with overlap
     ethr =  1.38E-05,  avg # of iterations =  1.0

     negative rho (up, down):  3.035E-01 0.000E+00

     total cpu time spent up to now is       71.9 secs

     total energy              =   -1276.16331826 Ry
     estimated scf accuracy    <       0.00482645 Ry

     iteration # 16     ecut=    45.00 Ry     beta= 0.30
     Davidson diagonalization with overlap
     ethr =  5.82E-06,  avg # of iterations =  1.0

     negative rho (up, down):  3.035E-01 0.000E+00

     total cpu time spent up to now is       75.9 secs

     total energy              =   -1276.16334432 Ry
     estimated scf accuracy    <       0.00099208 Ry

     iteration # 17     ecut=    45.00 Ry     beta= 0.30
     Davidson diagonalization with overlap
     ethr =  1.20E-06,  avg # of iterations = 10.0

     negative rho (up, down):  3.035E-01 0.000E+00

     total cpu time spent up to now is       81.3 secs

     total energy              =   -1276.16349684 Ry
     estimated scf accuracy    <       0.00025801 Ry

     iteration # 18     ecut=    45.00 Ry     beta= 0.30
     Davidson diagonalization with overlap
     ethr =  3.11E-07,  avg # of iterations =  1.0

     negative rho (up, down):  3.035E-01 0.000E+00

     total cpu time spent up to now is       85.9 secs

     total energy              =   -1276.16350200 Ry
     estimated scf accuracy    <       0.00034497 Ry

     iteration # 19     ecut=    45.00 Ry     beta= 0.30
     Davidson diagonalization with overlap
     ethr =  3.11E-07,  avg # of iterations =  1.0

     negative rho (up, down):  3.035E-01 0.000E+00

     total cpu time spent up to now is       89.4 secs

     total energy              =   -1276.16349334 Ry
     estimated scf accuracy    <       0.00046373 Ry

     iteration # 20     ecut=    45.00 Ry     beta= 0.30
     Davidson diagonalization with overlap
     ethr =  3.11E-07,  avg # of iterations =  1.0

     negative rho (up, down):  3.035E-01 0.000E+00

     total cpu time spent up to now is       92.8 secs

     total energy              =   -1276.16347988 Ry
     estimated scf accuracy    <       0.00022257 Ry

     iteration # 21     ecut=    45.00 Ry     beta= 0.30
     Davidson diagonalization with overlap
     ethr =  2.68E-07,  avg # of iterations =  1.0

     negative rho (up, down):  3.034E-01 0.000E+00

     total cpu time spent up to now is       96.5 secs

     End of self-consistent calculation

          k = 0.0000 0.0000 0.0000 ( 12515 PWs)   bands (ev):

   -66.4270 -66.3543 -66.3525 -33.2568 -33.1235 -33.1235 -32.8977 -32.8977
   -32.8952 -32.8952 -32.3076 -32.3076  -6.0178  -4.3371  -3.4855  -3.4854
    -3.4854  -2.2218  -2.2216  -2.2216  -2.0112  -2.0112  -1.6285  -1.0455
    -1.0452  -1.0452  -0.9858  -0.9858  -0.9855  -0.8117  -0.8117  -0.6550
    -0.6548  -0.6548   0.6130   1.1058   1.1778   1.1778   1.1786   1.1786
     1.3287   1.3287   1.3292   1.3292   1.4940   1.4948   1.4948   1.8038
     2.4785   2.4785

     the Fermi energy is     1.3172 ev

!    total energy              =   -1276.16340707 Ry
     estimated scf accuracy    <       0.00008237 Ry
     smearing contrib. (-TS)   =      -0.03045679 Ry
     internal energy E=F+TS    =   -1276.13295028 Ry

     The total energy is F=E-TS. E is the sum of the following terms:
     one-electron contribution =   -1314.95833386 Ry
     hartree contribution      =     699.59028222 Ry
     xc contribution           =    -304.44541344 Ry
     ewald contribution        =       2.85885597 Ry
     one-center paw contrib.   =    -359.17834117 Ry

     convergence has been achieved in  21 iterations

     Writing all to output data dir ./tmp/CuTa_gap6.save/ :
     XML data file, charge density, pseudopotentials, collected wavefunctions

     init_run     :      3.12s CPU      3.47s WALL (       1 calls)
     electrons    :     82.60s CPU     92.72s WALL (       1 calls)

     Called by init_run:
     wfcinit      :      0.64s CPU      0.66s WALL (       1 calls)
     potinit      :      1.18s CPU      1.30s WALL (       1 calls)
     hinit0       :      0.66s CPU      0.76s WALL (       1 calls)

     Called by electrons:
     c_bands      :     33.41s CPU     37.62s WALL (      21 calls)
     sum_band     :     18.17s CPU     21.08s WALL (      21 calls)
     v_of_rho     :      2.65s CPU      2.43s WALL (      22 calls)
     newd         :     12.32s CPU     14.62s WALL (      22 calls)
     PAW_pot      :     16.11s CPU     16.91s WALL (      22 calls)
     mix_rho      :      0.80s CPU      0.85s WALL (      21 calls)

     Called by c_bands:
     init_us_2    :      0.18s CPU      0.18s WALL (      43 calls)
     cegterg      :     32.98s CPU     37.17s WALL (      21 calls)

     Called by *egterg:
     cdiaghg      :      0.84s CPU      1.02s WALL (      94 calls)
     h_psi        :     29.27s CPU     32.61s WALL (      95 calls)
     s_psi        :      0.30s CPU      0.27s WALL (      95 calls)
     g_psi        :      0.03s CPU      0.04s WALL (      73 calls)

     Called by h_psi:
     h_psi:calbec :      1.20s CPU      1.28s WALL (      95 calls)
     vloc_psi     :     27.57s CPU     30.55s WALL (      95 calls)
                                        0.00s GPU  (      95 calls)
     add_vuspsi   :      0.39s CPU      0.49s WALL (      95 calls)

     General routines
     calbec       :      1.47s CPU      1.59s WALL (     116 calls)
     fft          :      3.05s CPU      3.57s WALL (     284 calls)
     ffts         :      0.45s CPU      0.56s WALL (      43 calls)
     fftw         :     32.18s CPU     35.78s WALL (    5848 calls)
     interpolate  :      0.59s CPU      0.82s WALL (      22 calls)

     Parallel routines

     PWSCF        :   1m26.08s CPU   1m36.58s WALL


   This run was terminated on:  10:12: 0   4Dec2025            

=------------------------------------------------------------------------------=
   JOB DONE.
=------------------------------------------------------------------------------=
