Generated by pymatgen.io.lammps.data.LammpsData

1536  atoms

   4  atom types

0.000000 26.213000  xlo xhi
0.000000 26.213000  ylo yhi
0.000000 25.228600  zlo zhi

Masses

1    6.94100
2  138.90547
3   91.22400
4   15.99940

Atoms

1     1  1.0000  0.000000  3.276625  4.730362
2     1  1.0000  0.000000  3.276625 17.344662
3     1  1.0000  0.000000 16.383125  4.730362
4     1  1.0000  0.000000 16.383125 17.344662
5     1  1.0000 13.106500  3.276625  4.730362
6     1  1.0000 13.106500  3.276625 17.344662
7     1  1.0000 13.106500 16.383125  4.730362
8     1  1.0000 13.106500 16.383125 17.344662
9     1  1.0000  0.000000  9.829875  7.883937
10    1  1.0000  0.000000  9.829875 20.498237
11    1  1.0000  0.000000 22.936375  7.883937
12    1  1.0000  0.000000 22.936375 20.498237
13    1  1.0000 13.106500  9.829875  7.883937
14    1  1.0000 13.106500  9.829875 20.498237
15    1  1.0000 13.106500 22.936375  7.883937
16    1  1.0000 13.106500 22.936375 20.498237
17    1  1.0000  6.553250  3.276625  7.883937
18    1  1.0000  6.553250  3.276625 20.498237
19    1  1.0000  6.553250 16.383125  7.883937
20    1  1.0000  6.553250 16.383125 20.498237
21    1  1.0000 19.659750  3.276625  7.883937
22    1  1.0000 19.659750  3.276625 20.498237
23    1  1.0000 19.659750 16.383125  7.883937
24    1  1.0000 19.659750 16.383125 20.498237
25    1  1.0000  6.553250  9.829875  4.730362
26    1  1.0000  6.553250  9.829875 17.344662
27    1  1.0000  6.553250 22.936375  4.730362
28    1  1.0000  6.553250 22.936375 17.344662
29    1  1.0000 19.659750  9.829875  4.730362
30    1  1.0000 19.659750  9.829875 17.344662
31    1  1.0000 19.659750 22.936375  4.730362
32    1  1.0000 19.659750 22.936375 17.344662
33    1  1.0000  6.553250  9.829875 11.037512
34    1  1.0000  6.553250  9.829875 23.651812
35    1  1.0000  6.553250 22.936375 11.037512
36    1  1.0000  6.553250 22.936375 23.651812
37    1  1.0000 19.659750  9.829875 11.037512
38    1  1.0000 19.659750  9.829875 23.651812
39    1  1.0000 19.659750 22.936375 11.037512
40    1  1.0000 19.659750 22.936375 23.651812
41    1  1.0000  6.553250  3.276625  1.576787
42    1  1.0000  6.553250  3.276625 14.191087
43    1  1.0000  6.553250 16.383125  1.576787
44    1  1.0000  6.553250 16.383125 14.191087
45    1  1.0000 19.659750  3.276625  1.576787
46    1  1.0000 19.659750  3.276625 14.191087
47    1  1.0000 19.659750 16.383125  1.576787
48    1  1.0000 19.659750 16.383125 14.191087
49    1  1.0000 13.106500  9.829875  1.576787
50    1  1.0000 13.106500  9.829875 14.191087
51    1  1.0000 13.106500 22.936375  1.576787
52    1  1.0000 13.106500 22.936375 14.191087
53    1  1.0000  0.000000  9.829875  1.576787
54    1  1.0000  0.000000  9.829875 14.191087
55    1  1.0000  0.000000 22.936375  1.576787
56    1  1.0000  0.000000 22.936375 14.191087
57    1  1.0000 13.106500  3.276625 11.037512
58    1  1.0000 13.106500  3.276625 23.651812
59    1  1.0000 13.106500 16.383125 11.037512
60    1  1.0000 13.106500 16.383125 23.651812
61    1  1.0000  0.000000  3.276625 11.037512
62    1  1.0000  0.000000  3.276625 23.651812
63    1  1.0000  0.000000 16.383125 11.037512
64    1  1.0000  0.000000 16.383125 23.651812
65    1  1.0000  2.356549  5.633174  1.576787
66    1  1.0000  2.356549  5.633174 14.191087
67    1  1.0000  2.356549 18.739674  1.576787
68    1  1.0000  2.356549 18.739674 14.191087
69    1  1.0000 15.463049  5.633174  1.576787
70    1  1.0000 15.463049  5.633174 14.191087
71    1  1.0000 15.463049 18.739674  1.576787
72    1  1.0000 15.463049 18.739674 14.191087
73    1  1.0000  4.196701  7.473326  7.883937
74    1  1.0000  4.196701  7.473326 20.498237
75    1  1.0000  4.196701 20.579826  7.883937
76    1  1.0000  4.196701 20.579826 20.498237
77    1  1.0000 17.303201  7.473326  7.883937
78    1  1.0000 17.303201  7.473326 20.498237
79    1  1.0000 17.303201 20.579826  7.883937
80    1  1.0000 17.303201 20.579826 20.498237
81    1  1.0000 10.749951 12.186424  4.730362
82    1  1.0000 10.749951 12.186424 17.344662
83    1  1.0000 10.749951 25.292924  4.730362
84    1  1.0000 10.749951 25.292924 17.344662
85    1  1.0000 23.856451 12.186424  4.730362
86    1  1.0000 23.856451 12.186424 17.344662
87    1  1.0000 23.856451 25.292924  4.730362
88    1  1.0000 23.856451 25.292924 17.344662
89    1  1.0000  8.909799  0.920076 11.037512
90    1  1.0000  8.909799  0.920076 23.651812
91    1  1.0000  8.909799 14.026576 11.037512
92    1  1.0000  8.909799 14.026576 23.651812
93    1  1.0000 22.016299  0.920076 11.037512
94    1  1.0000 22.016299  0.920076 23.651812
95    1  1.0000 22.016299 14.026576 11.037512
96    1  1.0000 22.016299 14.026576 23.651812
97    1  1.0000 10.749951  7.473326 11.037512
98    1  1.0000 10.749951  7.473326 23.651812
99    1  1.0000 10.749951 20.579826 11.037512
100   1  1.0000 10.749951 20.579826 23.651812
101   1  1.0000 23.856451  7.473326 11.037512
102   1  1.0000 23.856451  7.473326 23.651812
103   1  1.0000 23.856451 20.579826 11.037512
104   1  1.0000 23.856451 20.579826 23.651812
105   1  1.0000  8.909799  5.633174  4.730362
106   1  1.0000  8.909799  5.633174 17.344662
107   1  1.0000  8.909799 18.739674  4.730362
108   1  1.0000  8.909799 18.739674 17.344662
109   1  1.0000 22.016299  5.633174  4.730362
110   1  1.0000 22.016299  5.633174 17.344662
111   1  1.0000 22.016299 18.739674  4.730362
112   1  1.0000 22.016299 18.739674 17.344662
113   1  1.0000  2.356549  0.920076  7.883937
114   1  1.0000  2.356549  0.920076 20.498237
115   1  1.0000  2.356549 14.026576  7.883937
116   1  1.0000  2.356549 14.026576 20.498237
117   1  1.0000 15.463049  0.920076  7.883937
118   1  1.0000 15.463049  0.920076 20.498237
119   1  1.0000 15.463049 14.026576  7.883937
120   1  1.0000 15.463049 14.026576 20.498237
121   1  1.0000  4.196701 12.186424  1.576787
122   1  1.0000  4.196701 12.186424 14.191087
123   1  1.0000  4.196701 25.292924  1.576787
124   1  1.0000  4.196701 25.292924 14.191087
125   1  1.0000 17.303201 12.186424  1.576787
126   1  1.0000 17.303201 12.186424 14.191087
127   1  1.0000 17.303201 25.292924  1.576787
128   1  1.0000 17.303201 25.292924 14.191087
129   1  1.0000  8.909799 12.186424  7.883937
130   1  1.0000  8.909799 12.186424 20.498237
131   1  1.0000  8.909799 25.292924  7.883937
132   1  1.0000  8.909799 25.292924 20.498237
133   1  1.0000 22.016299 12.186424  7.883937
134   1  1.0000 22.016299 12.186424 20.498237
135   1  1.0000 22.016299 25.292924  7.883937
136   1  1.0000 22.016299 25.292924 20.498237
137   1  1.0000 10.749951  0.920076  1.576787
138   1  1.0000 10.749951  0.920076 14.191087
139   1  1.0000 10.749951 14.026576  1.576787
140   1  1.0000 10.749951 14.026576 14.191087
141   1  1.0000 23.856451  0.920076  1.576787
142   1  1.0000 23.856451  0.920076 14.191087
143   1  1.0000 23.856451 14.026576  1.576787
144   1  1.0000 23.856451 14.026576 14.191087
145   1  1.0000  4.196701  5.633174 11.037512
146   1  1.0000  4.196701  5.633174 23.651812
147   1  1.0000  4.196701 18.739674 11.037512
148   1  1.0000  4.196701 18.739674 23.651812
149   1  1.0000 17.303201  5.633174 11.037512
150   1  1.0000 17.303201  5.633174 23.651812
151   1  1.0000 17.303201 18.739674 11.037512
152   1  1.0000 17.303201 18.739674 23.651812
153   1  1.0000  2.356549  7.473326  4.730362
154   1  1.0000  2.356549  7.473326 17.344662
155   1  1.0000  2.356549 20.579826  4.730362
156   1  1.0000  2.356549 20.579826 17.344662
157   1  1.0000 15.463049  7.473326  4.730362
158   1  1.0000 15.463049  7.473326 17.344662
159   1  1.0000 15.463049 20.579826  4.730362
160   1  1.0000 15.463049 20.579826 17.344662
161   1  1.0000  4.196701  0.920076  4.730362
162   1  1.0000  4.196701  0.920076 17.344662
163   1  1.0000  4.196701 14.026576  4.730362
164   1  1.0000  4.196701 14.026576 17.344662
165   1  1.0000 17.303201  0.920076  4.730362
166   1  1.0000 17.303201  0.920076 17.344662
167   1  1.0000 17.303201 14.026576  4.730362
168   1  1.0000 17.303201 14.026576 17.344662
169   1  1.0000  2.356549 12.186424 11.037512
170   1  1.0000  2.356549 12.186424 23.651812
171   1  1.0000  2.356549 25.292924 11.037512
172   1  1.0000  2.356549 25.292924 23.651812
173   1  1.0000 15.463049 12.186424 11.037512
174   1  1.0000 15.463049 12.186424 23.651812
175   1  1.0000 15.463049 25.292924 11.037512
176   1  1.0000 15.463049 25.292924 23.651812
177   1  1.0000  8.909799  7.473326  1.576787
178   1  1.0000  8.909799  7.473326 14.191087
179   1  1.0000  8.909799 20.579826  1.576787
180   1  1.0000  8.909799 20.579826 14.191087
181   1  1.0000 22.016299  7.473326  1.576787
182   1  1.0000 22.016299  7.473326 14.191087
183   1  1.0000 22.016299 20.579826  1.576787
184   1  1.0000 22.016299 20.579826 14.191087
185   1  1.0000 10.749951  5.633174  7.883937
186   1  1.0000 10.749951  5.633174 20.498237
187   1  1.0000 10.749951 18.739674  7.883937
188   1  1.0000 10.749951 18.739674 20.498237
189   1  1.0000 23.856451  5.633174  7.883937
190   1  1.0000 23.856451  5.633174 20.498237
191   1  1.0000 23.856451 18.739674  7.883937
192   1  1.0000 23.856451 18.739674 20.498237
193   1  1.0000  1.065558  1.141576 10.163342
194   1  1.0000  1.065558  1.141576 22.777642
195   1  1.0000  1.065558 14.248076 10.163342
196   1  1.0000  1.065558 14.248076 22.777642
197   1  1.0000 14.172058  1.141576 10.163342
198   1  1.0000 14.172058  1.141576 22.777642
199   1  1.0000 14.172058 14.248076 10.163342
200   1  1.0000 14.172058 14.248076 22.777642
201   1  1.0000  5.487692 11.964924  3.856192
202   1  1.0000  5.487692 11.964924 16.470492
203   1  1.0000  5.487692 25.071424  3.856192
204   1  1.0000  5.487692 25.071424 16.470492
205   1  1.0000 18.594192 11.964924  3.856192
206   1  1.0000 18.594192 11.964924 16.470492
207   1  1.0000 18.594192 25.071424  3.856192
208   1  1.0000 18.594192 25.071424 16.470492
209   1  1.0000  2.135049 10.895433  0.702617
210   1  1.0000  2.135049 10.895433 13.316917
211   1  1.0000  2.135049 24.001933  0.702617
212   1  1.0000  2.135049 24.001933 13.316917
213   1  1.0000 15.241549 10.895433  0.702617
214   1  1.0000 15.241549 10.895433 13.316917
215   1  1.0000 15.241549 24.001933  0.702617
216   1  1.0000 15.241549 24.001933 13.316917
217   1  1.0000  4.418201  2.211067  7.009767
218   1  1.0000  4.418201  2.211067 19.624067
219   1  1.0000  4.418201 15.317567  7.009767
220   1  1.0000  4.418201 15.317567 19.624067
221   1  1.0000 17.524701  2.211067  7.009767
222   1  1.0000 17.524701  2.211067 19.624067
223   1  1.0000 17.524701 15.317567  7.009767
224   1  1.0000 17.524701 15.317567 19.624067
225   1  1.0000  5.487692  1.141576  2.450958
226   1  1.0000  5.487692  1.141576 15.065258
227   1  1.0000  5.487692 14.248076  2.450958
228   1  1.0000  5.487692 14.248076 15.065258
229   1  1.0000 18.594192  1.141576  2.450958
230   1  1.0000 18.594192  1.141576 15.065258
231   1  1.0000 18.594192 14.248076  2.450958
232   1  1.0000 18.594192 14.248076 15.065258
233   1  1.0000  1.065558 11.964924  8.758108
234   1  1.0000  1.065558 11.964924 21.372408
235   1  1.0000  1.065558 25.071424  8.758108
236   1  1.0000  1.065558 25.071424 21.372408
237   1  1.0000 14.172058 11.964924  8.758108
238   1  1.0000 14.172058 11.964924 21.372408
239   1  1.0000 14.172058 25.071424  8.758108
240   1  1.0000 14.172058 25.071424 21.372408
241   1  1.0000  4.418201 10.895433 11.911683
242   1  1.0000  4.418201 10.895433 24.525983
243   1  1.0000  4.418201 24.001933 11.911683
244   1  1.0000  4.418201 24.001933 24.525983
245   1  1.0000 17.524701 10.895433 11.911683
246   1  1.0000 17.524701 10.895433 24.525983
247   1  1.0000 17.524701 24.001933 11.911683
248   1  1.0000 17.524701 24.001933 24.525983
249   1  1.0000  2.135049  2.211067  5.604533
250   1  1.0000  2.135049  2.211067 18.218833
251   1  1.0000  2.135049 15.317567  5.604533
252   1  1.0000  2.135049 15.317567 18.218833
253   1  1.0000 15.241549  2.211067  5.604533
254   1  1.0000 15.241549  2.211067 18.218833
255   1  1.0000 15.241549 15.317567  5.604533
256   1  1.0000 15.241549 15.317567 18.218833
257   1  1.0000 12.040942 11.964924  2.450958
258   1  1.0000 12.040942 11.964924 15.065258
259   1  1.0000 12.040942 25.071424  2.450958
260   1  1.0000 12.040942 25.071424 15.065258
261   1  1.0000 25.147442 11.964924  2.450958
262   1  1.0000 25.147442 11.964924 15.065258
263   1  1.0000 25.147442 25.071424  2.450958
264   1  1.0000 25.147442 25.071424 15.065258
265   1  1.0000  7.618808  1.141576  8.758108
266   1  1.0000  7.618808  1.141576 21.372408
267   1  1.0000  7.618808 14.248076  8.758108
268   1  1.0000  7.618808 14.248076 21.372408
269   1  1.0000 20.725308  1.141576  8.758108
270   1  1.0000 20.725308  1.141576 21.372408
271   1  1.0000 20.725308 14.248076  8.758108
272   1  1.0000 20.725308 14.248076 21.372408
273   1  1.0000 10.971451  2.211067 11.911683
274   1  1.0000 10.971451  2.211067 24.525983
275   1  1.0000 10.971451 15.317567 11.911683
276   1  1.0000 10.971451 15.317567 24.525983
277   1  1.0000 24.077951  2.211067 11.911683
278   1  1.0000 24.077951  2.211067 24.525983
279   1  1.0000 24.077951 15.317567 11.911683
280   1  1.0000 24.077951 15.317567 24.525983
281   1  1.0000  8.688299 10.895433  5.604533
282   1  1.0000  8.688299 10.895433 18.218833
283   1  1.0000  8.688299 24.001933  5.604533
284   1  1.0000  8.688299 24.001933 18.218833
285   1  1.0000 21.794799 10.895433  5.604533
286   1  1.0000 21.794799 10.895433 18.218833
287   1  1.0000 21.794799 24.001933  5.604533
288   1  1.0000 21.794799 24.001933 18.218833
289   1  1.0000  7.618808 11.964924 10.163342
290   1  1.0000  7.618808 11.964924 22.777642
291   1  1.0000  7.618808 25.071424 10.163342
292   1  1.0000  7.618808 25.071424 22.777642
293   1  1.0000 20.725308 11.964924 10.163342
294   1  1.0000 20.725308 11.964924 22.777642
295   1  1.0000 20.725308 25.071424 10.163342
296   1  1.0000 20.725308 25.071424 22.777642
297   1  1.0000 12.040942  1.141576  3.856192
298   1  1.0000 12.040942  1.141576 16.470492
299   1  1.0000 12.040942 14.248076  3.856192
300   1  1.0000 12.040942 14.248076 16.470492
301   1  1.0000 25.147442  1.141576  3.856192
302   1  1.0000 25.147442  1.141576 16.470492
303   1  1.0000 25.147442 14.248076  3.856192
304   1  1.0000 25.147442 14.248076 16.470492
305   1  1.0000  8.688299  2.211067  0.702617
306   1  1.0000  8.688299  2.211067 13.316917
307   1  1.0000  8.688299 15.317567  0.702617
308   1  1.0000  8.688299 15.317567 13.316917
309   1  1.0000 21.794799  2.211067  0.702617
310   1  1.0000 21.794799  2.211067 13.316917
311   1  1.0000 21.794799 15.317567  0.702617
312   1  1.0000 21.794799 15.317567 13.316917
313   1  1.0000 10.971451 10.895433  7.009767
314   1  1.0000 10.971451 10.895433 19.624067
315   1  1.0000 10.971451 24.001933  7.009767
316   1  1.0000 10.971451 24.001933 19.624067
317   1  1.0000 24.077951 10.895433  7.009767
318   1  1.0000 24.077951 10.895433 19.624067
319   1  1.0000 24.077951 24.001933  7.009767
320   1  1.0000 24.077951 24.001933 19.624067
321   1  1.0000  7.618808  7.694826  3.856192
322   1  1.0000  7.618808  7.694826 16.470492
323   1  1.0000  7.618808 20.801326  3.856192
324   1  1.0000  7.618808 20.801326 16.470492
325   1  1.0000 20.725308  7.694826  3.856192
326   1  1.0000 20.725308  7.694826 16.470492
327   1  1.0000 20.725308 20.801326  3.856192
328   1  1.0000 20.725308 20.801326 16.470492
329   1  1.0000 12.040942  5.411674 10.163342
330   1  1.0000 12.040942  5.411674 22.777642
331   1  1.0000 12.040942 18.518174 10.163342
332   1  1.0000 12.040942 18.518174 22.777642
333   1  1.0000 25.147442  5.411674 10.163342
334   1  1.0000 25.147442  5.411674 22.777642
335   1  1.0000 25.147442 18.518174 10.163342
336   1  1.0000 25.147442 18.518174 22.777642
337   1  1.0000  8.688299  4.342183  7.009767
338   1  1.0000  8.688299  4.342183 19.624067
339   1  1.0000  8.688299 17.448683  7.009767
340   1  1.0000  8.688299 17.448683 19.624067
341   1  1.0000 21.794799  4.342183  7.009767
342   1  1.0000 21.794799  4.342183 19.624067
343   1  1.0000 21.794799 17.448683  7.009767
344   1  1.0000 21.794799 17.448683 19.624067
345   1  1.0000 10.971451  8.764317 13.316917
346   1  1.0000 10.971451  8.764317  0.702617
347   1  1.0000 10.971451 21.870817 13.316917
348   1  1.0000 10.971451 21.870817  0.702617
349   1  1.0000 24.077951  8.764317 13.316917
350   1  1.0000 24.077951  8.764317  0.702617
351   1  1.0000 24.077951 21.870817 13.316917
352   1  1.0000 24.077951 21.870817  0.702617
353   1  1.0000 12.040942  7.694826  8.758108
354   1  1.0000 12.040942  7.694826 21.372408
355   1  1.0000 12.040942 20.801326  8.758108
356   1  1.0000 12.040942 20.801326 21.372408
357   1  1.0000 25.147442  7.694826  8.758108
358   1  1.0000 25.147442  7.694826 21.372408
359   1  1.0000 25.147442 20.801326  8.758108
360   1  1.0000 25.147442 20.801326 21.372408
361   1  1.0000  7.618808  5.411674  2.450958
362   1  1.0000  7.618808  5.411674 15.065258
363   1  1.0000  7.618808 18.518174  2.450958
364   1  1.0000  7.618808 18.518174 15.065258
365   1  1.0000 20.725308  5.411674  2.450958
366   1  1.0000 20.725308  5.411674 15.065258
367   1  1.0000 20.725308 18.518174  2.450958
368   1  1.0000 20.725308 18.518174 15.065258
369   1  1.0000 10.971451  4.342183  5.604533
370   1  1.0000 10.971451  4.342183 18.218833
371   1  1.0000 10.971451 17.448683  5.604533
372   1  1.0000 10.971451 17.448683 18.218833
373   1  1.0000 24.077951  4.342183  5.604533
374   1  1.0000 24.077951  4.342183 18.218833
375   1  1.0000 24.077951 17.448683  5.604533
376   1  1.0000 24.077951 17.448683 18.218833
377   1  1.0000  8.688299  8.764317 11.911683
378   1  1.0000  8.688299  8.764317 24.525983
379   1  1.0000  8.688299 21.870817 11.911683
380   1  1.0000  8.688299 21.870817 24.525983
381   1  1.0000 21.794799  8.764317 11.911683
382   1  1.0000 21.794799  8.764317 24.525983
383   1  1.0000 21.794799 21.870817 11.911683
384   1  1.0000 21.794799 21.870817 24.525983
385   1  1.0000  5.487692  5.411674  8.758108
386   1  1.0000  5.487692  5.411674 21.372408
387   1  1.0000  5.487692 18.518174  8.758108
388   1  1.0000  5.487692 18.518174 21.372408
389   1  1.0000 18.594192  5.411674  8.758108
390   1  1.0000 18.594192  5.411674 21.372408
391   1  1.0000 18.594192 18.518174  8.758108
392   1  1.0000 18.594192 18.518174 21.372408
393   1  1.0000  1.065558  7.694826  2.450958
394   1  1.0000  1.065558  7.694826 15.065258
395   1  1.0000  1.065558 20.801326  2.450958
396   1  1.0000  1.065558 20.801326 15.065258
397   1  1.0000 14.172058  7.694826  2.450958
398   1  1.0000 14.172058  7.694826 15.065258
399   1  1.0000 14.172058 20.801326  2.450958
400   1  1.0000 14.172058 20.801326 15.065258
401   1  1.0000  4.418201  8.764317  5.604533
402   1  1.0000  4.418201  8.764317 18.218833
403   1  1.0000  4.418201 21.870817  5.604533
404   1  1.0000  4.418201 21.870817 18.218833
405   1  1.0000 17.524701  8.764317  5.604533
406   1  1.0000 17.524701  8.764317 18.218833
407   1  1.0000 17.524701 21.870817  5.604533
408   1  1.0000 17.524701 21.870817 18.218833
409   1  1.0000  2.135049  4.342183 11.911683
410   1  1.0000  2.135049  4.342183 24.525983
411   1  1.0000  2.135049 17.448683 11.911683
412   1  1.0000  2.135049 17.448683 24.525983
413   1  1.0000 15.241549  4.342183 11.911683
414   1  1.0000 15.241549  4.342183 24.525983
415   1  1.0000 15.241549 17.448683 11.911683
416   1  1.0000 15.241549 17.448683 24.525983
417   1  1.0000  1.065558  5.411674  3.856192
418   1  1.0000  1.065558  5.411674 16.470492
419   1  1.0000  1.065558 18.518174  3.856192
420   1  1.0000  1.065558 18.518174 16.470492
421   1  1.0000 14.172058  5.411674  3.856192
422   1  1.0000 14.172058  5.411674 16.470492
423   1  1.0000 14.172058 18.518174  3.856192
424   1  1.0000 14.172058 18.518174 16.470492
425   1  1.0000  5.487692  7.694826 10.163342
426   1  1.0000  5.487692  7.694826 22.777642
427   1  1.0000  5.487692 20.801326 10.163342
428   1  1.0000  5.487692 20.801326 22.777642
429   1  1.0000 18.594192  7.694826 10.163342
430   1  1.0000 18.594192  7.694826 22.777642
431   1  1.0000 18.594192 20.801326 10.163342
432   1  1.0000 18.594192 20.801326 22.777642
433   1  1.0000  2.135049  8.764317  7.009767
434   1  1.0000  2.135049  8.764317 19.624067
435   1  1.0000  2.135049 21.870817  7.009767
436   1  1.0000  2.135049 21.870817 19.624067
437   1  1.0000 15.241549  8.764317  7.009767
438   1  1.0000 15.241549  8.764317 19.624067
439   1  1.0000 15.241549 21.870817  7.009767
440   1  1.0000 15.241549 21.870817 19.624067
441   1  1.0000  4.418201  4.342183 13.316917
442   1  1.0000  4.418201  4.342183  0.702617
443   1  1.0000  4.418201 17.448683 13.316917
444   1  1.0000  4.418201 17.448683  0.702617
445   1  1.0000 17.524701  4.342183 13.316917
446   1  1.0000 17.524701  4.342183  0.702617
447   1  1.0000 17.524701 17.448683 13.316917
448   1  1.0000 17.524701 17.448683  0.702617
449   2  2.5000  0.000000  3.276625  1.576787
450   2  2.5000  0.000000  3.276625 14.191087
451   2  2.5000  0.000000 16.383125  1.576787
452   2  2.5000  0.000000 16.383125 14.191087
453   2  2.5000 13.106500  3.276625  1.576787
454   2  2.5000 13.106500  3.276625 14.191087
455   2  2.5000 13.106500 16.383125  1.576787
456   2  2.5000 13.106500 16.383125 14.191087
457   2  2.5000  0.000000  9.829875  4.730362
458   2  2.5000  0.000000  9.829875 17.344662
459   2  2.5000  0.000000 22.936375  4.730362
460   2  2.5000  0.000000 22.936375 17.344662
461   2  2.5000 13.106500  9.829875  4.730362
462   2  2.5000 13.106500  9.829875 17.344662
463   2  2.5000 13.106500 22.936375  4.730362
464   2  2.5000 13.106500 22.936375 17.344662
465   2  2.5000  0.000000  9.829875 11.037512
466   2  2.5000  0.000000  9.829875 23.651812
467   2  2.5000  0.000000 22.936375 11.037512
468   2  2.5000  0.000000 22.936375 23.651812
469   2  2.5000 13.106500  9.829875 11.037512
470   2  2.5000 13.106500  9.829875 23.651812
471   2  2.5000 13.106500 22.936375 11.037512
472   2  2.5000 13.106500 22.936375 23.651812
473   2  2.5000  0.000000  3.276625  7.883937
474   2  2.5000  0.000000  3.276625 20.498237
475   2  2.5000  0.000000 16.383125  7.883937
476   2  2.5000  0.000000 16.383125 20.498237
477   2  2.5000 13.106500  3.276625  7.883937
478   2  2.5000 13.106500  3.276625 20.498237
479   2  2.5000 13.106500 16.383125  7.883937
480   2  2.5000 13.106500 16.383125 20.498237
481   2  2.5000  6.553250  9.829875  7.883937
482   2  2.5000  6.553250  9.829875 20.498237
483   2  2.5000  6.553250 22.936375  7.883937
484   2  2.5000  6.553250 22.936375 20.498237
485   2  2.5000 19.659750  9.829875  7.883937
486   2  2.5000 19.659750  9.829875 20.498237
487   2  2.5000 19.659750 22.936375  7.883937
488   2  2.5000 19.659750 22.936375 20.498237
489   2  2.5000  6.553250  3.276625 11.037512
490   2  2.5000  6.553250  3.276625 23.651812
491   2  2.5000  6.553250 16.383125 11.037512
492   2  2.5000  6.553250 16.383125 23.651812
493   2  2.5000 19.659750  3.276625 11.037512
494   2  2.5000 19.659750  3.276625 23.651812
495   2  2.5000 19.659750 16.383125 11.037512
496   2  2.5000 19.659750 16.383125 23.651812
497   2  2.5000  6.553250  3.276625  4.730362
498   2  2.5000  6.553250  3.276625 17.344662
499   2  2.5000  6.553250 16.383125  4.730362
500   2  2.5000  6.553250 16.383125 17.344662
501   2  2.5000 19.659750  3.276625  4.730362
502   2  2.5000 19.659750  3.276625 17.344662
503   2  2.5000 19.659750 16.383125  4.730362
504   2  2.5000 19.659750 16.383125 17.344662
505   2  2.5000  6.553250  9.829875  1.576787
506   2  2.5000  6.553250  9.829875 14.191087
507   2  2.5000  6.553250 22.936375  1.576787
508   2  2.5000  6.553250 22.936375 14.191087
509   2  2.5000 19.659750  9.829875  1.576787
510   2  2.5000 19.659750  9.829875 14.191087
511   2  2.5000 19.659750 22.936375  1.576787
512   2  2.5000 19.659750 22.936375 14.191087
513   2  2.5000  1.669768  0.000000  3.153575
514   2  2.5000  1.669768  0.000000 15.767875
515   2  2.5000  1.669768 13.106500  3.153575
516   2  2.5000  1.669768 13.106500 15.767875
517   2  2.5000 14.776268  0.000000  3.153575
518   2  2.5000 14.776268  0.000000 15.767875
519   2  2.5000 14.776268 13.106500  3.153575
520   2  2.5000 14.776268 13.106500 15.767875
521   2  2.5000  4.883482  0.000000  9.460725
522   2  2.5000  4.883482  0.000000 22.075025
523   2  2.5000  4.883482 13.106500  9.460725
524   2  2.5000  4.883482 13.106500 22.075025
525   2  2.5000 17.989982  0.000000  9.460725
526   2  2.5000 17.989982  0.000000 22.075025
527   2  2.5000 17.989982 13.106500  9.460725
528   2  2.5000 17.989982 13.106500 22.075025
529   2  2.5000  3.276625 11.499643  6.307150
530   2  2.5000  3.276625 11.499643 18.921450
531   2  2.5000  3.276625 24.606143  6.307150
532   2  2.5000  3.276625 24.606143 18.921450
533   2  2.5000 16.383125 11.499643  6.307150
534   2  2.5000 16.383125 11.499643 18.921450
535   2  2.5000 16.383125 24.606143  6.307150
536   2  2.5000 16.383125 24.606143 18.921450
537   2  2.5000  3.276625  1.606857  0.000000
538   2  2.5000  3.276625  1.606857 12.614300
539   2  2.5000  3.276625 14.713357  0.000000
540   2  2.5000  3.276625 14.713357 12.614300
541   2  2.5000 16.383125  1.606857  0.000000
542   2  2.5000 16.383125  1.606857 12.614300
543   2  2.5000 16.383125 14.713357  0.000000
544   2  2.5000 16.383125 14.713357 12.614300
545   2  2.5000 11.436732  0.000000  9.460725
546   2  2.5000 11.436732  0.000000 22.075025
547   2  2.5000 11.436732 13.106500  9.460725
548   2  2.5000 11.436732 13.106500 22.075025
549   2  2.5000 24.543232  0.000000  9.460725
550   2  2.5000 24.543232  0.000000 22.075025
551   2  2.5000 24.543232 13.106500  9.460725
552   2  2.5000 24.543232 13.106500 22.075025
553   2  2.5000  8.223018  0.000000  3.153575
554   2  2.5000  8.223018  0.000000 15.767875
555   2  2.5000  8.223018 13.106500  3.153575
556   2  2.5000  8.223018 13.106500 15.767875
557   2  2.5000 21.329518  0.000000  3.153575
558   2  2.5000 21.329518  0.000000 15.767875
559   2  2.5000 21.329518 13.106500  3.153575
560   2  2.5000 21.329518 13.106500 15.767875
561   2  2.5000  9.829875  1.606857  6.307150
562   2  2.5000  9.829875  1.606857 18.921450
563   2  2.5000  9.829875 14.713357  6.307150
564   2  2.5000  9.829875 14.713357 18.921450
565   2  2.5000 22.936375  1.606857  6.307150
566   2  2.5000 22.936375  1.606857 18.921450
567   2  2.5000 22.936375 14.713357  6.307150
568   2  2.5000 22.936375 14.713357 18.921450
569   2  2.5000  9.829875 11.499643  0.000000
570   2  2.5000  9.829875 11.499643 12.614300
571   2  2.5000  9.829875 24.606143  0.000000
572   2  2.5000  9.829875 24.606143 12.614300
573   2  2.5000 22.936375 11.499643  0.000000
574   2  2.5000 22.936375 11.499643 12.614300
575   2  2.5000 22.936375 24.606143  0.000000
576   2  2.5000 22.936375 24.606143 12.614300
577   2  2.5000  8.223018  6.553250  9.460725
578   2  2.5000  8.223018  6.553250 22.075025
579   2  2.5000  8.223018 19.659750  9.460725
580   2  2.5000  8.223018 19.659750 22.075025
581   2  2.5000 21.329518  6.553250  9.460725
582   2  2.5000 21.329518  6.553250 22.075025
583   2  2.5000 21.329518 19.659750  9.460725
584   2  2.5000 21.329518 19.659750 22.075025
585   2  2.5000 11.436732  6.553250  3.153575
586   2  2.5000 11.436732  6.553250 15.767875
587   2  2.5000 11.436732 19.659750  3.153575
588   2  2.5000 11.436732 19.659750 15.767875
589   2  2.5000 24.543232  6.553250  3.153575
590   2  2.5000 24.543232  6.553250 15.767875
591   2  2.5000 24.543232 19.659750  3.153575
592   2  2.5000 24.543232 19.659750 15.767875
593   2  2.5000  9.829875  4.946393 12.614300
594   2  2.5000  9.829875  4.946393 25.228600
595   2  2.5000  9.829875 18.052893 12.614300
596   2  2.5000  9.829875 18.052893 25.228600
597   2  2.5000 22.936375  4.946393 12.614300
598   2  2.5000 22.936375  4.946393 25.228600
599   2  2.5000 22.936375 18.052893 12.614300
600   2  2.5000 22.936375 18.052893 25.228600
601   2  2.5000  9.829875  8.160107  6.307150
602   2  2.5000  9.829875  8.160107 18.921450
603   2  2.5000  9.829875 21.266607  6.307150
604   2  2.5000  9.829875 21.266607 18.921450
605   2  2.5000 22.936375  8.160107  6.307150
606   2  2.5000 22.936375  8.160107 18.921450
607   2  2.5000 22.936375 21.266607  6.307150
608   2  2.5000 22.936375 21.266607 18.921450
609   2  2.5000  4.883482  6.553250  3.153575
610   2  2.5000  4.883482  6.553250 15.767875
611   2  2.5000  4.883482 19.659750  3.153575
612   2  2.5000  4.883482 19.659750 15.767875
613   2  2.5000 17.989982  6.553250  3.153575
614   2  2.5000 17.989982  6.553250 15.767875
615   2  2.5000 17.989982 19.659750  3.153575
616   2  2.5000 17.989982 19.659750 15.767875
617   2  2.5000  1.669768  6.553250  9.460725
618   2  2.5000  1.669768  6.553250 22.075025
619   2  2.5000  1.669768 19.659750  9.460725
620   2  2.5000  1.669768 19.659750 22.075025
621   2  2.5000 14.776268  6.553250  9.460725
622   2  2.5000 14.776268  6.553250 22.075025
623   2  2.5000 14.776268 19.659750  9.460725
624   2  2.5000 14.776268 19.659750 22.075025
625   2  2.5000  3.276625  8.160107 12.614300
626   2  2.5000  3.276625  8.160107 25.228600
627   2  2.5000  3.276625 21.266607 12.614300
628   2  2.5000  3.276625 21.266607 25.228600
629   2  2.5000 16.383125  8.160107 12.614300
630   2  2.5000 16.383125  8.160107 25.228600
631   2  2.5000 16.383125 21.266607 12.614300
632   2  2.5000 16.383125 21.266607 25.228600
633   2  2.5000  3.276625  4.946393  6.307150
634   2  2.5000  3.276625  4.946393 18.921450
635   2  2.5000  3.276625 18.052893  6.307150
636   2  2.5000  3.276625 18.052893 18.921450
637   2  2.5000 16.383125  4.946393  6.307150
638   2  2.5000 16.383125  4.946393 18.921450
639   2  2.5000 16.383125 18.052893  6.307150
640   2  2.5000 16.383125 18.052893 18.921450
641   3  2.6500  0.000000  0.000000  0.000000
642   3  2.6500  0.000000  0.000000 12.614300
643   3  2.6500  0.000000 13.106500  0.000000
644   3  2.6500  0.000000 13.106500 12.614300
645   3  2.6500 13.106500  0.000000  0.000000
646   3  2.6500 13.106500  0.000000 12.614300
647   3  2.6500 13.106500 13.106500  0.000000
648   3  2.6500 13.106500 13.106500 12.614300
649   3  2.6500  6.553250  0.000000  6.307150
650   3  2.6500  6.553250  0.000000 18.921450
651   3  2.6500  6.553250 13.106500  6.307150
652   3  2.6500  6.553250 13.106500 18.921450
653   3  2.6500 19.659750  0.000000  6.307150
654   3  2.6500 19.659750  0.000000 18.921450
655   3  2.6500 19.659750 13.106500  6.307150
656   3  2.6500 19.659750 13.106500 18.921450
657   3  2.6500  3.276625  9.829875  3.153575
658   3  2.6500  3.276625  9.829875 15.767875
659   3  2.6500  3.276625 22.936375  3.153575
660   3  2.6500  3.276625 22.936375 15.767875
661   3  2.6500 16.383125  9.829875  3.153575
662   3  2.6500 16.383125  9.829875 15.767875
663   3  2.6500 16.383125 22.936375  3.153575
664   3  2.6500 16.383125 22.936375 15.767875
665   3  2.6500  3.276625  3.276625  9.460725
666   3  2.6500  3.276625  3.276625 22.075025
667   3  2.6500  3.276625 16.383125  9.460725
668   3  2.6500  3.276625 16.383125 22.075025
669   3  2.6500 16.383125  3.276625  9.460725
670   3  2.6500 16.383125  3.276625 22.075025
671   3  2.6500 16.383125 16.383125  9.460725
672   3  2.6500 16.383125 16.383125 22.075025
673   3  2.6500  6.553250  0.000000  0.000000
674   3  2.6500  6.553250  0.000000 12.614300
675   3  2.6500  6.553250 13.106500  0.000000
676   3  2.6500  6.553250 13.106500 12.614300
677   3  2.6500 19.659750  0.000000  0.000000
678   3  2.6500 19.659750  0.000000 12.614300
679   3  2.6500 19.659750 13.106500  0.000000
680   3  2.6500 19.659750 13.106500 12.614300
681   3  2.6500  0.000000  0.000000  6.307150
682   3  2.6500  0.000000  0.000000 18.921450
683   3  2.6500  0.000000 13.106500  6.307150
684   3  2.6500  0.000000 13.106500 18.921450
685   3  2.6500 13.106500  0.000000  6.307150
686   3  2.6500 13.106500  0.000000 18.921450
687   3  2.6500 13.106500 13.106500  6.307150
688   3  2.6500 13.106500 13.106500 18.921450
689   3  2.6500  3.276625  9.829875  9.460725
690   3  2.6500  3.276625  9.829875 22.075025
691   3  2.6500  3.276625 22.936375  9.460725
692   3  2.6500  3.276625 22.936375 22.075025
693   3  2.6500 16.383125  9.829875  9.460725
694   3  2.6500 16.383125  9.829875 22.075025
695   3  2.6500 16.383125 22.936375  9.460725
696   3  2.6500 16.383125 22.936375 22.075025
697   3  2.6500  3.276625  3.276625  3.153575
698   3  2.6500  3.276625  3.276625 15.767875
699   3  2.6500  3.276625 16.383125  3.153575
700   3  2.6500  3.276625 16.383125 15.767875
701   3  2.6500 16.383125  3.276625  3.153575
702   3  2.6500 16.383125  3.276625 15.767875
703   3  2.6500 16.383125 16.383125  3.153575
704   3  2.6500 16.383125 16.383125 15.767875
705   3  2.6500  6.553250  6.553250  6.307150
706   3  2.6500  6.553250  6.553250 18.921450
707   3  2.6500  6.553250 19.659750  6.307150
708   3  2.6500  6.553250 19.659750 18.921450
709   3  2.6500 19.659750  6.553250  6.307150
710   3  2.6500 19.659750  6.553250 18.921450
711   3  2.6500 19.659750 19.659750  6.307150
712   3  2.6500 19.659750 19.659750 18.921450
713   3  2.6500 13.106500  6.553250 12.614300
714   3  2.6500 13.106500  6.553250 25.228600
715   3  2.6500 13.106500 19.659750 12.614300
716   3  2.6500 13.106500 19.659750 25.228600
717   3  2.6500  0.000000  6.553250 12.614300
718   3  2.6500  0.000000  6.553250 25.228600
719   3  2.6500  0.000000 19.659750 12.614300
720   3  2.6500  0.000000 19.659750 25.228600
721   3  2.6500  9.829875  3.276625  9.460725
722   3  2.6500  9.829875  3.276625 22.075025
723   3  2.6500  9.829875 16.383125  9.460725
724   3  2.6500  9.829875 16.383125 22.075025
725   3  2.6500 22.936375  3.276625  9.460725
726   3  2.6500 22.936375  3.276625 22.075025
727   3  2.6500 22.936375 16.383125  9.460725
728   3  2.6500 22.936375 16.383125 22.075025
729   3  2.6500  9.829875  9.829875  3.153575
730   3  2.6500  9.829875  9.829875 15.767875
731   3  2.6500  9.829875 22.936375  3.153575
732   3  2.6500  9.829875 22.936375 15.767875
733   3  2.6500 22.936375  9.829875  3.153575
734   3  2.6500 22.936375  9.829875 15.767875
735   3  2.6500 22.936375 22.936375  3.153575
736   3  2.6500 22.936375 22.936375 15.767875
737   3  2.6500 13.106500  6.553250  6.307150
738   3  2.6500 13.106500  6.553250 18.921450
739   3  2.6500 13.106500 19.659750  6.307150
740   3  2.6500 13.106500 19.659750 18.921450
741   3  2.6500  0.000000  6.553250  6.307150
742   3  2.6500  0.000000  6.553250 18.921450
743   3  2.6500  0.000000 19.659750  6.307150
744   3  2.6500  0.000000 19.659750 18.921450
745   3  2.6500  6.553250  6.553250 12.614300
746   3  2.6500  6.553250  6.553250 25.228600
747   3  2.6500  6.553250 19.659750 12.614300
748   3  2.6500  6.553250 19.659750 25.228600
749   3  2.6500 19.659750  6.553250 12.614300
750   3  2.6500 19.659750  6.553250 25.228600
751   3  2.6500 19.659750 19.659750 12.614300
752   3  2.6500 19.659750 19.659750 25.228600
753   3  2.6500  9.829875  3.276625  3.153575
754   3  2.6500  9.829875  3.276625 15.767875
755   3  2.6500  9.829875 16.383125  3.153575
756   3  2.6500  9.829875 16.383125 15.767875
757   3  2.6500 22.936375  3.276625  3.153575
758   3  2.6500 22.936375  3.276625 15.767875
759   3  2.6500 22.936375 16.383125  3.153575
760   3  2.6500 22.936375 16.383125 15.767875
761   3  2.6500  9.829875  9.829875  9.460725
762   3  2.6500  9.829875  9.829875 22.075025
763   3  2.6500  9.829875 22.936375  9.460725
764   3  2.6500  9.829875 22.936375 22.075025
765   3  2.6500 22.936375  9.829875  9.460725
766   3  2.6500 22.936375  9.829875 22.075025
767   3  2.6500 22.936375 22.936375  9.460725
768   3  2.6500 22.936375 22.936375 22.075025
769   4 -1.6500 12.654326  0.727411  1.928726
770   4 -1.6500 12.654326  0.727411 14.543026
771   4 -1.6500 12.654326 13.833911  1.928726
772   4 -1.6500 12.654326 13.833911 14.543026
773   4 -1.6500 25.760826  0.727411  1.928726
774   4 -1.6500 25.760826  0.727411 14.543026
775   4 -1.6500 25.760826 13.833911  1.928726
776   4 -1.6500 25.760826 13.833911 14.543026
777   4 -1.6500  7.005424 12.379089  8.235876
778   4 -1.6500  7.005424 12.379089 20.850176
779   4 -1.6500  7.005424 25.485589  8.235876
780   4 -1.6500  7.005424 25.485589 20.850176
781   4 -1.6500 20.111924 12.379089  8.235876
782   4 -1.6500 20.111924 12.379089 20.850176
783   4 -1.6500 20.111924 25.485589  8.235876
784   4 -1.6500 20.111924 25.485589 20.850176
785   4 -1.6500  2.549214  9.377701  5.082301
786   4 -1.6500  2.549214  9.377701 17.696601
787   4 -1.6500  2.549214 22.484201  5.082301
788   4 -1.6500  2.549214 22.484201 17.696601
789   4 -1.6500 15.655714  9.377701  5.082301
790   4 -1.6500 15.655714  9.377701 17.696601
791   4 -1.6500 15.655714 22.484201  5.082301
792   4 -1.6500 15.655714 22.484201 17.696601
793   4 -1.6500  4.004036  3.728799 11.389451
794   4 -1.6500  4.004036  3.728799 24.003751
795   4 -1.6500  4.004036 16.835299 11.389451
796   4 -1.6500  4.004036 16.835299 24.003751
797   4 -1.6500 17.110536  3.728799 11.389451
798   4 -1.6500 17.110536  3.728799 24.003751
799   4 -1.6500 17.110536 16.835299 11.389451
800   4 -1.6500 17.110536 16.835299 24.003751
801   4 -1.6500  7.005424  0.727411 10.685574
802   4 -1.6500  7.005424  0.727411 23.299874
803   4 -1.6500  7.005424 13.833911 10.685574
804   4 -1.6500  7.005424 13.833911 23.299874
805   4 -1.6500 20.111924  0.727411 10.685574
806   4 -1.6500 20.111924  0.727411 23.299874
807   4 -1.6500 20.111924 13.833911 10.685574
808   4 -1.6500 20.111924 13.833911 23.299874
809   4 -1.6500 12.654326 12.379089  4.378424
810   4 -1.6500 12.654326 12.379089 16.992724
811   4 -1.6500 12.654326 25.485589  4.378424
812   4 -1.6500 12.654326 25.485589 16.992724
813   4 -1.6500 25.760826 12.379089  4.378424
814   4 -1.6500 25.760826 12.379089 16.992724
815   4 -1.6500 25.760826 25.485589  4.378424
816   4 -1.6500 25.760826 25.485589 16.992724
817   4 -1.6500  4.004036  9.377701  7.531999
818   4 -1.6500  4.004036  9.377701 20.146299
819   4 -1.6500  4.004036 22.484201  7.531999
820   4 -1.6500  4.004036 22.484201 20.146299
821   4 -1.6500 17.110536  9.377701  7.531999
822   4 -1.6500 17.110536  9.377701 20.146299
823   4 -1.6500 17.110536 22.484201  7.531999
824   4 -1.6500 17.110536 22.484201 20.146299
825   4 -1.6500  2.549214  3.728799  1.224849
826   4 -1.6500  2.549214  3.728799 13.839149
827   4 -1.6500  2.549214 16.835299  1.224849
828   4 -1.6500  2.549214 16.835299 13.839149
829   4 -1.6500 15.655714  3.728799  1.224849
830   4 -1.6500 15.655714  3.728799 13.839149
831   4 -1.6500 15.655714 16.835299  1.224849
832   4 -1.6500 15.655714 16.835299 13.839149
833   4 -1.6500  0.452174 12.379089 10.685574
834   4 -1.6500  0.452174 12.379089 23.299874
835   4 -1.6500  0.452174 25.485589 10.685574
836   4 -1.6500  0.452174 25.485589 23.299874
837   4 -1.6500 13.558674 12.379089 10.685574
838   4 -1.6500 13.558674 12.379089 23.299874
839   4 -1.6500 13.558674 25.485589 10.685574
840   4 -1.6500 13.558674 25.485589 23.299874
841   4 -1.6500  6.101076  0.727411  4.378424
842   4 -1.6500  6.101076  0.727411 16.992724
843   4 -1.6500  6.101076 13.833911  4.378424
844   4 -1.6500  6.101076 13.833911 16.992724
845   4 -1.6500 19.207576  0.727411  4.378424
846   4 -1.6500 19.207576  0.727411 16.992724
847   4 -1.6500 19.207576 13.833911  4.378424
848   4 -1.6500 19.207576 13.833911 16.992724
849   4 -1.6500 10.557286  3.728799  7.531999
850   4 -1.6500 10.557286  3.728799 20.146299
851   4 -1.6500 10.557286 16.835299  7.531999
852   4 -1.6500 10.557286 16.835299 20.146299
853   4 -1.6500 23.663786  3.728799  7.531999
854   4 -1.6500 23.663786  3.728799 20.146299
855   4 -1.6500 23.663786 16.835299  7.531999
856   4 -1.6500 23.663786 16.835299 20.146299
857   4 -1.6500  9.102464  9.377701  1.224849
858   4 -1.6500  9.102464  9.377701 13.839149
859   4 -1.6500  9.102464 22.484201  1.224849
860   4 -1.6500  9.102464 22.484201 13.839149
861   4 -1.6500 22.208964  9.377701  1.224849
862   4 -1.6500 22.208964  9.377701 13.839149
863   4 -1.6500 22.208964 22.484201  1.224849
864   4 -1.6500 22.208964 22.484201 13.839149
865   4 -1.6500  6.101076 12.379089  1.928726
866   4 -1.6500  6.101076 12.379089 14.543026
867   4 -1.6500  6.101076 25.485589  1.928726
868   4 -1.6500  6.101076 25.485589 14.543026
869   4 -1.6500 19.207576 12.379089  1.928726
870   4 -1.6500 19.207576 12.379089 14.543026
871   4 -1.6500 19.207576 25.485589  1.928726
872   4 -1.6500 19.207576 25.485589 14.543026
873   4 -1.6500  0.452174  0.727411  8.235876
874   4 -1.6500  0.452174  0.727411 20.850176
875   4 -1.6500  0.452174 13.833911  8.235876
876   4 -1.6500  0.452174 13.833911 20.850176
877   4 -1.6500 13.558674  0.727411  8.235876
878   4 -1.6500 13.558674  0.727411 20.850176
879   4 -1.6500 13.558674 13.833911  8.235876
880   4 -1.6500 13.558674 13.833911 20.850176
881   4 -1.6500  9.102464  3.728799  5.082301
882   4 -1.6500  9.102464  3.728799 17.696601
883   4 -1.6500  9.102464 16.835299  5.082301
884   4 -1.6500  9.102464 16.835299 17.696601
885   4 -1.6500 22.208964  3.728799  5.082301
886   4 -1.6500 22.208964  3.728799 17.696601
887   4 -1.6500 22.208964 16.835299  5.082301
888   4 -1.6500 22.208964 16.835299 17.696601
889   4 -1.6500 10.557286  9.377701 11.389451
890   4 -1.6500 10.557286  9.377701 24.003751
891   4 -1.6500 10.557286 22.484201 11.389451
892   4 -1.6500 10.557286 22.484201 24.003751
893   4 -1.6500 23.663786  9.377701 11.389451
894   4 -1.6500 23.663786  9.377701 24.003751
895   4 -1.6500 23.663786 22.484201 11.389451
896   4 -1.6500 23.663786 22.484201 24.003751
897   4 -1.6500  6.101076  7.280661  8.235876
898   4 -1.6500  6.101076  7.280661 20.850176
899   4 -1.6500  6.101076 20.387161  8.235876
900   4 -1.6500  6.101076 20.387161 20.850176
901   4 -1.6500 19.207576  7.280661  8.235876
902   4 -1.6500 19.207576  7.280661 20.850176
903   4 -1.6500 19.207576 20.387161  8.235876
904   4 -1.6500 19.207576 20.387161 20.850176
905   4 -1.6500  0.452174  5.825839  1.928726
906   4 -1.6500  0.452174  5.825839 14.543026
907   4 -1.6500  0.452174 18.932339  1.928726
908   4 -1.6500  0.452174 18.932339 14.543026
909   4 -1.6500 13.558674  5.825839  1.928726
910   4 -1.6500 13.558674  5.825839 14.543026
911   4 -1.6500 13.558674 18.932339  1.928726
912   4 -1.6500 13.558674 18.932339 14.543026
913   4 -1.6500  9.102464 15.930951 11.389451
914   4 -1.6500  9.102464 15.930951 24.003751
915   4 -1.6500  9.102464  2.824451 11.389451
916   4 -1.6500  9.102464  2.824451 24.003751
917   4 -1.6500 22.208964 15.930951 11.389451
918   4 -1.6500 22.208964 15.930951 24.003751
919   4 -1.6500 22.208964  2.824451 11.389451
920   4 -1.6500 22.208964  2.824451 24.003751
921   4 -1.6500 10.557286 10.282049  5.082301
922   4 -1.6500 10.557286 10.282049 17.696601
923   4 -1.6500 10.557286 23.388549  5.082301
924   4 -1.6500 10.557286 23.388549 17.696601
925   4 -1.6500 23.663786 10.282049  5.082301
926   4 -1.6500 23.663786 10.282049 17.696601
927   4 -1.6500 23.663786 23.388549  5.082301
928   4 -1.6500 23.663786 23.388549 17.696601
929   4 -1.6500  0.452174  7.280661  4.378424
930   4 -1.6500  0.452174  7.280661 16.992724
931   4 -1.6500  0.452174 20.387161  4.378424
932   4 -1.6500  0.452174 20.387161 16.992724
933   4 -1.6500 13.558674  7.280661  4.378424
934   4 -1.6500 13.558674  7.280661 16.992724
935   4 -1.6500 13.558674 20.387161  4.378424
936   4 -1.6500 13.558674 20.387161 16.992724
937   4 -1.6500  6.101076  5.825839 10.685574
938   4 -1.6500  6.101076  5.825839 23.299874
939   4 -1.6500  6.101076 18.932339 10.685574
940   4 -1.6500  6.101076 18.932339 23.299874
941   4 -1.6500 19.207576  5.825839 10.685574
942   4 -1.6500 19.207576  5.825839 23.299874
943   4 -1.6500 19.207576 18.932339 10.685574
944   4 -1.6500 19.207576 18.932339 23.299874
945   4 -1.6500 10.557286 15.930951  1.224849
946   4 -1.6500 10.557286 15.930951 13.839149
947   4 -1.6500 10.557286  2.824451  1.224849
948   4 -1.6500 10.557286  2.824451 13.839149
949   4 -1.6500 23.663786 15.930951  1.224849
950   4 -1.6500 23.663786 15.930951 13.839149
951   4 -1.6500 23.663786  2.824451  1.224849
952   4 -1.6500 23.663786  2.824451 13.839149
953   4 -1.6500  9.102464 10.282049  7.531999
954   4 -1.6500  9.102464 10.282049 20.146299
955   4 -1.6500  9.102464 23.388549  7.531999
956   4 -1.6500  9.102464 23.388549 20.146299
957   4 -1.6500 22.208964 10.282049  7.531999
958   4 -1.6500 22.208964 10.282049 20.146299
959   4 -1.6500 22.208964 23.388549  7.531999
960   4 -1.6500 22.208964 23.388549 20.146299
961   4 -1.6500  7.005424  5.825839  4.378424
962   4 -1.6500  7.005424  5.825839 16.992724
963   4 -1.6500  7.005424 18.932339  4.378424
964   4 -1.6500  7.005424 18.932339 16.992724
965   4 -1.6500 20.111924  5.825839  4.378424
966   4 -1.6500 20.111924  5.825839 16.992724
967   4 -1.6500 20.111924 18.932339  4.378424
968   4 -1.6500 20.111924 18.932339 16.992724
969   4 -1.6500 12.654326  7.280661 10.685574
970   4 -1.6500 12.654326  7.280661 23.299874
971   4 -1.6500 12.654326 20.387161 10.685574
972   4 -1.6500 12.654326 20.387161 23.299874
973   4 -1.6500 25.760826  7.280661 10.685574
974   4 -1.6500 25.760826  7.280661 23.299874
975   4 -1.6500 25.760826 20.387161 10.685574
976   4 -1.6500 25.760826 20.387161 23.299874
977   4 -1.6500  4.004036 10.282049  1.224849
978   4 -1.6500  4.004036 10.282049 13.839149
979   4 -1.6500  4.004036 23.388549  1.224849
980   4 -1.6500  4.004036 23.388549 13.839149
981   4 -1.6500 17.110536 10.282049  1.224849
982   4 -1.6500 17.110536 10.282049 13.839149
983   4 -1.6500 17.110536 23.388549  1.224849
984   4 -1.6500 17.110536 23.388549 13.839149
985   4 -1.6500  2.549214 15.930951  7.531999
986   4 -1.6500  2.549214 15.930951 20.146299
987   4 -1.6500  2.549214  2.824451  7.531999
988   4 -1.6500  2.549214  2.824451 20.146299
989   4 -1.6500 15.655714 15.930951  7.531999
990   4 -1.6500 15.655714 15.930951 20.146299
991   4 -1.6500 15.655714  2.824451  7.531999
992   4 -1.6500 15.655714  2.824451 20.146299
993   4 -1.6500 12.654326  5.825839  8.235876
994   4 -1.6500 12.654326  5.825839 20.850176
995   4 -1.6500 12.654326 18.932339  8.235876
996   4 -1.6500 12.654326 18.932339 20.850176
997   4 -1.6500 25.760826  5.825839  8.235876
998   4 -1.6500 25.760826  5.825839 20.850176
999   4 -1.6500 25.760826 18.932339  8.235876
1000  4 -1.6500 25.760826 18.932339 20.850176
1001  4 -1.6500  7.005424  7.280661  1.928726
1002  4 -1.6500  7.005424  7.280661 14.543026
1003  4 -1.6500  7.005424 20.387161  1.928726
1004  4 -1.6500  7.005424 20.387161 14.543026
1005  4 -1.6500 20.111924  7.280661  1.928726
1006  4 -1.6500 20.111924  7.280661 14.543026
1007  4 -1.6500 20.111924 20.387161  1.928726
1008  4 -1.6500 20.111924 20.387161 14.543026
1009  4 -1.6500  2.549214 10.282049 11.389451
1010  4 -1.6500  2.549214 10.282049 24.003751
1011  4 -1.6500  2.549214 23.388549 11.389451
1012  4 -1.6500  2.549214 23.388549 24.003751
1013  4 -1.6500 15.655714 10.282049 11.389451
1014  4 -1.6500 15.655714 10.282049 24.003751
1015  4 -1.6500 15.655714 23.388549 11.389451
1016  4 -1.6500 15.655714 23.388549 24.003751
1017  4 -1.6500  4.004036 15.930951  5.082301
1018  4 -1.6500  4.004036 15.930951 17.696601
1019  4 -1.6500  4.004036  2.824451  5.082301
1020  4 -1.6500  4.004036  2.824451 17.696601
1021  4 -1.6500 17.110536 15.930951  5.082301
1022  4 -1.6500 17.110536 15.930951 17.696601
1023  4 -1.6500 17.110536  2.824451  5.082301
1024  4 -1.6500 17.110536  2.824451 17.696601
1025  4 -1.6500  0.712994 11.175913  6.739820
1026  4 -1.6500  0.712994 11.175913 19.354120
1027  4 -1.6500  0.712994 24.282413  6.739820
1028  4 -1.6500  0.712994 24.282413 19.354120
1029  4 -1.6500 13.819494 11.175913  6.739820
1030  4 -1.6500 13.819494 11.175913 19.354120
1031  4 -1.6500 13.819494 24.282413  6.739820
1032  4 -1.6500 13.819494 24.282413 19.354120
1033  4 -1.6500  5.840256  1.930587  0.432670
1034  4 -1.6500  5.840256  1.930587 13.046970
1035  4 -1.6500  5.840256 15.037087  0.432670
1036  4 -1.6500  5.840256 15.037087 13.046970
1037  4 -1.6500 18.946756  1.930587  0.432670
1038  4 -1.6500 18.946756  1.930587 13.046970
1039  4 -1.6500 18.946756 15.037087  0.432670
1040  4 -1.6500 18.946756 15.037087 13.046970
1041  4 -1.6500  5.207212 10.542869  9.893395
1042  4 -1.6500  5.207212 10.542869 22.507695
1043  4 -1.6500  5.207212 23.649369  9.893395
1044  4 -1.6500  5.207212 23.649369 22.507695
1045  4 -1.6500 18.313712 10.542869  9.893395
1046  4 -1.6500 18.313712 10.542869 22.507695
1047  4 -1.6500 18.313712 23.649369  9.893395
1048  4 -1.6500 18.313712 23.649369 22.507695
1049  4 -1.6500  1.346038  2.563631  3.586245
1050  4 -1.6500  1.346038  2.563631 16.200545
1051  4 -1.6500  1.346038 15.670131  3.586245
1052  4 -1.6500  1.346038 15.670131 16.200545
1053  4 -1.6500 14.452538  2.563631  3.586245
1054  4 -1.6500 14.452538  2.563631 16.200545
1055  4 -1.6500 14.452538 15.670131  3.586245
1056  4 -1.6500 14.452538 15.670131 16.200545
1057  4 -1.6500  5.840256 11.175913  5.874480
1058  4 -1.6500  5.840256 11.175913 18.488780
1059  4 -1.6500  5.840256 24.282413  5.874480
1060  4 -1.6500  5.840256 24.282413 18.488780
1061  4 -1.6500 18.946756 11.175913  5.874480
1062  4 -1.6500 18.946756 11.175913 18.488780
1063  4 -1.6500 18.946756 24.282413  5.874480
1064  4 -1.6500 18.946756 24.282413 18.488780
1065  4 -1.6500  0.712994  1.930587 12.181630
1066  4 -1.6500  0.712994  1.930587 24.795930
1067  4 -1.6500  0.712994 15.037087 12.181630
1068  4 -1.6500  0.712994 15.037087 24.795930
1069  4 -1.6500 13.819494  1.930587 12.181630
1070  4 -1.6500 13.819494  1.930587 24.795930
1071  4 -1.6500 13.819494 15.037087 12.181630
1072  4 -1.6500 13.819494 15.037087 24.795930
1073  4 -1.6500  1.346038 10.542869  2.720905
1074  4 -1.6500  1.346038 10.542869 15.335205
1075  4 -1.6500  1.346038 23.649369  2.720905
1076  4 -1.6500  1.346038 23.649369 15.335205
1077  4 -1.6500 14.452538 10.542869  2.720905
1078  4 -1.6500 14.452538 10.542869 15.335205
1079  4 -1.6500 14.452538 23.649369  2.720905
1080  4 -1.6500 14.452538 23.649369 15.335205
1081  4 -1.6500  5.207212  2.563631  9.028055
1082  4 -1.6500  5.207212  2.563631 21.642355
1083  4 -1.6500  5.207212 15.670131  9.028055
1084  4 -1.6500  5.207212 15.670131 21.642355
1085  4 -1.6500 18.313712  2.563631  9.028055
1086  4 -1.6500 18.313712  2.563631 21.642355
1087  4 -1.6500 18.313712 15.670131  9.028055
1088  4 -1.6500 18.313712 15.670131 21.642355
1089  4 -1.6500 12.393506  1.930587  5.874480
1090  4 -1.6500 12.393506  1.930587 18.488780
1091  4 -1.6500 12.393506 15.037087  5.874480
1092  4 -1.6500 12.393506 15.037087 18.488780
1093  4 -1.6500 25.500006  1.930587  5.874480
1094  4 -1.6500 25.500006  1.930587 18.488780
1095  4 -1.6500 25.500006 15.037087  5.874480
1096  4 -1.6500 25.500006 15.037087 18.488780
1097  4 -1.6500  7.266244 11.175913 12.181630
1098  4 -1.6500  7.266244 11.175913 24.795930
1099  4 -1.6500  7.266244 24.282413 12.181630
1100  4 -1.6500  7.266244 24.282413 24.795930
1101  4 -1.6500 20.372744 11.175913 12.181630
1102  4 -1.6500 20.372744 11.175913 24.795930
1103  4 -1.6500 20.372744 24.282413 12.181630
1104  4 -1.6500 20.372744 24.282413 24.795930
1105  4 -1.6500  7.899288  2.563631  2.720905
1106  4 -1.6500  7.899288  2.563631 15.335205
1107  4 -1.6500  7.899288 15.670131  2.720905
1108  4 -1.6500  7.899288 15.670131 15.335205
1109  4 -1.6500 21.005788  2.563631  2.720905
1110  4 -1.6500 21.005788  2.563631 15.335205
1111  4 -1.6500 21.005788 15.670131  2.720905
1112  4 -1.6500 21.005788 15.670131 15.335205
1113  4 -1.6500 11.760462 10.542869  9.028055
1114  4 -1.6500 11.760462 10.542869 21.642355
1115  4 -1.6500 11.760462 23.649369  9.028055
1116  4 -1.6500 11.760462 23.649369 21.642355
1117  4 -1.6500 24.866962 10.542869  9.028055
1118  4 -1.6500 24.866962 10.542869 21.642355
1119  4 -1.6500 24.866962 23.649369  9.028055
1120  4 -1.6500 24.866962 23.649369 21.642355
1121  4 -1.6500  7.266244  1.930587  6.739820
1122  4 -1.6500  7.266244  1.930587 19.354120
1123  4 -1.6500  7.266244 15.037087  6.739820
1124  4 -1.6500  7.266244 15.037087 19.354120
1125  4 -1.6500 20.372744  1.930587  6.739820
1126  4 -1.6500 20.372744  1.930587 19.354120
1127  4 -1.6500 20.372744 15.037087  6.739820
1128  4 -1.6500 20.372744 15.037087 19.354120
1129  4 -1.6500 12.393506 11.175913  0.432670
1130  4 -1.6500 12.393506 11.175913 13.046970
1131  4 -1.6500 12.393506 24.282413  0.432670
1132  4 -1.6500 12.393506 24.282413 13.046970
1133  4 -1.6500 25.500006 11.175913  0.432670
1134  4 -1.6500 25.500006 11.175913 13.046970
1135  4 -1.6500 25.500006 24.282413  0.432670
1136  4 -1.6500 25.500006 24.282413 13.046970
1137  4 -1.6500 11.760462  2.563631  9.893395
1138  4 -1.6500 11.760462  2.563631 22.507695
1139  4 -1.6500 11.760462 15.670131  9.893395
1140  4 -1.6500 11.760462 15.670131 22.507695
1141  4 -1.6500 24.866962  2.563631  9.893395
1142  4 -1.6500 24.866962  2.563631 22.507695
1143  4 -1.6500 24.866962 15.670131  9.893395
1144  4 -1.6500 24.866962 15.670131 22.507695
1145  4 -1.6500  7.899288 10.542869  3.586245
1146  4 -1.6500  7.899288 10.542869 16.200545
1147  4 -1.6500  7.899288 23.649369  3.586245
1148  4 -1.6500  7.899288 23.649369 16.200545
1149  4 -1.6500 21.005788 10.542869  3.586245
1150  4 -1.6500 21.005788 10.542869 16.200545
1151  4 -1.6500 21.005788 23.649369  3.586245
1152  4 -1.6500 21.005788 23.649369 16.200545
1153  4 -1.6500  7.266244  4.622663  0.432670
1154  4 -1.6500  7.266244  4.622663 13.046970
1155  4 -1.6500  7.266244 17.729163  0.432670
1156  4 -1.6500  7.266244 17.729163 13.046970
1157  4 -1.6500 20.372744  4.622663  0.432670
1158  4 -1.6500 20.372744  4.622663 13.046970
1159  4 -1.6500 20.372744 17.729163  0.432670
1160  4 -1.6500 20.372744 17.729163 13.046970
1161  4 -1.6500 12.393506  8.483837  6.739820
1162  4 -1.6500 12.393506  8.483837 19.354120
1163  4 -1.6500 12.393506 21.590337  6.739820
1164  4 -1.6500 12.393506 21.590337 19.354120
1165  4 -1.6500 25.500006  8.483837  6.739820
1166  4 -1.6500 25.500006  8.483837 19.354120
1167  4 -1.6500 25.500006 21.590337  6.739820
1168  4 -1.6500 25.500006 21.590337 19.354120
1169  4 -1.6500 11.760462  3.989619  3.586245
1170  4 -1.6500 11.760462  3.989619 16.200545
1171  4 -1.6500 11.760462 17.096119  3.586245
1172  4 -1.6500 11.760462 17.096119 16.200545
1173  4 -1.6500 24.866962  3.989619  3.586245
1174  4 -1.6500 24.866962  3.989619 16.200545
1175  4 -1.6500 24.866962 17.096119  3.586245
1176  4 -1.6500 24.866962 17.096119 16.200545
1177  4 -1.6500  7.899288  9.116881  9.893395
1178  4 -1.6500  7.899288  9.116881 22.507695
1179  4 -1.6500  7.899288 22.223381  9.893395
1180  4 -1.6500  7.899288 22.223381 22.507695
1181  4 -1.6500 21.005788  9.116881  9.893395
1182  4 -1.6500 21.005788  9.116881 22.507695
1183  4 -1.6500 21.005788 22.223381  9.893395
1184  4 -1.6500 21.005788 22.223381 22.507695
1185  4 -1.6500 12.393506  4.622663 12.181630
1186  4 -1.6500 12.393506  4.622663 24.795930
1187  4 -1.6500 12.393506 17.729163 12.181630
1188  4 -1.6500 12.393506 17.729163 24.795930
1189  4 -1.6500 25.500006  4.622663 12.181630
1190  4 -1.6500 25.500006  4.622663 24.795930
1191  4 -1.6500 25.500006 17.729163 12.181630
1192  4 -1.6500 25.500006 17.729163 24.795930
1193  4 -1.6500  7.266244  8.483837  5.874480
1194  4 -1.6500  7.266244  8.483837 18.488780
1195  4 -1.6500  7.266244 21.590337  5.874480
1196  4 -1.6500  7.266244 21.590337 18.488780
1197  4 -1.6500 20.372744  8.483837  5.874480
1198  4 -1.6500 20.372744  8.483837 18.488780
1199  4 -1.6500 20.372744 21.590337  5.874480
1200  4 -1.6500 20.372744 21.590337 18.488780
1201  4 -1.6500  7.899288  3.989619  9.028055
1202  4 -1.6500  7.899288  3.989619 21.642355
1203  4 -1.6500  7.899288 17.096119  9.028055
1204  4 -1.6500  7.899288 17.096119 21.642355
1205  4 -1.6500 21.005788  3.989619  9.028055
1206  4 -1.6500 21.005788  3.989619 21.642355
1207  4 -1.6500 21.005788 17.096119  9.028055
1208  4 -1.6500 21.005788 17.096119 21.642355
1209  4 -1.6500 11.760462  9.116881  2.720905
1210  4 -1.6500 11.760462  9.116881 15.335205
1211  4 -1.6500 11.760462 22.223381  2.720905
1212  4 -1.6500 11.760462 22.223381 15.335205
1213  4 -1.6500 24.866962  9.116881  2.720905
1214  4 -1.6500 24.866962  9.116881 15.335205
1215  4 -1.6500 24.866962 22.223381  2.720905
1216  4 -1.6500 24.866962 22.223381 15.335205
1217  4 -1.6500  5.840256  8.483837 12.181630
1218  4 -1.6500  5.840256  8.483837 24.795930
1219  4 -1.6500  5.840256 21.590337 12.181630
1220  4 -1.6500  5.840256 21.590337 24.795930
1221  4 -1.6500 18.946756  8.483837 12.181630
1222  4 -1.6500 18.946756  8.483837 24.795930
1223  4 -1.6500 18.946756 21.590337 12.181630
1224  4 -1.6500 18.946756 21.590337 24.795930
1225  4 -1.6500  0.712994  4.622663  5.874480
1226  4 -1.6500  0.712994  4.622663 18.488780
1227  4 -1.6500  0.712994 17.729163  5.874480
1228  4 -1.6500  0.712994 17.729163 18.488780
1229  4 -1.6500 13.819494  4.622663  5.874480
1230  4 -1.6500 13.819494  4.622663 18.488780
1231  4 -1.6500 13.819494 17.729163  5.874480
1232  4 -1.6500 13.819494 17.729163 18.488780
1233  4 -1.6500 14.452538  9.116881  9.028055
1234  4 -1.6500 14.452538  9.116881 21.642355
1235  4 -1.6500 14.452538 22.223381  9.028055
1236  4 -1.6500 14.452538 22.223381 21.642355
1237  4 -1.6500  1.346038  9.116881  9.028055
1238  4 -1.6500  1.346038  9.116881 21.642355
1239  4 -1.6500  1.346038 22.223381  9.028055
1240  4 -1.6500  1.346038 22.223381 21.642355
1241  4 -1.6500  5.207212  3.989619  2.720905
1242  4 -1.6500  5.207212  3.989619 15.335205
1243  4 -1.6500  5.207212 17.096119  2.720905
1244  4 -1.6500  5.207212 17.096119 15.335205
1245  4 -1.6500 18.313712  3.989619  2.720905
1246  4 -1.6500 18.313712  3.989619 15.335205
1247  4 -1.6500 18.313712 17.096119  2.720905
1248  4 -1.6500 18.313712 17.096119 15.335205
1249  4 -1.6500  0.712994  8.483837  0.432670
1250  4 -1.6500  0.712994  8.483837 13.046970
1251  4 -1.6500  0.712994 21.590337  0.432670
1252  4 -1.6500  0.712994 21.590337 13.046970
1253  4 -1.6500 13.819494  8.483837  0.432670
1254  4 -1.6500 13.819494  8.483837 13.046970
1255  4 -1.6500 13.819494 21.590337  0.432670
1256  4 -1.6500 13.819494 21.590337 13.046970
1257  4 -1.6500  5.840256  4.622663  6.739820
1258  4 -1.6500  5.840256  4.622663 19.354120
1259  4 -1.6500  5.840256 17.729163  6.739820
1260  4 -1.6500  5.840256 17.729163 19.354120
1261  4 -1.6500 18.946756  4.622663  6.739820
1262  4 -1.6500 18.946756  4.622663 19.354120
1263  4 -1.6500 18.946756 17.729163  6.739820
1264  4 -1.6500 18.946756 17.729163 19.354120
1265  4 -1.6500  5.207212  9.116881  3.586245
1266  4 -1.6500  5.207212  9.116881 16.200545
1267  4 -1.6500  5.207212 22.223381  3.586245
1268  4 -1.6500  5.207212 22.223381 16.200545
1269  4 -1.6500 18.313712  9.116881  3.586245
1270  4 -1.6500 18.313712  9.116881 16.200545
1271  4 -1.6500 18.313712 22.223381  3.586245
1272  4 -1.6500 18.313712 22.223381 16.200545
1273  4 -1.6500 14.452538  3.989619  9.893395
1274  4 -1.6500 14.452538  3.989619 22.507695
1275  4 -1.6500 14.452538 17.096119  9.893395
1276  4 -1.6500 14.452538 17.096119 22.507695
1277  4 -1.6500  1.346038  3.989619  9.893395
1278  4 -1.6500  1.346038  3.989619 22.507695
1279  4 -1.6500  1.346038 17.096119  9.893395
1280  4 -1.6500  1.346038 17.096119 22.507695
1281  4 -1.6500  1.964664  0.366982  5.639854
1282  4 -1.6500  1.964664  0.366982 18.254154
1283  4 -1.6500  1.964664 13.473482  5.639854
1284  4 -1.6500  1.964664 13.473482 18.254154
1285  4 -1.6500 15.071164  0.366982  5.639854
1286  4 -1.6500 15.071164  0.366982 18.254154
1287  4 -1.6500 15.071164 13.473482  5.639854
1288  4 -1.6500 15.071164 13.473482 18.254154
1289  4 -1.6500  4.588586 12.739518 11.947004
1290  4 -1.6500  4.588586 12.739518 24.561304
1291  4 -1.6500  4.588586 25.846018 11.947004
1292  4 -1.6500  4.588586 25.846018 24.561304
1293  4 -1.6500 17.695086 12.739518 11.947004
1294  4 -1.6500 17.695086 12.739518 24.561304
1295  4 -1.6500 17.695086 25.846018 11.947004
1296  4 -1.6500 17.695086 25.846018 24.561304
1297  4 -1.6500  2.909643 11.794539  8.793429
1298  4 -1.6500  2.909643 11.794539 21.407729
1299  4 -1.6500  2.909643 24.901039  8.793429
1300  4 -1.6500  2.909643 24.901039 21.407729
1301  4 -1.6500 16.016143 11.794539  8.793429
1302  4 -1.6500 16.016143 11.794539 21.407729
1303  4 -1.6500 16.016143 24.901039  8.793429
1304  4 -1.6500 16.016143 24.901039 21.407729
1305  4 -1.6500  3.643607  1.311961  2.486279
1306  4 -1.6500  3.643607  1.311961 15.100579
1307  4 -1.6500  3.643607 14.418461  2.486279
1308  4 -1.6500  3.643607 14.418461 15.100579
1309  4 -1.6500 16.750107  1.311961  2.486279
1310  4 -1.6500 16.750107  1.311961 15.100579
1311  4 -1.6500 16.750107 14.418461  2.486279
1312  4 -1.6500 16.750107 14.418461 15.100579
1313  4 -1.6500  4.588586  0.366982  6.974446
1314  4 -1.6500  4.588586  0.366982 19.588746
1315  4 -1.6500  4.588586 13.473482  6.974446
1316  4 -1.6500  4.588586 13.473482 19.588746
1317  4 -1.6500 17.695086  0.366982  6.974446
1318  4 -1.6500 17.695086  0.366982 19.588746
1319  4 -1.6500 17.695086 13.473482  6.974446
1320  4 -1.6500 17.695086 13.473482 19.588746
1321  4 -1.6500  1.964664 12.739518  0.667296
1322  4 -1.6500  1.964664 12.739518 13.281596
1323  4 -1.6500  1.964664 25.846018  0.667296
1324  4 -1.6500  1.964664 25.846018 13.281596
1325  4 -1.6500 15.071164 12.739518  0.667296
1326  4 -1.6500 15.071164 12.739518 13.281596
1327  4 -1.6500 15.071164 25.846018  0.667296
1328  4 -1.6500 15.071164 25.846018 13.281596
1329  4 -1.6500  3.643607 11.794539  3.820871
1330  4 -1.6500  3.643607 11.794539 16.435171
1331  4 -1.6500  3.643607 24.901039  3.820871
1332  4 -1.6500  3.643607 24.901039 16.435171
1333  4 -1.6500 16.750107 11.794539  3.820871
1334  4 -1.6500 16.750107 11.794539 16.435171
1335  4 -1.6500 16.750107 24.901039  3.820871
1336  4 -1.6500 16.750107 24.901039 16.435171
1337  4 -1.6500  2.909643  1.311961 10.128021
1338  4 -1.6500  2.909643  1.311961 22.742321
1339  4 -1.6500  2.909643 14.418461 10.128021
1340  4 -1.6500  2.909643 14.418461 22.742321
1341  4 -1.6500 16.016143  1.311961 10.128021
1342  4 -1.6500 16.016143  1.311961 22.742321
1343  4 -1.6500 16.016143 14.418461 10.128021
1344  4 -1.6500 16.016143 14.418461 22.742321
1345  4 -1.6500 11.141836 12.739518  6.974446
1346  4 -1.6500 11.141836 12.739518 19.588746
1347  4 -1.6500 11.141836 25.846018  6.974446
1348  4 -1.6500 11.141836 25.846018 19.588746
1349  4 -1.6500 24.248336 12.739518  6.974446
1350  4 -1.6500 24.248336 12.739518 19.588746
1351  4 -1.6500 24.248336 25.846018  6.974446
1352  4 -1.6500 24.248336 25.846018 19.588746
1353  4 -1.6500  8.517914  0.366982  0.667296
1354  4 -1.6500  8.517914  0.366982 13.281596
1355  4 -1.6500  8.517914 13.473482  0.667296
1356  4 -1.6500  8.517914 13.473482 13.281596
1357  4 -1.6500 21.624414  0.366982  0.667296
1358  4 -1.6500 21.624414  0.366982 13.281596
1359  4 -1.6500 21.624414 13.473482  0.667296
1360  4 -1.6500 21.624414 13.473482 13.281596
1361  4 -1.6500 10.196857  1.311961  3.820871
1362  4 -1.6500 10.196857  1.311961 16.435171
1363  4 -1.6500 10.196857 14.418461  3.820871
1364  4 -1.6500 10.196857 14.418461 16.435171
1365  4 -1.6500 23.303357  1.311961  3.820871
1366  4 -1.6500 23.303357  1.311961 16.435171
1367  4 -1.6500 23.303357 14.418461  3.820871
1368  4 -1.6500 23.303357 14.418461 16.435171
1369  4 -1.6500  9.462893 11.794539 10.128021
1370  4 -1.6500  9.462893 11.794539 22.742321
1371  4 -1.6500  9.462893 24.901039 10.128021
1372  4 -1.6500  9.462893 24.901039 22.742321
1373  4 -1.6500 22.569393 11.794539 10.128021
1374  4 -1.6500 22.569393 11.794539 22.742321
1375  4 -1.6500 22.569393 24.901039 10.128021
1376  4 -1.6500 22.569393 24.901039 22.742321
1377  4 -1.6500  8.517914 12.739518  5.639854
1378  4 -1.6500  8.517914 12.739518 18.254154
1379  4 -1.6500  8.517914 25.846018  5.639854
1380  4 -1.6500  8.517914 25.846018 18.254154
1381  4 -1.6500 21.624414 12.739518  5.639854
1382  4 -1.6500 21.624414 12.739518 18.254154
1383  4 -1.6500 21.624414 25.846018  5.639854
1384  4 -1.6500 21.624414 25.846018 18.254154
1385  4 -1.6500 11.141836  0.366982 11.947004
1386  4 -1.6500 11.141836  0.366982 24.561304
1387  4 -1.6500 11.141836 13.473482 11.947004
1388  4 -1.6500 11.141836 13.473482 24.561304
1389  4 -1.6500 24.248336  0.366982 11.947004
1390  4 -1.6500 24.248336  0.366982 24.561304
1391  4 -1.6500 24.248336 13.473482 11.947004
1392  4 -1.6500 24.248336 13.473482 24.561304
1393  4 -1.6500  9.462893  1.311961  8.793429
1394  4 -1.6500  9.462893  1.311961 21.407729
1395  4 -1.6500  9.462893 14.418461  8.793429
1396  4 -1.6500  9.462893 14.418461 21.407729
1397  4 -1.6500 22.569393  1.311961  8.793429
1398  4 -1.6500 22.569393  1.311961 21.407729
1399  4 -1.6500 22.569393 14.418461  8.793429
1400  4 -1.6500 22.569393 14.418461 21.407729
1401  4 -1.6500 10.196857 11.794539  2.486279
1402  4 -1.6500 10.196857 11.794539 15.100579
1403  4 -1.6500 10.196857 24.901039  2.486279
1404  4 -1.6500 10.196857 24.901039 15.100579
1405  4 -1.6500 23.303357 11.794539  2.486279
1406  4 -1.6500 23.303357 11.794539 15.100579
1407  4 -1.6500 23.303357 24.901039  2.486279
1408  4 -1.6500 23.303357 24.901039 15.100579
1409  4 -1.6500  8.517914  6.920232 11.947004
1410  4 -1.6500  8.517914  6.920232 24.561304
1411  4 -1.6500  8.517914 20.026732 11.947004
1412  4 -1.6500  8.517914 20.026732 24.561304
1413  4 -1.6500 21.624414  6.920232 11.947004
1414  4 -1.6500 21.624414  6.920232 24.561304
1415  4 -1.6500 21.624414 20.026732 11.947004
1416  4 -1.6500 21.624414 20.026732 24.561304
1417  4 -1.6500 11.141836  6.186268  5.639854
1418  4 -1.6500 11.141836  6.186268 18.254154
1419  4 -1.6500 11.141836 19.292768  5.639854
1420  4 -1.6500 11.141836 19.292768 18.254154
1421  4 -1.6500 24.248336  6.186268  5.639854
1422  4 -1.6500 24.248336  6.186268 18.254154
1423  4 -1.6500 24.248336 19.292768  5.639854
1424  4 -1.6500 24.248336 19.292768 18.254154
1425  4 -1.6500  9.462893  5.241289  2.486279
1426  4 -1.6500  9.462893  5.241289 15.100579
1427  4 -1.6500  9.462893 18.347789  2.486279
1428  4 -1.6500  9.462893 18.347789 15.100579
1429  4 -1.6500 22.569393  5.241289  2.486279
1430  4 -1.6500 22.569393  5.241289 15.100579
1431  4 -1.6500 22.569393 18.347789  2.486279
1432  4 -1.6500 22.569393 18.347789 15.100579
1433  4 -1.6500 10.196857  7.865211  8.793429
1434  4 -1.6500 10.196857  7.865211 21.407729
1435  4 -1.6500 10.196857 20.971711  8.793429
1436  4 -1.6500 10.196857 20.971711 21.407729
1437  4 -1.6500 23.303357  7.865211  8.793429
1438  4 -1.6500 23.303357  7.865211 21.407729
1439  4 -1.6500 23.303357 20.971711  8.793429
1440  4 -1.6500 23.303357 20.971711 21.407729
1441  4 -1.6500 11.141836  6.920232  0.667296
1442  4 -1.6500 11.141836  6.920232 13.281596
1443  4 -1.6500 11.141836 20.026732  0.667296
1444  4 -1.6500 11.141836 20.026732 13.281596
1445  4 -1.6500 24.248336  6.920232  0.667296
1446  4 -1.6500 24.248336  6.920232 13.281596
1447  4 -1.6500 24.248336 20.026732  0.667296
1448  4 -1.6500 24.248336 20.026732 13.281596
1449  4 -1.6500  8.517914  6.186268  6.974446
1450  4 -1.6500  8.517914  6.186268 19.588746
1451  4 -1.6500  8.517914 19.292768  6.974446
1452  4 -1.6500  8.517914 19.292768 19.588746
1453  4 -1.6500 21.624414  6.186268  6.974446
1454  4 -1.6500 21.624414  6.186268 19.588746
1455  4 -1.6500 21.624414 19.292768  6.974446
1456  4 -1.6500 21.624414 19.292768 19.588746
1457  4 -1.6500 10.196857  5.241289 10.128021
1458  4 -1.6500 10.196857  5.241289 22.742321
1459  4 -1.6500 10.196857 18.347789 10.128021
1460  4 -1.6500 10.196857 18.347789 22.742321
1461  4 -1.6500 23.303357  5.241289 10.128021
1462  4 -1.6500 23.303357  5.241289 22.742321
1463  4 -1.6500 23.303357 18.347789 10.128021
1464  4 -1.6500 23.303357 18.347789 22.742321
1465  4 -1.6500  9.462893  7.865211  3.820871
1466  4 -1.6500  9.462893  7.865211 16.435171
1467  4 -1.6500  9.462893 20.971711  3.820871
1468  4 -1.6500  9.462893 20.971711 16.435171
1469  4 -1.6500 22.569393  7.865211  3.820871
1470  4 -1.6500 22.569393  7.865211 16.435171
1471  4 -1.6500 22.569393 20.971711  3.820871
1472  4 -1.6500 22.569393 20.971711 16.435171
1473  4 -1.6500  4.588586  6.186268  0.667296
1474  4 -1.6500  4.588586  6.186268 13.281596
1475  4 -1.6500  4.588586 19.292768  0.667296
1476  4 -1.6500  4.588586 19.292768 13.281596
1477  4 -1.6500 17.695086  6.186268  0.667296
1478  4 -1.6500 17.695086  6.186268 13.281596
1479  4 -1.6500 17.695086 19.292768  0.667296
1480  4 -1.6500 17.695086 19.292768 13.281596
1481  4 -1.6500  1.964664  6.920232  6.974446
1482  4 -1.6500  1.964664  6.920232 19.588746
1483  4 -1.6500  1.964664 20.026732  6.974446
1484  4 -1.6500  1.964664 20.026732 19.588746
1485  4 -1.6500 15.071164  6.920232  6.974446
1486  4 -1.6500 15.071164  6.920232 19.588746
1487  4 -1.6500 15.071164 20.026732  6.974446
1488  4 -1.6500 15.071164 20.026732 19.588746
1489  4 -1.6500  3.643607  7.865211 10.128021
1490  4 -1.6500  3.643607  7.865211 22.742321
1491  4 -1.6500  3.643607 20.971711 10.128021
1492  4 -1.6500  3.643607 20.971711 22.742321
1493  4 -1.6500 16.750107  7.865211 10.128021
1494  4 -1.6500 16.750107  7.865211 22.742321
1495  4 -1.6500 16.750107 20.971711 10.128021
1496  4 -1.6500 16.750107 20.971711 22.742321
1497  4 -1.6500  2.909643  5.241289  3.820871
1498  4 -1.6500  2.909643  5.241289 16.435171
1499  4 -1.6500  2.909643 18.347789  3.820871
1500  4 -1.6500  2.909643 18.347789 16.435171
1501  4 -1.6500 16.016143  5.241289  3.820871
1502  4 -1.6500 16.016143  5.241289 16.435171
1503  4 -1.6500 16.016143 18.347789  3.820871
1504  4 -1.6500 16.016143 18.347789 16.435171
1505  4 -1.6500  1.964664  6.186268 11.947004
1506  4 -1.6500  1.964664  6.186268 24.561304
1507  4 -1.6500  1.964664 19.292768 11.947004
1508  4 -1.6500  1.964664 19.292768 24.561304
1509  4 -1.6500 15.071164  6.186268 11.947004
1510  4 -1.6500 15.071164  6.186268 24.561304
1511  4 -1.6500 15.071164 19.292768 11.947004
1512  4 -1.6500 15.071164 19.292768 24.561304
1513  4 -1.6500  4.588586  6.920232  5.639854
1514  4 -1.6500  4.588586  6.920232 18.254154
1515  4 -1.6500  4.588586 20.026732  5.639854
1516  4 -1.6500  4.588586 20.026732 18.254154
1517  4 -1.6500 17.695086  6.920232  5.639854
1518  4 -1.6500 17.695086  6.920232 18.254154
1519  4 -1.6500 17.695086 20.026732  5.639854
1520  4 -1.6500 17.695086 20.026732 18.254154
1521  4 -1.6500  2.909643  7.865211  2.486279
1522  4 -1.6500  2.909643  7.865211 15.100579
1523  4 -1.6500  2.909643 20.971711  2.486279
1524  4 -1.6500  2.909643 20.971711 15.100579
1525  4 -1.6500 16.016143  7.865211  2.486279
1526  4 -1.6500 16.016143  7.865211 15.100579
1527  4 -1.6500 16.016143 20.971711  2.486279
1528  4 -1.6500 16.016143 20.971711 15.100579
1529  4 -1.6500  3.643607  5.241289  8.793429
1530  4 -1.6500  3.643607  5.241289 21.407729
1531  4 -1.6500  3.643607 18.347789  8.793429
1532  4 -1.6500  3.643607 18.347789 21.407729
1533  4 -1.6500 16.750107  5.241289  8.793429
1534  4 -1.6500 16.750107  5.241289 21.407729
1535  4 -1.6500 16.750107 18.347789  8.793429
1536  4 -1.6500 16.750107 18.347789 21.407729

