ITEM: TIMESTEP
0
ITEM: NUMBER OF ATOMS
35
ITEM: BOX BOUNDS xy xz yz pp pp pp
0.0000000000000000e+00 7.6685730000000003e+00 2.5561910000000001e+00
0.0000000000000000e+00 4.4274529999999999e+00 0.0000000000000000e+00
0.0000000000000000e+00 3.1699265000000000e+01 0.0000000000000000e+00
ITEM: ATOMS id type x y z
1 1 2.55619 1.47582 27.8677
2 1 5.11238 2.95164 27.8677
3 1 0 0 27.8677
4 1 5.11238 1.47582 25.53
5 1 2.55619 2.95164 25.53
6 1 2.55619 0 25.53
7 1 2.55619 1.47582 23.1923
8 1 5.11238 2.95164 23.1923
9 1 0 0 23.1923
10 1 5.11238 1.47582 20.8546
11 1 2.55619 2.95164 20.8546
12 1 2.55619 0 20.8546
13 1 2.55619 1.47582 18.5169
14 1 5.11238 2.95164 18.5169
15 1 0 0 18.5169
16 2 1.2781 2.21373 14.5169
17 2 0 0 14.5169
18 2 3.83429 2.21373 14.5169
19 2 2.55619 0 14.5169
20 2 3.83429 3.68954 12.4298
21 2 2.55619 1.47582 12.4298
22 2 6.39048 3.68954 12.4298
23 2 5.11238 1.47582 12.4298
24 2 5.11238 2.95164 10.3426
25 2 3.83429 0.737909 10.3426
26 2 2.55619 2.95164 10.3426
27 2 1.2781 0.737909 10.3426
28 2 1.2781 2.21373 8.25553
29 2 0 0 8.25553
30 2 3.83429 2.21373 8.25553
31 2 2.55619 0 8.25553
32 2 3.83429 3.68954 6.16841
33 2 2.55619 1.47582 6.16841
34 2 6.39048 3.68954 6.16841
35 2 5.11238 1.47582 6.16841
ITEM: TIMESTEP
100
ITEM: NUMBER OF ATOMS
35
ITEM: BOX BOUNDS xy xz yz pp pp pp
0.0000000000000000e+00 7.6685730000000003e+00 2.5561910000000001e+00
0.0000000000000000e+00 4.4274529999999999e+00 0.0000000000000000e+00
0.0000000000000000e+00 3.1699265000000000e+01 0.0000000000000000e+00
ITEM: ATOMS id type x y z
1 1 2.99005 1.67151 27.2231
2 1 5.07201 3.15363 27.4122
3 1 5.11071 0.0215926 27.2882
4 1 4.95371 1.52322 25.4758
5 1 2.37176 2.89243 25.2907
6 1 4.50996 4.38168 25.431
7 1 2.47677 1.56669 23.2566
8 1 5.11296 3.13134 23.4866
9 1 7.44577 4.27174 23.6578
10 1 5.4643 1.37758 21.9737
11 1 3.42075 2.36195 20.9251
12 1 4.71905 4.3666 20.7808
13 1 2.67435 1.34052 18.7336
14 1 4.64454 3.01033 18.8869
15 1 5.02584 0.834026 18.1179
16 2 1.27135 2.07853 15.1642
17 2 7.54603 4.33687 15.3943
18 2 3.8645 2.09004 15.7916
19 2 5.06644 4.3745 15.9159
20 2 3.64677 3.76671 12.9354
21 2 2.41992 1.58003 12.8044
22 2 6.17969 3.71017 12.7611
23 2 4.90794 1.52267 12.7926
24 2 5.21133 2.88308 10.3696
25 2 3.89746 0.647566 10.2915
26 2 2.64834 2.93275 10.2882
27 2 1.4037 0.700724 10.3494
28 2 1.27805 2.19208 7.90504
29 2 5.14502 0.0163611 7.84617
30 2 3.88926 2.2143 7.66241
31 2 5.13739 4.42856 7.76114
32 2 4.01461 3.7814 4.92988
33 2 2.69667 1.57555 5.11496
34 2 6.51697 3.67235 5.42584
35 2 5.22118 1.50315 5.32964
ITEM: TIMESTEP
200
ITEM: NUMBER OF ATOMS
35
ITEM: BOX BOUNDS xy xz yz pp pp pp
0.0000000000000000e+00 7.6685730000000003e+00 2.5561910000000001e+00
0.0000000000000000e+00 4.4274529999999999e+00 0.0000000000000000e+00
0.0000000000000000e+00 3.1699265000000000e+01 0.0000000000000000e+00
ITEM: ATOMS id type x y z
1 1 3.24545 1.14919 26.9511
2 1 5.37739 3.10433 27.0479
3 1 2.70725 4.23049 26.9569
4 1 4.46604 1.9534 25.0585
5 1 1.79752 2.89384 25.4586
6 1 1.54683 0.205996 25.277
7 1 2.9066 1.46123 23.2819
8 1 4.81144 3.33586 23.3859
9 1 7.17464 4.14957 23.4162
10 1 5.79934 1.77856 21.6508
11 1 3.52056 2.0223 21.1149
12 1 2.46519 -0.0964749 21.3075
13 1 2.10443 2.04017 19.0127
14 1 4.2926 3.24343 19.4281
15 1 5.40927 0.682527 18.5804
16 2 6.1439 2.07512 15.8957
17 2 2.4671 4.20152 15.9542
18 2 3.67435 2.10152 16.9218
19 2 5.21761 4.24714 17.0989
20 2 3.69887 3.62288 14.0237
21 2 2.28364 1.52489 13.5507
22 2 6.18078 3.8049 13.1068
23 2 4.81823 1.6456 13.147
24 2 5.30438 2.89098 10.4555
25 2 3.97805 0.664972 10.0485
26 2 2.6196 2.85455 10.1833
27 2 1.39682 0.618107 10.5895
28 2 1.28794 2.20913 7.62913
29 2 2.65165 4.46702 7.5139
30 2 3.927 2.20908 6.73834
31 2 2.53757 0.0295501 6.85457
32 2 3.98119 3.69611 3.5565
33 2 2.78727 1.46697 3.98201
34 2 6.66755 3.80259 4.913
35 2 5.47236 1.63702 4.6742
ITEM: TIMESTEP
300
ITEM: NUMBER OF ATOMS
35
ITEM: BOX BOUNDS xy xz yz pp pp pp
0.0000000000000000e+00 7.6685730000000003e+00 2.5561910000000001e+00
0.0000000000000000e+00 4.4274529999999999e+00 0.0000000000000000e+00
0.0000000000000000e+00 3.1699265000000000e+01 0.0000000000000000e+00
ITEM: ATOMS id type x y z
1 1 2.68973 1.09817 26.9466
2 1 5.04333 3.04793 26.9397
3 1 2.88305 4.13624 27.1682
4 1 4.63381 1.46966 25.1417
5 1 1.5412 2.91636 25.1393
6 1 1.3476 0.240805 25.1319
7 1 2.55737 1.3666 23.6268
8 1 4.76189 3.27155 23.1102
9 1 7.48835 4.30134 22.8628
10 1 6.04897 1.75149 21.7956
11 1 3.36417 2.378 21.5276
12 1 5.82791 4.33031 21.2356
13 1 6.56713 3.16862 19.32
14 1 4.09686 2.94177 19.5278
15 1 5.03074 0.798065 19.4121
16 2 6.1443 2.09669 16.234
17 2 7.17339 4.42282 16.2464
18 2 3.4312 2.23365 17.3587
19 2 4.93985 4.23994 17.7753
20 2 4.17169 3.60207 14.6823
21 2 2.42498 1.59304 14.2148
22 2 6.36541 3.60746 12.6994
23 2 4.87095 1.44021 12.9355
24 2 5.29901 2.82119 10.5292
25 2 3.78522 0.634623 9.3489
26 2 2.75169 2.83902 10.3483
27 2 1.39958 0.639173 11.4283
28 2 1.30078 2.24493 8.10594
29 2 5.2137 0.0314306 7.43784
30 2 3.5846 2.32528 5.97219
31 2 2.39553 0.116117 6.03207
32 2 4.21386 3.71469 2.85358
33 2 3.01974 1.42022 3.13529
34 2 7.15409 3.59363 4.70169
35 2 5.62035 1.503 4.4616
ITEM: TIMESTEP
400
ITEM: NUMBER OF ATOMS
35
ITEM: BOX BOUNDS xy xz yz pp pp pp
0.0000000000000000e+00 7.6685730000000003e+00 2.5561910000000001e+00
0.0000000000000000e+00 4.4274529999999999e+00 0.0000000000000000e+00
0.0000000000000000e+00 3.1699265000000000e+01 0.0000000000000000e+00
ITEM: ATOMS id type x y z
1 1 2.23526 1.45676 26.5953
2 1 4.86367 2.70757 27.047
3 1 2.30348 4.17096 27.2059
4 1 4.42214 1.42982 25.2465
5 1 6.61497 3.36376 25.2423
6 1 3.87952 3.7938 25.1438
7 1 2.50002 0.955857 23.79
8 1 5.38041 2.90787 23.284
9 1 4.7366 0.138455 23.3519
10 1 1.10181 1.5315 21.3711
11 1 3.07736 2.69657 22.2782
12 1 3.14124 0.252665 20.7383
13 1 6.4625 3.00245 18.968
14 1 3.7576 3.11393 20.0318
15 1 4.94367 0.893624 19.2235
16 2 5.80057 2.04057 16.6181
17 2 4.29558 0.184581 15.82
18 2 3.4404 2.45353 17.3741
19 2 2.02013 0.305661 18.1168
20 2 4.46617 3.58513 15.1277
21 2 2.47808 1.6391 14.7782
22 2 6.81668 3.43097 12.9877
23 2 4.52721 1.79691 13.0472
24 2 5.15815 2.47844 10.3055
25 2 3.32004 0.706546 9.0683
26 2 2.70013 3.20799 10.544
27 2 2.07992 0.366882 12.036
28 2 6.31843 2.22901 7.85185
29 2 2.75655 4.33393 7.00329
30 2 3.94131 2.017 6.05452
31 2 2.51268 -0.0581858 5.43363
32 2 4.49174 3.60497 2.91027
33 2 3.38004 1.31956 2.76244
34 2 7.09316 3.68631 4.13454
35 2 5.77602 1.49411 4.30503
ITEM: TIMESTEP
500
ITEM: NUMBER OF ATOMS
35
ITEM: BOX BOUNDS xy xz yz pp pp pp
0.0000000000000000e+00 7.6685730000000003e+00 2.5561910000000001e+00
0.0000000000000000e+00 4.4274529999999999e+00 0.0000000000000000e+00
0.0000000000000000e+00 3.1699265000000000e+01 0.0000000000000000e+00
ITEM: ATOMS id type x y z
1 1 2.02936 1.07325 26.408
2 1 5.10612 2.82053 27.6517
3 1 7.11129 4.4106 27.356
4 1 4.60936 1.20961 25.3902
5 1 5.9053 3.40423 24.9891
6 1 3.39769 3.3694 25.5177
7 1 1.91362 0.920972 23.8462
8 1 5.90517 2.77959 22.5635
9 1 4.53977 0.554687 23.0025
10 1 0.618012 1.17068 20.5155
11 1 3.27941 2.73679 22.9814
12 1 2.99416 0.413067 21.3169
13 1 6.32574 3.00182 19.2673
14 1 3.58375 2.966 20.2334
15 1 4.5262 0.956834 18.729
16 2 5.69269 2.09353 17.1195
17 2 4.41887 0.0892737 15.826
18 2 3.11712 2.94729 17.5962
19 2 2.16302 0.421869 18.2791
20 2 4.29826 3.52551 15.0026
21 2 2.10061 1.70388 15.0529
22 2 7.31202 3.64354 13.1947
23 2 4.65739 1.9789 12.788
24 2 5.415 1.77669 10.253
25 2 2.72378 0.67007 8.64445
26 2 2.53157 3.81805 10.3213
27 2 2.5114 0.42571 12.2129
28 2 6.20165 2.25863 7.20901
29 2 2.86524 4.15529 7.24459
30 2 3.82783 1.91921 6.04667
31 2 5.1946 4.22367 5.66049
32 2 4.7838 3.55514 2.91125
33 2 3.52437 1.26806 2.72165
34 2 2.41137 3.50323 3.81934
35 2 6.01007 1.49333 4.28751
ITEM: TIMESTEP
600
ITEM: NUMBER OF ATOMS
35
ITEM: BOX BOUNDS xy xz yz pp pp pp
0.0000000000000000e+00 7.6685730000000003e+00 2.5561910000000001e+00
0.0000000000000000e+00 4.4274529999999999e+00 0.0000000000000000e+00
0.0000000000000000e+00 3.1699265000000000e+01 0.0000000000000000e+00
ITEM: ATOMS id type x y z
1 1 1.87956 0.639684 26.5077
2 1 5.14946 2.69889 26.8502
3 1 6.91605 4.63453 27.2247
4 1 4.87465 1.24168 25.2521
5 1 5.61484 3.59181 24.8368
6 1 2.71021 2.76208 25.8801
7 1 1.82512 0.976957 23.7757
8 1 6.1206 2.6276 22.4664
9 1 4.59626 0.502692 23.0819
10 1 0.261889 0.250215 21.0139
11 1 3.71075 2.92968 23.4804
12 1 2.50436 0.924096 21.1806
13 1 6.11754 2.96863 20.1994
14 1 3.85456 2.50371 20.3886
15 1 4.64265 0.90344 18.98
16 2 5.37861 2.60706 17.3854
17 2 4.22084 0.617548 15.8977
18 2 2.74713 3.11379 17.723
19 2 2.08975 0.440502 18.2542
20 2 4.56389 3.20262 14.9829
21 2 1.9503 1.59578 14.8209
22 2 2.55324 3.8368 12.7323
23 2 4.95015 2.06919 12.6336
24 2 5.48369 2.04841 10.0097
25 2 2.68372 0.599002 8.8676
26 2 2.57392 3.28693 10.1872
27 2 2.49748 0.674057 11.5643
28 2 6.10123 2.3223 7.25307
29 2 2.97992 4.02419 7.62382
30 2 3.58827 1.95429 5.61875
31 2 5.21933 4.01737 5.51927
32 2 5.22241 3.33241 2.80675
33 2 3.68893 1.33566 2.95696
34 2 2.40323 3.64119 4.2746
35 2 1.01439 1.32499 4.60518
ITEM: TIMESTEP
700
ITEM: NUMBER OF ATOMS
35
ITEM: BOX BOUNDS xy xz yz pp pp pp
0.0000000000000000e+00 7.6685730000000003e+00 2.5561910000000001e+00
0.0000000000000000e+00 4.4274529999999999e+00 0.0000000000000000e+00
0.0000000000000000e+00 3.1699265000000000e+01 0.0000000000000000e+00
ITEM: ATOMS id type x y z
1 1 1.37664 0.131777 26.4294
2 1 5.11955 2.60228 27.1479
3 1 3.94762 0.3437 27.0935
4 1 5.07823 1.22305 24.7543
5 1 5.99266 3.52085 25.2521
6 1 2.92047 2.51997 26.0511
7 1 2.23918 0.969484 24.2917
8 1 5.73455 2.40483 22.4959
9 1 3.86134 0.709316 22.6427
10 1 2.5296 4.06215 21.2141
11 1 3.45495 3.23278 23.4099
12 1 2.14792 0.71927 21.2154
13 1 6.50729 2.56455 19.7776
14 1 4.24059 2.69525 20.3312
15 1 4.26335 0.477654 18.8937
16 2 5.25794 2.75369 17.4941
17 2 4.4072 0.622355 15.6359
18 2 2.86873 3.11681 17.5988
19 2 1.86252 0.772658 18.0011
20 2 4.56668 3.62686 14.9716
21 2 1.67709 1.87063 14.5627
22 2 2.63976 3.80586 12.9381
23 2 5.10718 2.31723 12.4603
24 2 4.96735 2.03979 9.79948
25 2 3.30641 0.54628 8.53261
26 2 2.77728 3.20349 10.1898
27 2 2.52551 0.628971 11.4684
28 2 6.07872 2.05263 7.60061
29 2 3.02996 3.90901 7.45984
30 2 3.83918 1.66152 6.21106
31 2 5.04386 3.87962 5.72648
32 2 5.36319 3.2293 2.77747
33 2 3.39666 1.45502 3.23199
34 2 2.52013 3.706 4.33424
35 2 1.15425 1.54125 4.76401
ITEM: TIMESTEP
800
ITEM: NUMBER OF ATOMS
35
ITEM: BOX BOUNDS xy xz yz pp pp pp
0.0000000000000000e+00 7.6685730000000003e+00 2.5561910000000001e+00
0.0000000000000000e+00 4.4274529999999999e+00 0.0000000000000000e+00
0.0000000000000000e+00 3.1699265000000000e+01 0.0000000000000000e+00
ITEM: ATOMS id type x y z
1 1 1.00927 0.330318 26.5325
2 1 5.71242 2.15338 27.7215
3 1 3.61939 -0.123017 27.032
4 1 4.40155 1.34988 24.5856
5 1 6.23218 3.23156 24.8028
6 1 3.16262 2.48069 26.2128
7 1 2.02432 0.987689 24.544
8 1 5.79131 2.40431 22.0318
9 1 3.38514 1.69343 22.2493
10 1 2.21768 3.95755 21.0911
11 1 2.87251 3.90623 23.6291
12 1 2.26427 -0.0501246 20.9929
13 1 1.88183 2.12708 19.5115
14 1 4.35689 2.54715 19.4553
15 1 3.90241 0.239336 18.9323
16 2 5.46147 2.58928 17.0954
17 2 4.44065 0.754936 15.4947
18 2 2.75906 3.15177 17.0161
19 2 1.90304 0.617418 17.5639
20 2 4.55223 4.03832 14.8538
21 2 1.72937 2.25993 14.8813
22 2 2.45006 4.10579 13.0236
23 2 5.09167 2.34905 12.4893
24 2 5.1403 1.75475 9.90696
25 2 2.9864 -0.0310386 8.77772
26 2 2.12297 3.75082 10.5402
27 2 2.52799 0.616756 11.8997
28 2 6.53888 1.97054 7.53305
29 2 3.19912 3.66096 7.62038
30 2 4.07492 1.40324 6.23778
31 2 5.27381 3.7933 5.66597
32 2 5.3337 3.27562 3.08902
33 2 3.23636 1.34113 3.37989
34 2 2.92107 3.90414 4.30633
35 2 1.16201 1.76293 4.97208
ITEM: TIMESTEP
900
ITEM: NUMBER OF ATOMS
35
ITEM: BOX BOUNDS xy xz yz pp pp pp
0.0000000000000000e+00 7.6685730000000003e+00 2.5561910000000001e+00
0.0000000000000000e+00 4.4274529999999999e+00 0.0000000000000000e+00
0.0000000000000000e+00 3.1699265000000000e+01 0.0000000000000000e+00
ITEM: ATOMS id type x y z
1 1 0.876609 0.440004 26.1796
2 1 6.07507 1.98111 27.9275
3 1 5.96106 4.44242 26.3823
4 1 4.25851 1.43094 24.5369
5 1 5.59628 3.21417 24.3616
6 1 2.5692 2.27073 26.3458
7 1 2.05703 1.08353 24.0667
8 1 6.01062 1.88113 22.4349
9 1 3.28379 2.40239 21.4709
10 1 7.27344 5.03543 21.2831
11 1 3.09544 3.72988 23.5391
12 1 4.85185 4.16921 20.9669
13 1 1.6797 1.7418 19.7086
14 1 4.04847 2.65943 19.3143
15 1 4.68991 0.145159 18.8623
16 2 5.44634 2.23753 16.9996
17 2 3.98405 1.09291 15.2087
18 2 2.77833 3.16777 16.9314
19 2 2.4041 0.592575 17.2022
20 2 4.55157 3.93381 14.5349
21 2 1.814 2.25003 14.3818
22 2 7.48131 4.34812 13.1844
23 2 4.73209 2.51262 12.5293
24 2 4.90928 1.53934 9.91264
25 2 4.98026 4.31301 9.76718
26 2 7.49943 3.21377 10.6834
27 2 2.30504 1.2282 12.1467
28 2 1.48909 1.80502 7.89083
29 2 3.11288 3.71541 7.64849
30 2 4.37827 1.74352 6.2934
31 2 5.35154 3.97619 6.05501
32 2 5.35806 2.91821 3.17173
33 2 3.61994 1.21993 3.2973
34 2 2.82273 3.90327 4.15524
35 2 1.81227 1.59728 5.03567
ITEM: TIMESTEP
1000
ITEM: NUMBER OF ATOMS
35
ITEM: BOX BOUNDS xy xz yz pp pp pp
0.0000000000000000e+00 7.6685730000000003e+00 2.5561910000000001e+00
0.0000000000000000e+00 4.4274529999999999e+00 0.0000000000000000e+00
0.0000000000000000e+00 3.1699265000000000e+01 0.0000000000000000e+00
ITEM: ATOMS id type x y z
1 1 0.940923 0.128526 25.9622
2 1 5.78082 1.98362 27.4947
3 1 3.29642 -0.00936464 26.3556
4 1 4.87691 1.29338 23.8434
5 1 5.67624 3.56145 23.9868
6 1 2.22402 2.57474 25.9091
7 1 2.0389 1.1732 23.8074
8 1 5.80314 2.40571 21.9023
9 1 2.99521 2.908 21.6533
10 1 4.54131 0.519463 21.496
11 1 3.05336 3.39156 23.8928
12 1 4.74625 4.50439 21.6352
13 1 1.40147 2.07931 19.6671
14 1 3.81928 2.86289 18.8958
15 1 4.75029 -0.0247069 18.9234
16 2 5.68625 1.84304 17.1591
17 2 4.11715 1.11009 14.9676
18 2 2.69029 3.68235 16.6182
19 2 2.92903 0.473155 17.5716
20 2 4.3579 3.86651 14.9521
21 2 1.35807 2.30814 14.6117
22 2 7.29879 4.44264 12.419
23 2 4.59747 2.86063 12.1273
24 2 4.51275 1.10675 9.8466
25 2 4.93688 4.175 9.95354
26 2 2.55336 3.02269 10.0751
27 2 2.09965 1.07512 12.3564
28 2 1.57343 1.69559 8.38529
29 2 2.97394 4.00343 7.3153
30 2 4.39023 1.73752 6.31068
31 2 5.69939 4.02988 6.68354
32 2 5.83098 2.77262 3.49626
33 2 3.42445 0.93503 3.16397
34 2 3.24545 3.99248 4.29468
35 2 1.88875 1.62105 5.40866
ITEM: TIMESTEP
1100
ITEM: NUMBER OF ATOMS
35
ITEM: BOX BOUNDS xy xz yz pp pp pp
0.0000000000000000e+00 7.6685730000000003e+00 2.5561910000000001e+00
0.0000000000000000e+00 4.4274529999999999e+00 0.0000000000000000e+00
0.0000000000000000e+00 3.1699265000000000e+01 0.0000000000000000e+00
ITEM: ATOMS id type x y z
1 1 1.10206 -0.0332967 26.0487
2 1 4.56367 2.30878 26.3769
3 1 3.78386 0.189474 26.3463
4 1 4.34756 1.52016 24.2301
5 1 6.07755 3.61819 24.1058
6 1 2.4839 2.3202 25.8707
7 1 2.0152 1.5229 23.7254
8 1 5.4969 2.9083 21.4189
9 1 3.19589 2.2921 21.3211
10 1 4.12265 0.247028 22.1284
11 1 3.63883 3.77995 23.7279
12 1 1.47839 0.64273 21.2888
13 1 1.75523 2.06202 19.4447
14 1 4.10339 2.77758 19.098
15 1 5.08852 0.413855 19.6517
16 2 5.53337 1.82016 17.207
17 2 4.06953 1.15819 14.6359
18 2 2.5403 3.5982 16.9784
19 2 2.73097 0.418482 17.6347
20 2 4.38688 4.22188 14.8277
21 2 1.54636 2.43125 14.8314
22 2 6.91565 4.29389 12.1972
23 2 4.77013 2.60074 12.464
24 2 4.53944 1.32208 9.39548
25 2 4.99186 3.71291 9.35864
26 2 2.37062 2.9263 10.1423
27 2 1.95775 1.29069 12.3496
28 2 1.74588 1.65155 8.09274
29 2 3.1342 3.68449 7.39415
30 2 4.51183 1.74701 5.99705
31 2 5.98069 3.97716 6.82452
32 2 5.88049 2.60813 3.70386
33 2 3.13253 1.03086 3.69317
34 2 3.52501 3.91308 4.4538
35 2 1.94803 1.7689 5.76039
ITEM: TIMESTEP
1200
ITEM: NUMBER OF ATOMS
35
ITEM: BOX BOUNDS xy xz yz pp pp pp
0.0000000000000000e+00 7.6685730000000003e+00 2.5561910000000001e+00
0.0000000000000000e+00 4.4274529999999999e+00 0.0000000000000000e+00
0.0000000000000000e+00 3.1699265000000000e+01 0.0000000000000000e+00
ITEM: ATOMS id type x y z
1 1 0.951146 0.32759 25.4586
2 1 4.9264 2.96547 26.6891
3 1 3.97531 0.407526 26.6229
4 1 4.63585 1.46507 24.0928
5 1 5.77939 3.5708 24.3076
6 1 2.25136 2.4583 26.1776
7 1 1.91981 1.6742 23.5613
8 1 5.60087 2.76751 21.6935
9 1 2.95915 2.43067 21.526
10 1 4.13818 0.320289 22.0511
11 1 3.63368 3.60107 23.5346
12 1 1.26947 0.399356 21.1581
13 1 1.60755 2.3746 19.3228
14 1 4.46968 3.41622 19.4474
15 1 4.44421 0.673175 19.2244
16 2 5.02671 1.97669 16.9162
17 2 4.25515 1.27073 14.8257
18 2 2.93882 3.26451 17.2934
19 2 2.6263 0.417322 17.3641
20 2 4.03132 4.15819 14.7932
21 2 1.95465 2.73903 14.6804
22 2 6.80492 4.24242 12.6307
23 2 4.40832 2.7422 12.2319
24 2 4.61743 1.06632 9.36509
25 2 5.17482 3.91502 9.95151
26 2 2.50893 2.85262 10.476
27 2 1.7131 0.917114 12.0707
28 2 1.74308 1.46496 8.23058
29 2 3.57148 3.44275 7.64518
30 2 4.74721 1.61574 6.05797
31 2 5.71788 4.01947 6.50828
32 2 5.61886 2.63494 3.3189
33 2 3.61667 0.805408 3.44346
34 2 3.23942 3.94498 4.49127
35 2 2.1393 1.88417 5.61768
ITEM: TIMESTEP
1300
ITEM: NUMBER OF ATOMS
35
ITEM: BOX BOUNDS xy xz yz pp pp pp
0.0000000000000000e+00 7.6685730000000003e+00 2.5561910000000001e+00
0.0000000000000000e+00 4.4274529999999999e+00 0.0000000000000000e+00
0.0000000000000000e+00 3.1699265000000000e+01 0.0000000000000000e+00
ITEM: ATOMS id type x y z
1 1 1.18912 0.564094 25.9551
2 1 5.19455 3.33687 26.885
3 1 3.93544 0.910731 26.6053
4 1 4.55958 1.5271 24.286
5 1 5.95534 3.71128 24.577
6 1 2.41068 2.71203 25.8633
7 1 1.94109 1.37165 23.8981
8 1 5.37215 2.43271 22.396
9 1 3.1305 2.84098 20.7568
10 1 3.86865 0.253549 21.7559
11 1 2.95427 3.53768 23.0396
12 1 1.58635 0.569483 21.555
13 1 1.36947 2.02961 19.451
14 1 4.45802 3.89399 19.1413
15 1 3.94006 1.05368 19.153
16 2 5.57914 2.0983 17.2416
17 2 4.16245 1.0943 14.8014
18 2 2.62887 3.41522 17.238
19 2 2.79881 0.562198 16.9131
20 2 4.31688 4.25709 14.68
21 2 1.52698 2.52993 14.8483
22 2 6.525 4.09363 12.4289
23 2 4.19412 2.29879 12.6913
24 2 4.83423 1.06954 9.83012
25 2 5.16467 3.81126 10.1808
26 2 2.55354 2.78406 10.314
27 2 1.28669 1.10953 12.2505
28 2 1.73672 1.69368 8.12657
29 2 3.59742 3.43363 7.83572
30 2 4.90412 1.34677 6.31248
31 2 5.76746 3.85383 6.13505
32 2 5.65626 2.51096 3.34935
33 2 3.63626 0.743205 3.12231
34 2 3.50837 4.10266 4.25626
35 2 2.32106 1.90103 5.19806
ITEM: TIMESTEP
1400
ITEM: NUMBER OF ATOMS
35
ITEM: BOX BOUNDS xy xz yz pp pp pp
0.0000000000000000e+00 7.6685730000000003e+00 2.5561910000000001e+00
0.0000000000000000e+00 4.4274529999999999e+00 0.0000000000000000e+00
0.0000000000000000e+00 3.1699265000000000e+01 0.0000000000000000e+00
ITEM: ATOMS id type x y z
1 1 1.3915 0.852871 26.5815
2 1 5.42061 2.88413 26.827
3 1 3.91074 0.915915 26.7667
4 1 4.59305 1.53391 24.2936
5 1 5.47586 3.78046 24.2252
6 1 3.05567 3.13879 25.8441
7 1 1.93884 1.36472 24.1615
8 1 4.95037 2.74827 22.0263
9 1 3.0444 3.16981 20.7606
10 1 4.06362 0.577565 21.7387
11 1 2.92281 3.46051 23.7158
12 1 1.45873 0.667625 21.7193
13 1 1.13203 2.1321 19.7767
14 1 4.75164 3.96937 19.2655
15 1 4.0873 1.30058 19.532
16 2 5.48653 1.96432 17.211
17 2 4.4599 0.885683 15.0176
18 2 2.74261 3.77404 17.392
19 2 2.69557 0.662246 17.058
20 2 4.04034 4.06299 14.7071
21 2 6.52323 2.6153 14.775
22 2 6.21647 3.92192 12.4325
23 2 3.5369 2.44168 12.6734
24 2 4.89537 1.1028 9.92455
25 2 5.02268 3.97308 9.86278
26 2 2.63236 2.37589 10.3433
27 2 1.28618 1.10867 12.3326
28 2 1.95427 1.79694 7.86486
29 2 3.8133 3.51518 7.48017
30 2 4.93552 1.02181 6.22111
31 2 5.72865 3.69726 5.75164
32 2 5.77267 2.28834 3.4924
33 2 3.42731 0.783564 3.07158
34 2 3.68557 4.02127 4.03285
35 2 2.83944 2.08165 5.43683
ITEM: TIMESTEP
1500
ITEM: NUMBER OF ATOMS
35
ITEM: BOX BOUNDS xy xz yz pp pp pp
0.0000000000000000e+00 7.6685730000000003e+00 2.5561910000000001e+00
0.0000000000000000e+00 4.4274529999999999e+00 0.0000000000000000e+00
0.0000000000000000e+00 3.1699265000000000e+01 0.0000000000000000e+00
ITEM: ATOMS id type x y z
1 1 1.91739 0.927148 26.9159
2 1 5.57426 2.7937 26.328
3 1 4.32637 0.520983 26.7239
4 1 4.34145 1.3886 24.469
5 1 5.46895 3.94886 24.3268
6 1 2.91401 3.11683 26.402
7 1 1.91355 1.89375 24.638
8 1 5.29025 2.90621 21.9654
9 1 2.50596 3.35369 21.2223
10 1 3.7049 0.68851 22.1143
11 1 3.39562 3.5785 23.4339
12 1 1.6062 1.2995 22.2604
13 1 6.70684 1.68194 19.159
14 1 4.55295 4.2589 20.0803
15 1 4.03088 1.50184 19.4682
16 2 4.97475 2.46011 17.1898
17 2 4.1498 1.0582 14.6642
18 2 2.74909 3.56368 17.8897
19 2 2.5704 0.806428 17.2475
20 2 4.2295 3.82091 15.2631
21 2 6.89953 2.60898 14.9531
22 2 5.96193 4.28335 12.2196
23 2 3.57836 2.50066 12.6597
24 2 5.07882 0.941112 9.34261
25 2 5.05742 3.93287 9.89136
26 2 2.39706 2.59447 10.336
27 2 0.695884 0.516101 12.3217
28 2 1.83802 1.8478 7.91013
29 2 4.27612 3.49909 7.64248
30 2 5.52987 0.74746 6.04977
31 2 5.72201 3.69258 5.42395
32 2 5.92685 2.14138 3.27659
33 2 3.54488 0.726522 3.15719
34 2 3.29853 3.92531 3.57544
35 2 2.88595 1.9492 5.26893
ITEM: TIMESTEP
1600
ITEM: NUMBER OF ATOMS
35
ITEM: BOX BOUNDS xy xz yz pp pp pp
0.0000000000000000e+00 7.6685730000000003e+00 2.5561910000000001e+00
0.0000000000000000e+00 4.4274529999999999e+00 0.0000000000000000e+00
0.0000000000000000e+00 3.1699265000000000e+01 0.0000000000000000e+00
ITEM: ATOMS id type x y z
1 1 2.05386 0.626211 27.0742
2 1 5.75298 3.09785 26.9572
3 1 4.91108 0.517787 26.6906
4 1 4.75689 2.03845 24.3415
5 1 5.87395 4.20194 24.4231
6 1 3.30265 2.5708 26.4923
7 1 1.7488 1.74418 24.8794
8 1 4.83969 3.37608 22.4205
9 1 2.32446 3.3247 21.2569
10 1 4.06387 0.893409 22.1998
11 1 2.69654 3.87416 23.8261
12 1 1.34419 1.02095 22.1772
13 1 1.27206 2.11857 19.8047
14 1 4.83853 3.97516 19.6896
15 1 3.83051 1.3492 19.9149
16 2 5.00563 2.34675 17.3302
17 2 4.19404 0.800434 15.0962
18 2 2.35213 4.04392 18.1961
19 2 2.82816 0.866644 17.3547
20 2 4.19917 4.04888 14.865
21 2 1.76548 2.51518 15.1007
22 2 5.75642 4.08727 12.8087
23 2 3.69324 2.45369 12.6364
24 2 4.44172 0.618328 8.94736
25 2 4.89445 3.86441 10.0781
26 2 2.32622 2.6927 10.4638
27 2 0.770652 1.20093 12.2901
28 2 2.11105 2.25499 7.74564
29 2 4.61465 3.06627 7.63437
30 2 0.449915 0.49807 5.59649
31 2 5.66401 3.55713 5.29623
32 2 5.99014 2.21887 2.92798
33 2 3.53528 0.572087 2.73667
34 2 3.44736 3.60084 3.01324
35 2 2.93422 2.00312 5.23762
ITEM: TIMESTEP
1700
ITEM: NUMBER OF ATOMS
35
ITEM: BOX BOUNDS xy xz yz pp pp pp
0.0000000000000000e+00 7.6685730000000003e+00 2.5561910000000001e+00
0.0000000000000000e+00 4.4274529999999999e+00 0.0000000000000000e+00
0.0000000000000000e+00 3.1699265000000000e+01 0.0000000000000000e+00
ITEM: ATOMS id type x y z
1 1 2.40652 0.460762 27.4447
2 1 6.64891 2.70937 27.1909
3 1 4.95692 0.541281 26.3533
4 1 4.20135 2.04371 24.5642
5 1 2.87776 -0.298116 25.229
6 1 4.11584 2.97892 26.5915
7 1 1.4547 2.07467 24.7698
8 1 5.16762 3.26001 22.1828
9 1 2.65436 3.4245 21.6935
10 1 3.42025 1.12692 22.5273
11 1 3.33972 4.21781 24.2882
12 1 1.09616 1.4314 21.9968
13 1 0.901308 1.5147 19.624
14 1 4.5145 3.62205 19.8012
15 1 3.50286 1.76405 20.0819
16 2 5.32515 2.57215 17.4008
17 2 4.3791 0.932702 15.6459
18 2 7.63739 4.06741 18.0237
19 2 2.20791 1.01636 17.4169
20 2 4.06524 4.12513 14.937
21 2 1.6697 2.38969 15.2684
22 2 6.42094 4.11242 13.1154
23 2 3.21207 2.52287 12.9888
24 2 4.45254 0.544549 8.60066
25 2 4.43835 3.81724 10.2243
26 2 2.16112 2.57211 10.1603
27 2 0.913847 1.36144 12.1448
28 2 1.99361 2.19658 7.71195
29 2 4.65504 3.08478 7.59256
30 2 0.306851 0.437725 5.44189
31 2 5.71581 3.4043 4.88818
32 2 5.96746 1.88329 2.76208
33 2 3.55804 0.513953 2.50643
34 2 3.60526 3.47333 2.7005
35 2 3.32895 2.08228 5.0556
ITEM: TIMESTEP
1800
ITEM: NUMBER OF ATOMS
35
ITEM: BOX BOUNDS xy xz yz pp pp pp
0.0000000000000000e+00 7.6685730000000003e+00 2.5561910000000001e+00
0.0000000000000000e+00 4.4274529999999999e+00 0.0000000000000000e+00
0.0000000000000000e+00 3.1699265000000000e+01 0.0000000000000000e+00
ITEM: ATOMS id type x y z
1 1 3.3272 0.512367 27.7291
2 1 1.67906 2.78367 26.7035
3 1 5.71006 0.74871 26.8137
4 1 4.15834 1.961 25.1029
5 1 5.2115 4.2513 25.102
6 1 4.17286 2.74826 27.3508
7 1 1.98375 2.4202 23.9989
8 1 4.98553 3.44933 22.9642
9 1 2.20782 3.50568 21.5757
10 1 3.60823 1.32414 22.372
11 1 2.94873 4.43524 24.393
12 1 0.949771 1.29443 22.2684
13 1 0.480456 1.59092 19.9455
14 1 4.87504 3.77688 20.1658
15 1 3.41191 1.45525 19.6621
16 2 4.90618 3.1216 17.7056
17 2 4.07667 1.16324 15.7837
18 2 2.45436 3.65025 17.9492
19 2 2.10898 1.24505 17.6253
20 2 4.43366 4.01515 15.1123
21 2 1.67611 2.61197 15.0294
22 2 6.05543 4.18562 12.7994
23 2 3.63647 2.38729 12.9623
24 2 4.74399 0.758948 8.58031
25 2 4.57569 3.80798 10.3279
26 2 1.78163 2.53313 9.98221
27 2 0.751163 1.00999 12.3293
28 2 1.94504 1.70195 7.11591
29 2 4.43143 3.55419 7.57722
30 2 0.599422 0.459639 5.52499
31 2 5.85451 3.46394 4.74899
32 2 6.19107 1.53039 2.75018
33 2 3.6211 0.429972 2.59544
34 2 3.40453 3.32473 2.64156
35 2 3.30068 1.81891 4.80973
ITEM: TIMESTEP
1900
ITEM: NUMBER OF ATOMS
35
ITEM: BOX BOUNDS xy xz yz pp pp pp
0.0000000000000000e+00 7.6685730000000003e+00 2.5561910000000001e+00
0.0000000000000000e+00 4.4274529999999999e+00 0.0000000000000000e+00
0.0000000000000000e+00 3.1699265000000000e+01 0.0000000000000000e+00
ITEM: ATOMS id type x y z
1 1 4.14518 0.615316 27.3331
2 1 7.01551 2.79844 26.0414
3 1 1.23962 0.675079 27.5274
4 1 4.33559 2.42941 25.5285
5 1 5.09127 4.89947 25.3437
6 1 4.84359 2.98352 27.9515
7 1 2.20419 1.95773 23.8524
8 1 4.65332 3.60008 23.3639
9 1 1.8429 3.42889 20.7675
10 1 3.7357 1.4175 22.1484
11 1 -0.0259259 0.32465 24.6568
12 1 1.15623 0.865175 22.2293
13 1 6.20038 1.2056 19.7101
14 1 4.46631 3.88974 20.7292
15 1 3.38396 1.78804 19.7598
16 2 4.75346 2.80816 17.94
17 2 4.33731 1.18342 15.5793
18 2 2.01583 4.40141 18.1637
19 2 1.73958 1.18925 17.3412
20 2 4.1447 4.29668 15.2267
21 2 1.51909 2.70946 14.8986
22 2 5.88617 3.83349 12.5552
23 2 3.51105 2.40104 12.6969
24 2 4.63248 0.860267 8.91241
25 2 4.57899 3.79199 10.1568
26 2 1.98168 2.40555 9.68966
27 2 0.964291 0.995564 12.3705
28 2 2.32294 2.13883 7.34259
29 2 4.4865 3.43954 7.7037
30 2 0.489204 -0.00937804 5.07408
31 2 5.65147 3.35419 5.0909
32 2 1.13931 1.60625 3.04099
33 2 3.72922 0.176114 2.34797
34 2 3.45134 3.08348 2.61454
35 2 3.39126 1.74036 4.9258
ITEM: TIMESTEP
2000
ITEM: NUMBER OF ATOMS
35
ITEM: BOX BOUNDS xy xz yz pp pp pp
0.0000000000000000e+00 7.6685730000000003e+00 2.5561910000000001e+00
0.0000000000000000e+00 4.4274529999999999e+00 0.0000000000000000e+00
0.0000000000000000e+00 3.1699265000000000e+01 0.0000000000000000e+00
ITEM: ATOMS id type x y z
1 1 4.47393 0.782877 27.2228
2 1 2.01404 2.79131 26.3118
3 1 2.34358 1.00654 28.2333
4 1 4.26743 2.95503 26.0472
5 1 2.75172 0.69888 25.4269
6 1 5.67168 3.16431 28.1443
7 1 2.28012 3.2754 23.1983
8 1 5.07823 2.95704 23.2829
9 1 7.10589 3.82281 20.4012
10 1 3.36427 0.928553 22.2558
11 1 4.91136 0.726485 24.5949
12 1 0.982592 0.676697 22.1517
13 1 5.80067 1.4798 19.8129
14 1 4.70946 3.2492 20.7696
15 1 2.7743 1.37127 19.9586
16 2 4.37088 3.14094 17.8384
17 2 4.11082 1.27503 14.9113
18 2 4.11389 0.0748901 17.8657
19 2 2.15142 1.46522 17.195
20 2 3.83477 3.92845 14.6524
21 2 6.44785 2.91589 15.2353
22 2 6.52399 4.10483 12.4253
23 2 3.0946 2.04957 12.631
24 2 4.55409 0.6067 9.38318
25 2 4.38371 3.84299 10.3498
26 2 2.23982 2.2344 10.2591
27 2 0.654318 1.13039 12.2245
28 2 2.07326 2.28567 7.19544
29 2 5.02257 3.66489 7.60206
30 2 3.04869 4.19294 5.08528
31 2 5.52193 3.1184 5.12774
32 2 1.15747 1.68819 3.20448
33 2 6.26563 4.3162 2.6207
34 2 3.95803 3.02221 2.56205
35 2 3.38725 1.27136 4.99757
ITEM: TIMESTEP
2100
ITEM: NUMBER OF ATOMS
35
ITEM: BOX BOUNDS xy xz yz pp pp pp
0.0000000000000000e+00 7.6685730000000003e+00 2.5561910000000001e+00
0.0000000000000000e+00 4.4274529999999999e+00 0.0000000000000000e+00
0.0000000000000000e+00 3.1699265000000000e+01 0.0000000000000000e+00
ITEM: ATOMS id type x y z
1 1 5.52488 0.661364 27.4891
2 1 1.70676 3.46346 25.3692
3 1 2.94636 1.47652 27.7496
4 1 4.46073 3.35414 26.4226
5 1 2.54537 0.922392 25.286
6 1 6.04927 3.1048 28.091
7 1 2.51421 3.22963 22.884
8 1 4.9621 2.73875 23.14
9 1 2.30009 3.38334 20.1738
10 1 3.5225 0.823835 23.3169
11 1 5.46327 1.33489 25.0291
12 1 0.861872 1.17499 21.7931
13 1 5.00786 1.66666 18.8074
14 1 4.7537 3.26712 20.8366
15 1 2.89016 0.91413 19.7636
16 2 4.1185 3.45735 17.5301
17 2 3.81861 1.21242 15.189
18 2 6.87657 4.24279 17.3891
19 2 1.97884 1.60383 17.4234
20 2 3.93951 4.24248 14.0746
21 2 6.12783 2.97033 15.1022
22 2 6.16419 3.84728 12.3763
23 2 3.17268 2.17239 12.4478
24 2 4.64477 0.715646 9.56267
25 2 4.25635 3.70379 10.7465
26 2 2.0516 2.07981 9.81271
27 2 5.68147 1.40539 12.253
28 2 2.05325 2.11015 7.52119
29 2 4.94481 4.06354 8.18183
30 2 3.11573 4.04792 5.38503
31 2 5.56804 2.60478 5.14683
32 2 1.62724 1.21352 2.86611
33 2 6.62243 4.41844 2.97062
34 2 4.05399 2.88725 2.76269
35 2 3.03238 1.18516 5.20779
ITEM: TIMESTEP
2200
ITEM: NUMBER OF ATOMS
35
ITEM: BOX BOUNDS xy xz yz pp pp pp
0.0000000000000000e+00 7.6685730000000003e+00 2.5561910000000001e+00
0.0000000000000000e+00 4.4274529999999999e+00 0.0000000000000000e+00
0.0000000000000000e+00 3.1699265000000000e+01 0.0000000000000000e+00
ITEM: ATOMS id type x y z
1 1 0.991698 0.644271 27.7937
2 1 6.84555 3.6668 25.1065
3 1 3.58888 1.49748 27.6522
4 1 4.33587 3.5947 25.8627
5 1 2.64245 1.39949 24.8705
6 1 6.74362 3.24342 27.1366
7 1 2.29566 2.61892 22.8294
8 1 4.78346 3.81374 23.6433
9 1 2.27197 3.13297 19.5001
10 1 4.20818 0.813398 22.6618
11 1 5.30571 1.57009 25.1681
12 1 1.05422 1.22039 21.4488
13 1 5.15896 1.57792 19.2384
14 1 4.4727 3.31256 20.9419
15 1 2.99121 0.701241 19.8341
16 2 4.37075 3.17296 16.9372
17 2 3.68954 1.51196 15.2453
18 2 6.73535 4.35699 17.4938
19 2 1.74981 1.56582 17.2984
20 2 1.43223 0.000161505 14.6793
21 2 6.17081 2.51623 14.677
22 2 6.11189 4.12976 12.6035
23 2 2.97549 2.20463 12.6212
24 2 4.40679 1.0027 9.35822
25 2 4.04147 3.8349 10.7318
26 2 1.76836 2.23882 10.1943
27 2 5.56632 1.35711 12.157
28 2 2.0289 2.45418 7.36528
29 2 4.65355 3.71917 8.10273
30 2 3.2271 4.06562 5.73066
31 2 5.50692 2.25739 5.24324
32 2 1.87014 1.02206 2.6378
33 2 4.59471 -0.0747402 3.28198
34 2 4.10391 2.69414 3.20844
35 2 2.96647 0.845973 5.24764
ITEM: TIMESTEP
2300
ITEM: NUMBER OF ATOMS
35
ITEM: BOX BOUNDS xy xz yz pp pp pp
0.0000000000000000e+00 7.6685730000000003e+00 2.5561910000000001e+00
0.0000000000000000e+00 4.4274529999999999e+00 0.0000000000000000e+00
0.0000000000000000e+00 3.1699265000000000e+01 0.0000000000000000e+00
ITEM: ATOMS id type x y z
1 1 1.43751 1.19512 27.3099
2 1 6.99491 4.21279 24.3489
3 1 4.06981 1.06039 27.3082
4 1 4.25822 3.91605 25.6139
5 1 3.03916 1.74899 24.7482
6 1 7.10815 3.23895 26.9002
7 1 1.89909 2.97693 22.4359
8 1 4.46034 4.30794 23.3119
9 1 2.4993 3.03882 19.7019
10 1 4.06725 0.7439 22.1245
11 1 5.40303 1.7927 25.2826
12 1 1.74193 1.04222 21.2466
13 1 5.40403 1.75181 19.5272
14 1 4.08472 2.69876 21.3541
15 1 3.01088 0.218492 19.4549
16 2 4.43469 2.86722 17.6052
17 2 3.81444 0.98292 14.9166
18 2 6.88699 4.44574 17.2104
19 2 1.67089 1.5452 17.1042
20 2 3.55494 4.09437 15.0342
21 2 6.23807 2.83344 14.8706
22 2 5.80274 4.2137 12.4565
23 2 3.08469 2.75252 12.7567
24 2 4.02489 0.955025 9.2091
25 2 4.05329 4.01259 10.4634
26 2 1.69884 2.7261 10.136
27 2 5.40637 1.33579 12.3921
28 2 1.83506 2.49473 7.72832
29 2 4.44174 3.55522 7.98051
30 2 3.11943 3.9867 5.67909
31 2 5.78575 2.24796 5.50745
32 2 1.92937 1.16315 2.98701
33 2 7.11873 3.96113 3.26873
34 2 4.4126 2.62107 3.18213
35 2 3.1414 0.537062 5.38675
ITEM: TIMESTEP
2400
ITEM: NUMBER OF ATOMS
35
ITEM: BOX BOUNDS xy xz yz pp pp pp
0.0000000000000000e+00 7.6685730000000003e+00 2.5561910000000001e+00
0.0000000000000000e+00 4.4274529999999999e+00 0.0000000000000000e+00
0.0000000000000000e+00 3.1699265000000000e+01 0.0000000000000000e+00
ITEM: ATOMS id type x y z
1 1 1.69872 1.1255 27.212
2 1 6.94089 4.62012 24.2757
3 1 4.03071 1.53754 26.3043
4 1 4.8778 4.00253 25.7549
5 1 3.19984 2.23524 24.087
6 1 2.48807 3.55893 26.6415
7 1 6.4172 2.32653 22.5384
8 1 1.50177 0.201813 23.434
9 1 2.39877 3.2058 19.7942
10 1 4.12928 0.729257 22.1604
11 1 5.9318 2.15382 24.8312
12 1 1.84769 0.621819 21.1183
13 1 5.70142 1.15081 19.2698
14 1 4.46981 2.85844 21.3215
15 1 5.55723 4.53562 19.3468
16 2 4.12139 2.7286 17.8918
17 2 3.72183 1.28106 14.7703
18 2 4.57923 -0.0600267 17.2778
19 2 2.00392 1.28608 17.2
20 2 3.66722 3.85697 15.2131
21 2 5.83233 2.54199 14.9829
22 2 5.47205 4.56976 12.388
23 2 3.1859 3.14334 12.6468
24 2 4.12724 0.971173 9.20508
25 2 3.75054 4.41111 10.232
26 2 6.47133 2.85357 10.5978
27 2 5.56851 1.35597 12.4494
28 2 1.83432 2.05774 7.9652
29 2 4.33191 3.52206 7.6078
30 2 3.14606 3.56057 5.30418
31 2 5.71932 2.11652 5.37517
32 2 1.96162 1.05202 3.51949
33 2 6.96438 3.95776 2.93408
34 2 4.62982 2.56585 3.12557
35 2 3.32073 0.80903 6.09423
ITEM: TIMESTEP
2500
ITEM: NUMBER OF ATOMS
35
ITEM: BOX BOUNDS xy xz yz pp pp pp
0.0000000000000000e+00 7.6685730000000003e+00 2.5561910000000001e+00
0.0000000000000000e+00 4.4274529999999999e+00 0.0000000000000000e+00
0.0000000000000000e+00 3.1699265000000000e+01 0.0000000000000000e+00
ITEM: ATOMS id type x y z
1 1 1.18408 1.54689 26.9784
2 1 7.16846 4.27472 24.2675
3 1 3.98872 2.16253 26.1682
4 1 5.35254 4.34046 26.1698
5 1 3.78799 1.97563 23.0365
6 1 2.53504 3.80638 26.6186
7 1 6.05959 2.9513 22.6537
8 1 2.11905 0.364915 23.7781
9 1 1.97843 2.73153 20.1886
10 1 4.6573 0.162384 21.6386
11 1 6.06293 1.93156 24.7993
12 1 1.79296 0.742943 21.5023
13 1 5.55625 0.934204 19.4877
14 1 4.53213 2.8735 20.5891
15 1 3.16667 0.328804 19.5107
16 2 4.51804 2.77808 17.6841
17 2 3.2193 1.1114 14.8532
18 2 6.89207 4.08981 17.0516
19 2 2.1584 1.30606 17.2608
20 2 3.72506 4.08838 15.2277
21 2 6.11546 2.42983 15.0804
22 2 2.80713 0.415858 12.3148
23 2 3.13411 3.02043 12.7116
24 2 3.95786 1.19621 9.3189
25 2 3.81147 4.3017 10.0245
26 2 6.08594 2.96986 10.4379
27 2 5.35513 1.56517 12.7603
28 2 1.71386 2.18434 8.10963
29 2 4.32151 3.55722 7.59212
30 2 3.04797 3.228 5.04349
31 2 5.74379 2.11836 5.52791
32 2 2.23361 0.713133 3.74233
33 2 7.0486 4.24568 3.0394
34 2 4.38563 2.37747 2.85742
35 2 3.67562 0.641302 6.38958
ITEM: TIMESTEP
2600
ITEM: NUMBER OF ATOMS
35
ITEM: BOX BOUNDS xy xz yz pp pp pp
0.0000000000000000e+00 7.6685730000000003e+00 2.5561910000000001e+00
0.0000000000000000e+00 4.4274529999999999e+00 0.0000000000000000e+00
0.0000000000000000e+00 3.1699265000000000e+01 0.0000000000000000e+00
ITEM: ATOMS id type x y z
1 1 6.00405 2.23334 27.2416
2 1 3.19687 4.221 23.9534
3 1 3.71379 2.03002 25.4547
4 1 4.84692 4.35446 26.874
5 1 3.65765 2.13133 23.1315
6 1 2.35643 4.42511 26.5383
7 1 5.85156 2.7955 21.9244
8 1 3.01065 -0.0151905 24.622
9 1 1.94617 2.85599 19.6367
10 1 4.96819 0.0315603 21.6459
11 1 6.24059 2.34331 24.789
12 1 2.19931 0.663135 21.9745
13 1 0.633076 0.14582 19.1022
14 1 4.2974 2.77772 20.0855
15 1 3.34256 0.589618 19.6968
16 2 4.6147 2.72552 17.5512
17 2 3.72974 1.07955 14.9572
18 2 6.97008 4.23041 17.2163
19 2 2.02628 1.37976 17.4463
20 2 3.57677 3.86772 15.0133
21 2 5.96584 2.7601 14.8823
22 2 2.72061 0.2802 12.376
23 2 2.80711 3.24899 12.4405
24 2 3.66492 1.29203 9.68468
25 2 3.39637 4.20899 10.1817
26 2 6.11685 2.76513 10.5038
27 2 5.20461 1.50245 12.6488
28 2 1.57257 2.54701 7.77074
29 2 4.15272 3.87552 7.59525
30 2 3.3826 3.03902 5.48108
31 2 5.6885 2.08873 5.21713
32 2 2.16485 0.527483 3.91011
33 2 7.29489 3.94786 3.21548
34 2 4.5043 2.41565 2.81168
35 2 3.89215 0.396407 6.37559
ITEM: TIMESTEP
2700
ITEM: NUMBER OF ATOMS
35
ITEM: BOX BOUNDS xy xz yz pp pp pp
0.0000000000000000e+00 7.6685730000000003e+00 2.5561910000000001e+00
0.0000000000000000e+00 4.4274529999999999e+00 0.0000000000000000e+00
0.0000000000000000e+00 3.1699265000000000e+01 0.0000000000000000e+00
ITEM: ATOMS id type x y z
1 1 5.96093 2.72451 26.6047
2 1 0.719969 -0.0630808 24.1956
3 1 3.85915 2.77233 25.9628
4 1 1.67757 0.314576 27.1792
5 1 3.7974 2.22224 22.8371
6 1 4.74583 0.305759 26.2429
7 1 6.10732 2.29215 22.6663
8 1 5.96674 4.29547 24.2916
9 1 1.58467 2.64795 19.4118
10 1 7.57508 4.39565 21.7661
11 1 1.90527 2.09927 24.6343
12 1 2.5982 0.211024 22.0221
13 1 0.92579 0.407078 19.6811
14 1 4.22154 2.52922 20.5652
15 1 3.5164 0.468369 19.5628
16 2 4.41763 2.70576 17.4422
17 2 3.8683 1.18965 14.8546
18 2 7.15759 4.39152 17.4591
19 2 2.03922 1.41612 16.7783
20 2 3.58293 4.02058 14.9852
21 2 6.30521 2.65562 14.7627
22 2 2.41495 0.230621 12.5182
23 2 2.48157 2.90668 12.6307
24 2 3.33152 1.34774 9.66872
25 2 3.08623 4.37948 10.1507
26 2 5.98536 2.57497 10.2288
27 2 4.93633 1.59723 12.4375
28 2 6.46348 2.43495 7.80194
29 2 4.29583 4.27959 7.91051
30 2 3.30726 3.08671 5.51179
31 2 6.06187 1.83571 5.29947
32 2 2.54321 0.510186 3.78388
33 2 2.13198 3.63211 3.36003
34 2 4.71425 2.18424 2.91596
35 2 3.81151 0.634969 6.44412
ITEM: TIMESTEP
2800
ITEM: NUMBER OF ATOMS
35
ITEM: BOX BOUNDS xy xz yz pp pp pp
0.0000000000000000e+00 7.6685730000000003e+00 2.5561910000000001e+00
0.0000000000000000e+00 4.4274529999999999e+00 0.0000000000000000e+00
0.0000000000000000e+00 3.1699265000000000e+01 0.0000000000000000e+00
ITEM: ATOMS id type x y z
1 1 6.32459 3.34921 26.2386
2 1 3.36219 4.56403 24.356
3 1 3.8524 3.55253 26.7868
4 1 2.21102 1.22077 26.9308
5 1 3.99427 1.97433 22.9023
6 1 4.46775 1.20538 26.1251
7 1 1.37201 1.68602 22.5678
8 1 5.6353 3.85553 24.15
9 1 1.87829 2.42107 19.1972
10 1 7.44356 4.0449 22.0592
11 1 2.67774 1.68644 24.801
12 1 4.92235 4.22039 21.7937
13 1 0.605897 0.32269 19.7261
14 1 4.28655 2.37438 20.2025
15 1 3.00648 0.458503 19.6346
16 2 4.62677 2.9862 17.7874
17 2 3.86213 0.988984 14.913
18 2 7.37695 4.35094 17.1142
19 2 2.00496 1.2513 17.039
20 2 3.85458 4.04441 14.8016
21 2 6.05127 2.72011 14.7992
22 2 2.10455 0.0510769 12.3318
23 2 2.27453 2.98346 12.3815
24 2 3.18961 1.49628 9.41365
25 2 2.90028 4.12053 10.3197
26 2 5.43978 3.05397 10.3453
27 2 4.61204 1.58844 12.4113
28 2 6.35121 2.73024 7.82522
29 2 4.04661 4.02892 8.10209
30 2 3.78311 3.45143 5.67344
31 2 1.06422 1.61715 5.29704
32 2 2.6751 0.552621 3.55537
33 2 2.44973 3.40905 3.20204
34 2 4.98212 1.74491 3.27451
35 2 3.86579 0.683294 6.41041
ITEM: TIMESTEP
2900
ITEM: NUMBER OF ATOMS
35
ITEM: BOX BOUNDS xy xz yz pp pp pp
0.0000000000000000e+00 7.6685730000000003e+00 2.5561910000000001e+00
0.0000000000000000e+00 4.4274529999999999e+00 0.0000000000000000e+00
0.0000000000000000e+00 3.1699265000000000e+01 0.0000000000000000e+00
ITEM: ATOMS id type x y z
1 1 3.93384 0.0677178 26.2319
2 1 3.26022 4.38301 24.7041
3 1 3.59453 4.15042 27.1937
4 1 2.81642 1.96722 27.0936
5 1 4.04455 1.31545 22.4534
6 1 5.56595 2.4085 26.5418
7 1 1.45925 1.47964 21.7048
8 1 5.37102 2.72973 24.0153
9 1 1.76179 2.57646 19.9418
10 1 2.49038 3.84479 22.1678
11 1 2.71144 2.14061 24.3331
12 1 4.8387 3.74052 21.8111
13 1 0.687395 0.349941 19.4695
14 1 4.08802 2.14728 20.2622
15 1 2.86368 0.315361 19.5644
16 2 4.87157 2.71468 17.4987
17 2 3.44895 1.12808 14.8857
18 2 7.34037 4.27978 17.1424
19 2 2.3127 1.29339 17.3812
20 2 3.46863 3.87286 14.6819
21 2 6.06939 2.33117 15.103
22 2 2.123 0.453185 12.3687
23 2 1.93719 2.96473 12.6865
24 2 3.08848 1.36418 9.36096
25 2 5.05054 0.203089 10.3277
26 2 5.13678 3.07122 10.2964
27 2 4.50096 1.48158 12.4493
28 2 6.33494 2.81572 8.02004
29 2 3.64874 4.04202 7.71653
30 2 4.26896 3.2202 5.31474
31 2 1.55607 2.01011 5.7576
32 2 2.72675 0.197372 3.3686
33 2 2.72987 3.24564 3.27831
34 2 5.15583 1.60135 3.14964
35 2 3.91013 0.746458 6.20393
ITEM: TIMESTEP
3000
ITEM: NUMBER OF ATOMS
35
ITEM: BOX BOUNDS xy xz yz pp pp pp
0.0000000000000000e+00 7.6685730000000003e+00 2.5561910000000001e+00
0.0000000000000000e+00 4.4274529999999999e+00 0.0000000000000000e+00
0.0000000000000000e+00 3.1699265000000000e+01 0.0000000000000000e+00
ITEM: ATOMS id type x y z
1 1 4.44875 0.615338 25.6493
2 1 1.24468 0.161687 24.3617
3 1 1.56573 0.870519 26.7453
4 1 2.90198 3.10556 26.7488
5 1 3.549 0.846313 22.3877
6 1 5.56974 3.10117 26.7337
7 1 0.876954 0.84535 22.2153
8 1 5.27823 2.47253 24.4701
9 1 1.614 2.56156 19.3816
10 1 2.79455 2.99401 22.3488
11 1 2.48435 1.94019 24.5963
12 1 5.6239 2.97314 22.144
13 1 0.738129 0.447685 19.7714
14 1 4.24366 2.71188 19.7326
15 1 3.23969 0.34237 20.0103
16 2 4.67035 2.57325 17.4254
17 2 3.19605 0.760656 14.9153
18 2 7.29606 4.13297 17.3077
19 2 2.42495 1.33338 17.4233
20 2 3.30156 3.78299 14.9971
21 2 5.91867 2.0443 15.1249
22 2 1.87403 0.375463 12.3711
23 2 6.90974 3.42846 12.5355
24 2 2.6218 1.4901 9.30166
25 2 5.24429 0.179239 10.0806
26 2 4.98051 3.0109 10.5545
27 2 4.61587 1.88393 12.8847
28 2 5.68927 2.78903 8.0504
29 2 3.48568 4.1853 7.54293
30 2 4.72808 3.22442 5.24108
31 2 2.13436 2.20018 5.50284
32 2 2.93327 0.161628 3.26934
33 2 2.48206 3.04501 3.17687
34 2 5.46993 1.46382 3.30599
35 2 4.18404 0.540689 6.04796
ITEM: TIMESTEP
3100
ITEM: NUMBER OF ATOMS
35
ITEM: BOX BOUNDS xy xz yz pp pp pp
0.0000000000000000e+00 7.6685730000000003e+00 2.5561910000000001e+00
0.0000000000000000e+00 4.4274529999999999e+00 0.0000000000000000e+00
0.0000000000000000e+00 3.1699265000000000e+01 0.0000000000000000e+00
ITEM: ATOMS id type x y z
1 1 3.93179 0.515627 24.9863
2 1 4.10328 4.5135 24.4805
3 1 2.22107 1.70663 26.479
4 1 3.14953 3.99187 26.7103
5 1 3.77801 0.202686 23.0125
6 1 5.54508 3.75078 26.6945
7 1 1.23696 0.499351 22.0966
8 1 5.59778 2.14479 24.5619
9 1 1.76235 3.02812 20.0939
10 1 2.76464 2.25705 21.9745
11 1 2.77711 2.61737 24.276
12 1 5.30152 2.65948 22.0926
13 1 0.404187 0.712457 19.6581
14 1 4.20474 2.9411 20.0691
15 1 3.07459 0.705825 19.8579
16 2 4.64634 2.80662 17.5774
17 2 3.38768 0.122383 14.9617
18 2 7.19072 4.2138 17.6393
19 2 1.99748 0.910619 17.4009
20 2 3.32091 3.36934 15.1282
21 2 5.99022 2.0522 15.2353
22 2 1.64368 0.854312 12.3945
23 2 7.19567 3.51216 12.3185
24 2 2.60265 1.64185 9.27277
25 2 -0.15577 0.113569 10.0191
26 2 4.88598 2.92943 10.4584
27 2 4.24489 2.05981 12.9473
28 2 5.47267 2.49503 7.77746
29 2 3.53405 4.39654 7.65174
30 2 4.60703 3.40514 5.10929
31 2 2.15651 1.91586 5.88702
32 2 3.04523 0.447071 2.97845
33 2 2.85804 3.08311 3.02695
34 2 5.57844 1.22969 3.61099
35 2 4.45139 0.40456 5.7529
ITEM: TIMESTEP
3200
ITEM: NUMBER OF ATOMS
35
ITEM: BOX BOUNDS xy xz yz pp pp pp
0.0000000000000000e+00 7.6685730000000003e+00 2.5561910000000001e+00
0.0000000000000000e+00 4.4274529999999999e+00 0.0000000000000000e+00
0.0000000000000000e+00 3.1699265000000000e+01 0.0000000000000000e+00
ITEM: ATOMS id type x y z
1 1 4.24103 0.938962 24.9811
2 1 2.06718 0.383275 24.3938
3 1 2.60552 2.08111 26.5492
4 1 0.689228 0.440532 26.6565
5 1 6.78995 4.06438 22.1407
6 1 5.55556 3.30219 27.0857
7 1 1.53015 -0.30759 22.1419
8 1 5.62409 2.88715 24.8377
9 1 6.71179 3.4693 19.9519
10 1 2.83231 1.98585 21.8379
11 1 3.09906 3.03803 24.1449
12 1 5.08787 1.75081 22.5194
13 1 5.35506 1.42363 20.1005
14 1 3.85046 3.45824 19.9225
15 1 3.06696 1.11682 19.8082
16 2 4.50802 2.35002 17.5372
17 2 3.38004 0.205509 14.9533
18 2 6.89647 3.98317 17.4893
19 2 1.91372 1.29402 17.6848
20 2 3.37892 3.05398 15.2364
21 2 6.02684 1.42305 15.0901
22 2 1.70423 0.773168 12.3707
23 2 6.88064 3.63071 12.5322
24 2 2.47885 1.8411 9.48188
25 2 4.48639 0.320069 9.96734
26 2 4.87731 3.18649 10.3388
27 2 4.24499 2.01183 12.7008
28 2 5.53031 2.64918 7.78502
29 2 3.52745 4.0236 7.73991
30 2 4.45619 3.46604 5.20368
31 2 2.44844 1.7255 6.07938
32 2 3.18742 0.260062 2.96398
33 2 3.02654 3.12268 3.04392
34 2 5.92007 1.82505 3.51587
35 2 4.33672 0.0405287 5.42354
ITEM: TIMESTEP
3300
ITEM: NUMBER OF ATOMS
35
ITEM: BOX BOUNDS xy xz yz pp pp pp
0.0000000000000000e+00 7.6685730000000003e+00 2.5561910000000001e+00
0.0000000000000000e+00 4.4274529999999999e+00 0.0000000000000000e+00
0.0000000000000000e+00 3.1699265000000000e+01 0.0000000000000000e+00
ITEM: ATOMS id type x y z
1 1 4.65589 1.1138 25.0157
2 1 1.98201 1.40313 24.7577
3 1 3.38011 2.31665 26.3355
4 1 1.44655 0.837083 26.6769
5 1 6.80197 3.86202 22.3924
6 1 5.09056 3.12113 27.3155
7 1 4.25065 3.28003 22.268
8 1 5.6575 3.66802 25.0382
9 1 6.17826 3.3758 19.456
10 1 2.85952 1.58022 22.3807
11 1 3.49038 3.57162 24.2836
12 1 5.50338 1.4908 22.6671
13 1 5.6756 1.19326 20.5519
14 1 3.89864 3.96659 19.1677
15 1 3.05735 1.73351 19.9764
16 2 4.49174 2.14086 17.3885
17 2 3.00497 0.0719553 15.0674
18 2 6.84394 3.76524 17.1586
19 2 1.8714 1.00952 17.4479
20 2 3.33416 2.99764 15.004
21 2 0.514933 1.31743 14.6458
22 2 1.70036 0.369509 12.3978
23 2 6.76073 3.56097 12.7527
24 2 1.92879 2.12901 10.0619
25 2 4.62006 0.662587 10.1409
26 2 4.61126 3.52773 10.1429
27 2 4.37548 2.04359 12.4938
28 2 5.68479 2.60086 7.62257
29 2 2.9454 3.91755 7.95904
30 2 4.62844 3.25319 5.45511
31 2 2.45833 1.52502 6.06962
32 2 3.20773 0.362966 3.12345
33 2 3.43625 3.30712 2.90153
34 2 5.98357 1.94033 3.55825
35 2 7.45527 4.38898 5.32102
ITEM: TIMESTEP
3400
ITEM: NUMBER OF ATOMS
35
ITEM: BOX BOUNDS xy xz yz pp pp pp
0.0000000000000000e+00 7.6685730000000003e+00 2.5561910000000001e+00
0.0000000000000000e+00 4.4274529999999999e+00 0.0000000000000000e+00
0.0000000000000000e+00 3.1699265000000000e+01 0.0000000000000000e+00
ITEM: ATOMS id type x y z
1 1 4.84751 1.62772 25.754
2 1 2.42653 2.26769 24.5423
3 1 2.98165 2.99152 26.912
4 1 1.3244 0.606217 27.4719
5 1 2.13441 3.20661 22.3947
6 1 6.17351 3.27313 27.5624
7 1 4.30262 3.66569 21.0344
8 1 6.0637 3.93787 25.2418
9 1 6.1 3.6709 19.642
10 1 3.10684 0.624095 22.511
11 1 3.63999 4.1698 24.4078
12 1 5.49084 1.62573 22.9529
13 1 5.47825 1.32613 20.2796
14 1 3.47154 3.76768 18.8122
15 1 2.87823 1.25852 19.9978
16 2 4.54123 1.92347 17.4513
17 2 5.44048 4.26653 14.6701
18 2 7.11927 3.55466 17.0295
19 2 1.87405 0.696441 16.9589
20 2 2.86453 2.75689 14.7991
21 2 5.33843 1.60025 15.0134
22 2 1.73859 0.579247 12.5788
23 2 6.83451 3.41715 12.621
24 2 1.61463 2.18074 10.4846
25 2 4.29434 0.747864 10.2636
26 2 4.47186 3.87028 9.66794
27 2 4.09895 2.18666 12.5236
28 2 5.5531 2.30175 7.78969
29 2 2.57739 4.0504 7.82483
30 2 4.93843 3.01215 5.2233
31 2 2.62931 1.16549 6.1164
32 2 3.48671 0.816922 3.45311
33 2 3.75283 3.44272 2.97425
34 2 1.04796 1.6224 3.42004
35 2 5.0777 0.171294 5.4162
ITEM: TIMESTEP
3500
ITEM: NUMBER OF ATOMS
35
ITEM: BOX BOUNDS xy xz yz pp pp pp
0.0000000000000000e+00 7.6685730000000003e+00 2.5561910000000001e+00
0.0000000000000000e+00 4.4274529999999999e+00 0.0000000000000000e+00
0.0000000000000000e+00 3.1699265000000000e+01 0.0000000000000000e+00
ITEM: ATOMS id type x y z
1 1 5.55291 2.15752 25.7438
2 1 2.90318 1.89479 25.137
3 1 3.1793 3.23381 27.0654
4 1 1.87144 1.2018 27.2333
5 1 2.01415 2.35483 21.7685
6 1 5.70131 3.78329 27.7298
7 1 4.33845 3.86894 21.5911
8 1 6.82411 4.2252 25.218
9 1 6.42808 3.45857 19.6124
10 1 3.36046 0.263059 22.9173
11 1 1.36601 0.0402932 24.581
12 1 4.83831 2.01998 22.8629
13 1 4.81719 1.6004 20.2635
14 1 3.86404 3.86168 19.2534
15 1 2.44797 1.43005 19.5421
16 2 4.38029 1.77792 17.7572
17 2 5.55735 4.21273 14.9185
18 2 6.69573 3.41419 17.1157
19 2 2.08035 0.532207 17.2341
20 2 2.83568 2.49422 14.8568
21 2 5.30761 1.18854 14.9924
22 2 1.40062 0.784597 12.3146
23 2 6.61853 4.03627 12.2577
24 2 1.66469 2.31135 9.83595
25 2 4.12643 0.776377 10.0185
26 2 4.20158 3.98889 9.77142
27 2 4.22139 2.31318 12.4289
28 2 5.15637 2.04863 7.77892
29 2 2.22602 3.69429 7.86378
30 2 5.19782 3.00033 5.43765
31 2 2.65936 1.19609 6.68157
32 2 3.89688 0.726277 3.37256
33 2 3.66479 3.53491 2.90276
34 2 1.49141 2.10729 3.03089
35 2 2.7782 4.01954 5.35757
ITEM: TIMESTEP
3600
ITEM: NUMBER OF ATOMS
35
ITEM: BOX BOUNDS xy xz yz pp pp pp
0.0000000000000000e+00 7.6685730000000003e+00 2.5561910000000001e+00
0.0000000000000000e+00 4.4274529999999999e+00 0.0000000000000000e+00
0.0000000000000000e+00 3.1699265000000000e+01 0.0000000000000000e+00
ITEM: ATOMS id type x y z
1 1 5.95416 2.22808 25.1296
2 1 3.27369 2.02102 24.7655
3 1 3.48015 4.26169 27.5607
4 1 2.23743 1.84175 26.8772
5 1 1.91697 2.08114 22.3413
6 1 5.6303 3.59851 27.1096
7 1 3.65896 4.21227 22.1385
8 1 7.15588 4.5504 25.6174
9 1 5.82887 3.85592 20.5236
10 1 4.17593 -0.354781 23.2808
11 1 4.54216 4.40421 24.5063
12 1 4.60658 2.3964 22.8402
13 1 4.83307 1.3581 20.8983
14 1 3.28974 3.55325 19.5799
15 1 2.07083 1.57648 19.7354
16 2 4.46003 1.72086 17.5816
17 2 5.28971 3.97835 14.7455
18 2 6.79432 3.19574 17.5127
19 2 1.57314 0.424041 17.1665
20 2 3.05486 2.57532 14.7394
21 2 5.42639 0.773958 14.92
22 2 1.5047 1.03111 12.3374
23 2 6.54715 3.97821 12.2295
24 2 1.66322 2.31735 10.1226
25 2 4.03684 1.17586 9.90061
26 2 3.98616 3.89635 9.78538
27 2 4.14409 2.63215 12.1925
28 2 4.63255 2.07872 7.48277
29 2 2.17876 3.59043 7.62043
30 2 5.67304 2.74994 5.22829
31 2 2.23732 0.649996 7.22606
32 2 3.92449 0.796954 3.34805
33 2 4.15575 3.81462 2.70083
34 2 1.54217 2.36753 3.11249
35 2 3.12864 3.79125 5.13734
ITEM: TIMESTEP
3700
ITEM: NUMBER OF ATOMS
35
ITEM: BOX BOUNDS xy xz yz pp pp pp
0.0000000000000000e+00 7.6685730000000003e+00 2.5561910000000001e+00
0.0000000000000000e+00 4.4274529999999999e+00 0.0000000000000000e+00
0.0000000000000000e+00 3.1699265000000000e+01 0.0000000000000000e+00
ITEM: ATOMS id type x y z
1 1 6.30002 2.36071 24.5215
2 1 3.53648 2.62005 24.7576
3 1 1.02854 0.91469 27.5362
4 1 3.09453 2.34326 27.0214
5 1 2.68512 1.57593 22.3331
6 1 5.14332 2.93628 26.7108
7 1 0.969629 0.076129 22.1798
8 1 4.89519 0.308467 25.6547
9 1 5.40308 3.62974 20.6531
10 1 6.41096 4.45375 23.3545
11 1 2.10763 0.128702 25.0886
12 1 5.12196 2.24008 22.6583
13 1 3.92064 1.33324 19.9884
14 1 3.08541 3.69989 19.7476
15 1 1.81329 1.68142 19.6869
16 2 4.16873 1.74205 17.4619
17 2 5.5577 3.49157 14.8533
18 2 6.76703 3.25098 17.5187
19 2 4.22217 4.36283 17.2956
20 2 2.7345 2.23942 15.0185
21 2 5.13109 0.928189 14.7747
22 2 1.70333 1.15259 12.6735
23 2 6.78142 4.11761 12.4086
24 2 6.24729 2.51259 9.92607
25 2 3.96454 0.849976 10
26 2 4.09804 4.17146 9.99373
27 2 3.98648 2.72592 12.3855
28 2 4.39841 1.92933 7.36209
29 2 6.93657 3.53767 7.73079
30 2 6.07164 2.56793 5.13895
31 2 1.72463 0.302921 7.39127
32 2 4.06699 1.15168 3.78395
33 2 4.71247 3.97213 2.47005
34 2 1.78362 2.17006 2.49411
35 2 3.49163 4.08683 4.7639
ITEM: TIMESTEP
3800
ITEM: NUMBER OF ATOMS
35
ITEM: BOX BOUNDS xy xz yz pp pp pp
0.0000000000000000e+00 7.6685730000000003e+00 2.5561910000000001e+00
0.0000000000000000e+00 4.4274529999999999e+00 0.0000000000000000e+00
0.0000000000000000e+00 3.1699265000000000e+01 0.0000000000000000e+00
ITEM: ATOMS id type x y z
1 1 6.50963 2.53321 24.0672
2 1 4.17038 2.61875 24.2463
3 1 1.18384 0.876125 27.6835
4 1 3.00174 2.77646 27.0351
5 1 2.68946 2.17127 21.5554
6 1 5.48536 3.05538 26.3963
7 1 3.92408 4.10457 22.466
8 1 4.63501 0.224173 25.7285
9 1 5.2217 3.68452 19.872
10 1 3.8299 0.291237 23.2342
11 1 2.27904 0.796927 25.5063
12 1 5.57404 2.12612 22.0024
13 1 3.62119 1.24616 19.8988
14 1 2.7785 3.73136 19.8146
15 1 5.76504 1.49376 19.1167
16 2 4.16375 1.49862 17.2668
17 2 5.18324 3.57595 15.0723
18 2 6.71426 3.19331 17.4403
19 2 1.68225 0.0660333 17.4869
20 2 2.55433 1.8318 15.2999
21 2 5.21488 0.416527 15.0677
22 2 1.73862 1.29452 12.6206
23 2 6.7642 4.2403 12.532
24 2 6.14391 2.38057 10.1541
25 2 3.79469 1.01036 9.8556
26 2 3.73401 3.93021 10.2709
27 2 4.22024 2.62715 12.7266
28 2 4.07971 1.79212 7.06612
29 2 6.61761 3.43095 7.4337
30 2 6.70264 2.67181 4.87826
31 2 1.63784 0.626034 7.52109
32 2 3.97206 1.41187 4.26444
33 2 5.05798 3.74982 2.39923
34 2 2.1149 2.31119 2.45377
35 2 3.88668 4.27578 4.78314
ITEM: TIMESTEP
3900
ITEM: NUMBER OF ATOMS
35
ITEM: BOX BOUNDS xy xz yz pp pp pp
0.0000000000000000e+00 7.6685730000000003e+00 2.5561910000000001e+00
0.0000000000000000e+00 4.4274529999999999e+00 0.0000000000000000e+00
0.0000000000000000e+00 3.1699265000000000e+01 0.0000000000000000e+00
ITEM: ATOMS id type x y z
1 1 1.72579 3.02125 24.2104
2 1 4.3678 2.93482 24.4104
3 1 0.970868 0.403819 27.5732
4 1 2.90927 2.83476 26.1968
5 1 2.62838 2.5713 21.7533
6 1 5.6158 2.88228 26.5204
7 1 1.61554 0.0920893 22.268
8 1 5.25531 0.854201 25.1515
9 1 4.58976 3.6098 19.9298
10 1 4.20615 0.631755 23.2366
11 1 2.69577 0.713313 25.172
12 1 4.61842 1.74597 21.3816
13 1 3.29328 1.30474 19.4473
14 1 2.02855 3.8326 19.9705
15 1 6.28353 1.43783 19.7722
16 2 4.17616 1.53794 17.2426
17 2 5.29119 3.3176 15.2457
18 2 6.88165 3.0118 17.4444
19 2 1.53767 -0.0158665 17.4332
20 2 2.467 1.88024 14.8371
21 2 0.0872889 0.0559528 15.0591
22 2 1.64681 1.19963 12.5486
23 2 6.57254 4.13978 12.5574
24 2 6.1495 2.2919 10.1921
25 2 3.43843 1.01517 9.68456
26 2 3.2465 3.6371 10.1285
27 2 4.33026 2.45312 12.7923
28 2 4.06888 2.31592 6.77384
29 2 6.58284 3.74396 7.46595
30 2 1.6381 2.89752 5.01051
31 2 1.25746 0.828935 7.91127
32 2 4.21934 1.15459 4.32081
33 2 5.22294 3.56237 2.77306
34 2 2.72907 2.32927 2.5663
35 2 4.27826 4.42737 5.17804
ITEM: TIMESTEP
4000
ITEM: NUMBER OF ATOMS
35
ITEM: BOX BOUNDS xy xz yz pp pp pp
0.0000000000000000e+00 7.6685730000000003e+00 2.5561910000000001e+00
0.0000000000000000e+00 4.4274529999999999e+00 0.0000000000000000e+00
0.0000000000000000e+00 3.1699265000000000e+01 0.0000000000000000e+00
ITEM: ATOMS id type x y z
1 1 6.76865 2.82916 24.3529
2 1 3.95496 3.41069 23.7354
3 1 1.2524 0.346992 26.9934
4 1 3.46672 2.48807 26.6427
5 1 1.88091 2.64881 22.1911
6 1 5.61672 3.03425 27.0238
7 1 1.65479 0.583565 21.8903
8 1 0.660636 0.994903 24.6529
9 1 4.34544 3.65089 19.6449
10 1 3.98779 0.221605 23.1563
11 1 3.41639 0.612115 25.5033
12 1 4.58602 2.19097 21.7236
13 1 3.12343 1.71934 19.2133
14 1 6.74329 3.98147 19.9305
15 1 0.777604 1.52802 19.6276
16 2 4.28431 1.4833 16.8932
17 2 5.47324 3.05422 15.1096
18 2 1.66522 2.85201 17.694
19 2 1.6053 0.0616038 17.386
20 2 2.79597 1.5909 14.7723
21 2 5.26618 0.390099 14.692
22 2 1.51874 0.707614 12.1784
23 2 6.58566 3.79659 12.4322
24 2 5.30767 2.44737 10.0545
25 2 3.22819 0.772023 9.9449
26 2 3.10971 3.65636 10.0358
27 2 3.99664 2.37431 12.3819
28 2 3.89454 2.56998 7.29905
29 2 6.53311 4.24956 7.47206
30 2 6.74167 2.67599 5.3142
31 2 1.16869 1.21022 7.8216
32 2 4.93731 0.69831 4.22324
33 2 5.38151 3.53845 3.15126
34 2 3.04232 2.46109 3.07335
35 2 2.04174 0.285625 5.48606
ITEM: TIMESTEP
4100
ITEM: NUMBER OF ATOMS
35
ITEM: BOX BOUNDS xy xz yz pp pp pp
0.0000000000000000e+00 7.6685730000000003e+00 2.5561910000000001e+00
0.0000000000000000e+00 4.4274529999999999e+00 0.0000000000000000e+00
0.0000000000000000e+00 3.1699265000000000e+01 0.0000000000000000e+00
ITEM: ATOMS id type x y z
1 1 2.02865 2.4876 25.169
2 1 4.42216 2.76621 24.4048
3 1 1.52329 0.743162 26.6891
4 1 3.48999 2.52481 27.0221
5 1 1.92189 3.037 22.207
6 1 6.19863 2.99124 27.1873
7 1 1.39424 0.530072 21.4711
8 1 0.543964 0.785495 24.1561
9 1 4.20864 3.65933 19.2112
10 1 2.99268 0.975256 23.1614
11 1 3.47948 0.495205 25.5693
12 1 4.48599 2.25752 21.4203
13 1 2.72747 1.57394 19.7936
14 1 7.03097 3.86346 19.9264
15 1 5.3926 1.58795 19.3241
16 2 4.30983 1.25963 17.1492
17 2 5.40947 3.25147 14.6372
18 2 6.68977 3.21203 17.2572
19 2 1.73103 0.123193 16.9814
20 2 2.87697 1.49941 14.6988
21 2 0.521744 0.124698 14.4656
22 2 1.23378 0.570963 12.0989
23 2 6.48369 3.33846 12.3298
24 2 5.25193 2.43379 9.88831
25 2 2.83195 0.854037 10.1228
26 2 2.45446 3.80874 9.71807
27 2 3.84718 2.16798 12.3807
28 2 3.82475 2.79217 7.60353
29 2 6.61006 4.63584 7.64411
30 2 1.79615 2.69244 5.69967
31 2 1.43754 1.51381 7.88248
32 2 5.37588 0.809051 4.30126
33 2 5.61861 3.79998 3.13999
34 2 3.02496 2.27348 3.69371
35 2 4.83055 4.12878 5.57165
ITEM: TIMESTEP
4200
ITEM: NUMBER OF ATOMS
35
ITEM: BOX BOUNDS xy xz yz pp pp pp
0.0000000000000000e+00 7.6685730000000003e+00 2.5561910000000001e+00
0.0000000000000000e+00 4.4274529999999999e+00 0.0000000000000000e+00
0.0000000000000000e+00 3.1699265000000000e+01 0.0000000000000000e+00
ITEM: ATOMS id type x y z
1 1 2.32631 2.57653 25.0744
2 1 5.01601 3.06299 25.1226
3 1 0.879049 0.445678 26.2361
4 1 3.79259 2.44096 27.0261
5 1 1.56536 3.45747 22.7774
6 1 6.142 3.3716 27.3317
7 1 0.86622 0.207653 21.4621
8 1 0.840665 0.274793 23.9799
9 1 4.01364 3.46833 19.0689
10 1 3.0936 0.978699 23.1051
11 1 3.98032 0.396854 25.4884
12 1 4.16458 2.45162 21.6386
13 1 2.99965 1.34809 19.7735
14 1 6.6187 3.8851 19.5408
15 1 5.77372 1.52794 19.0012
16 2 4.0679 1.69046 17.1371
17 2 5.3482 2.84717 14.7086
18 2 6.94951 2.98392 16.9342
19 2 1.75115 0.176691 16.6818
20 2 2.85983 1.72041 14.7781
21 2 -0.081599 -0.0959639 14.7153
22 2 1.1429 0.406642 12.2763
23 2 6.4208 3.31424 12.2316
24 2 5.03837 2.48579 10.0904
25 2 2.61978 1.07323 10.0616
26 2 2.64267 3.83561 10.0986
27 2 3.90645 1.78299 12.3506
28 2 4.17273 3.26789 7.85664
29 2 3.94972 0.467793 7.35511
30 2 2.14517 2.7748 5.82511
31 2 1.29259 1.31557 7.75366
32 2 5.35382 1.0542 4.62269
33 2 5.89579 3.83948 3.10072
34 2 3.31003 2.0683 3.41995
35 2 4.73689 3.98809 5.29665
ITEM: TIMESTEP
4300
ITEM: NUMBER OF ATOMS
35
ITEM: BOX BOUNDS xy xz yz pp pp pp
0.0000000000000000e+00 7.6685730000000003e+00 2.5561910000000001e+00
0.0000000000000000e+00 4.4274529999999999e+00 0.0000000000000000e+00
0.0000000000000000e+00 3.1699265000000000e+01 0.0000000000000000e+00
ITEM: ATOMS id type x y z
1 1 2.45037 2.9366 24.8939
2 1 5.16495 2.68612 24.6483
3 1 1.50238 0.625198 26.6266
4 1 3.57642 1.95737 27.4873
5 1 6.53757 2.50383 22.6753
6 1 6.43593 3.43249 26.7536
7 1 0.691465 1.05003 21.2661
8 1 0.787608 0.259738 23.7481
9 1 4.44307 3.42972 19.3133
10 1 3.10483 1.15043 22.8205
11 1 3.88581 0.696788 25.1074
12 1 4.1102 2.79121 21.8007
13 1 3.15147 1.41728 19.8416
14 1 6.60578 3.57288 19.9231
15 1 5.61623 1.1224 18.8965
16 2 4.15767 1.73651 17.2403
17 2 5.00943 2.4963 14.8025
18 2 6.74144 3.13823 17.2471
19 2 1.76115 0.0863525 16.8457
20 2 2.28631 1.52135 14.6824
21 2 7.14696 4.34537 14.8917
22 2 1.56792 -0.00376924 12.9031
23 2 6.46592 3.31688 12.5227
24 2 5.32569 2.4098 10.2906
25 2 2.59884 0.974993 9.97302
26 2 2.61745 4.13458 9.92765
27 2 3.81771 1.69389 12.2935
28 2 4.04686 3.23192 7.73635
29 2 3.75282 0.422672 7.24299
30 2 2.76419 2.91212 5.50282
31 2 1.13784 1.88841 7.4751
32 2 5.11133 1.25963 4.91368
33 2 6.35086 3.59805 2.89169
34 2 3.16252 2.31827 3.07619
35 2 5.05958 4.03528 5.12501
ITEM: TIMESTEP
4400
ITEM: NUMBER OF ATOMS
35
ITEM: BOX BOUNDS xy xz yz pp pp pp
0.0000000000000000e+00 7.6685730000000003e+00 2.5561910000000001e+00
0.0000000000000000e+00 4.4274529999999999e+00 0.0000000000000000e+00
0.0000000000000000e+00 3.1699265000000000e+01 0.0000000000000000e+00
ITEM: ATOMS id type x y z
1 1 2.90722 2.77534 25.1452
2 1 5.18944 2.82569 24.5539
3 1 1.54944 0.58566 25.9367
4 1 3.87253 1.89074 26.8421
5 1 2.07002 2.59062 23.0008
6 1 6.20091 3.15099 26.7612
7 1 5.12628 1.8293 21.4783
8 1 1.00466 0.712662 23.649
9 1 4.72262 2.95714 19.3979
10 1 3.31844 0.337957 22.4763
11 1 3.71769 0.371607 24.877
12 1 4.19948 3.79239 21.7775
13 1 2.88196 1.10592 19.8283
14 1 7.07243 3.56832 20.4608
15 1 0.641509 0.646672 19.2082
16 2 3.78966 1.52964 17.3215
17 2 4.46252 2.80538 14.9608
18 2 6.63064 3.17606 17.9327
19 2 1.5662 0.0118315 17.0836
20 2 2.06993 1.58809 14.9841
21 2 7.0037 4.23679 15.1567
22 2 3.84261 4.30737 12.7032
23 2 6.76168 2.89794 12.4383
24 2 5.48666 2.54919 9.95347
25 2 2.58015 0.926399 9.88668
26 2 2.57564 4.06946 10.0087
27 2 3.96534 1.49053 12.2116
28 2 3.64392 3.38041 7.66967
29 2 3.97634 0.526625 7.73954
30 2 2.59167 2.8301 5.03165
31 2 1.328 2.06113 7.43002
32 2 5.17443 1.5171 4.92047
33 2 6.18601 3.73988 2.61088
34 2 3.88761 1.93988 2.68494
35 2 5.38114 4.53297 4.99922
ITEM: TIMESTEP
4500
ITEM: NUMBER OF ATOMS
35
ITEM: BOX BOUNDS xy xz yz pp pp pp
0.0000000000000000e+00 7.6685730000000003e+00 2.5561910000000001e+00
0.0000000000000000e+00 4.4274529999999999e+00 0.0000000000000000e+00
0.0000000000000000e+00 3.1699265000000000e+01 0.0000000000000000e+00
ITEM: ATOMS id type x y z
1 1 2.88626 2.62263 25.4157
2 1 4.98939 2.75023 24.0439
3 1 1.39029 0.424293 26.6013
4 1 4.2619 1.4428 26.8264
5 1 2.7527 2.82375 22.9811
6 1 6.1521 3.3966 26.6991
7 1 5.45603 2.37039 22.0323
8 1 1.26752 0.503323 23.6936
9 1 4.04005 3.21587 19.5829
10 1 3.90144 0.311741 22.2912
11 1 4.04025 0.507737 24.8333
12 1 3.51329 4.49579 21.3767
13 1 2.94692 0.683043 20.1681
14 1 1.92723 2.92103 20.8529
15 1 0.340806 1.04818 19.5573
16 2 3.64609 1.34687 17.5899
17 2 4.33336 3.01845 14.7913
18 2 6.56248 2.84897 17.7875
19 2 3.78836 4.22844 17.3052
20 2 1.7894 1.50576 15.0121
21 2 6.82693 4.53741 15.1844
22 2 1.62681 0.0463475 12.406
23 2 6.45874 2.68457 12.4989
24 2 4.96444 2.68385 9.68877
25 2 2.53184 1.12413 10.0735
26 2 2.76465 3.77953 10.253
27 2 4.1111 1.10597 12.4945
28 2 4.07149 3.62301 7.22503
29 2 4.04972 0.579683 7.48161
30 2 2.5695 3.19323 4.5929
31 2 1.43986 1.99681 7.4408
32 2 5.29573 1.54224 5.01383
33 2 6.25621 3.65785 2.68855
34 2 4.43996 1.8814 2.5368
35 2 2.64405 0.172608 5.11408
ITEM: TIMESTEP
4600
ITEM: NUMBER OF ATOMS
35
ITEM: BOX BOUNDS xy xz yz pp pp pp
0.0000000000000000e+00 7.6685730000000003e+00 2.5561910000000001e+00
0.0000000000000000e+00 4.4274529999999999e+00 0.0000000000000000e+00
0.0000000000000000e+00 3.1699265000000000e+01 0.0000000000000000e+00
ITEM: ATOMS id type x y z
1 1 2.75619 2.56017 25.5287
2 1 5.11043 2.66397 25.2021
3 1 1.59038 0.524669 26.6756
4 1 3.98461 1.50823 27.5002
5 1 2.77422 2.71269 23.0436
6 1 6.47342 3.31213 27.0149
7 1 4.74341 2.42523 21.8146
8 1 1.59762 0.883962 24.4154
9 1 4.02587 3.38024 19.4629
10 1 3.62734 0.243762 22.2592
11 1 4.34596 0.308047 24.6928
12 1 1.3563 0.670336 22.0459
13 1 3.46251 0.0832753 19.8423
14 1 2.04923 2.40439 20.1437
15 1 5.42839 1.16512 19.5528
16 2 3.55492 1.17422 17.4692
17 2 4.19936 2.92912 14.9668
18 2 6.08009 2.75812 17.2664
19 2 3.72251 4.23817 17.1922
20 2 1.48084 1.46664 15.0089
21 2 4.07376 0.0403613 15.0505
22 2 4.20519 4.17707 12.5119
23 2 6.71851 2.88623 12.5859
24 2 5.07345 2.45801 9.76974
25 2 2.54501 0.993733 9.87959
26 2 2.19101 4.00602 9.91697
27 2 4.18939 1.39682 12.6737
28 2 4.12135 3.6406 7.25674
29 2 4.09315 0.470757 7.42835
30 2 3.00792 3.33992 4.77444
31 2 1.83742 2.26535 7.38562
32 2 5.22888 1.62595 5.21694
33 2 6.47329 3.69689 2.57213
34 2 4.22833 1.90348 2.82822
35 2 2.82901 0.175245 4.6383
ITEM: TIMESTEP
4700
ITEM: NUMBER OF ATOMS
35
ITEM: BOX BOUNDS xy xz yz pp pp pp
0.0000000000000000e+00 7.6685730000000003e+00 2.5561910000000001e+00
0.0000000000000000e+00 4.4274529999999999e+00 0.0000000000000000e+00
0.0000000000000000e+00 3.1699265000000000e+01 0.0000000000000000e+00
ITEM: ATOMS id type x y z
1 1 2.83807 2.64764 25.5817
2 1 5.7623 2.76247 25.4791
3 1 1.11841 0.701377 26.9444
4 1 4.11395 1.4859 27.1369
5 1 2.43982 2.75886 23.0826
6 1 6.74832 3.43672 27.9134
7 1 4.54547 2.68617 21.7455
8 1 2.05465 0.524889 24.3923
9 1 4.2314 2.78454 19.0866
10 1 3.7375 0.184903 22.3643
11 1 4.12119 0.298549 25.1586
12 1 1.02976 0.696379 21.9735
13 1 3.70338 -0.213008 19.6884
14 1 2.52596 1.85258 20.4434
15 1 5.75252 1.03596 19.5175
16 2 3.30795 1.34036 17.3512
17 2 3.80062 2.62448 15.0917
18 2 6.01812 2.80318 17.2835
19 2 3.31071 4.45467 17.2382
20 2 1.45409 1.27543 14.6445
21 2 3.88516 -0.270313 14.7555
22 2 4.04777 4.52164 12.2952
23 2 1.91623 2.78796 12.3953
24 2 5.04428 2.40844 9.92611
25 2 2.17909 0.949512 9.8883
26 2 7.48138 4.02717 9.92212
27 2 4.27062 1.49266 12.375
28 2 4.32637 3.80833 7.68806
29 2 4.19325 0.691466 7.35412
30 2 2.82356 3.26601 5.05157
31 2 1.97903 2.11321 7.33493
32 2 5.54438 1.97101 5.25425
33 2 6.86271 3.25585 2.60465
34 2 3.98323 2.16525 2.80483
35 2 2.93431 0.378616 4.67235
ITEM: TIMESTEP
4800
ITEM: NUMBER OF ATOMS
35
ITEM: BOX BOUNDS xy xz yz pp pp pp
0.0000000000000000e+00 7.6685730000000003e+00 2.5561910000000001e+00
0.0000000000000000e+00 4.4274529999999999e+00 0.0000000000000000e+00
0.0000000000000000e+00 3.1699265000000000e+01 0.0000000000000000e+00
ITEM: ATOMS id type x y z
1 1 3.23575 2.93534 25.4963
2 1 5.64355 2.68766 25.566
3 1 1.75585 0.360378 26.7457
4 1 3.83563 1.65633 27.7209
5 1 2.18384 2.44251 23.3791
6 1 6.9475 3.55878 26.9539
7 1 5.06626 2.78497 22.418
8 1 1.65215 -0.0231785 24.2447
9 1 4.07923 3.34264 19.1636
10 1 3.52602 0.462705 22.8084
11 1 4.64367 0.660529 24.7526
12 1 0.522389 0.35918 22.0684
13 1 6.73813 3.81338 19.7518
14 1 3.08798 1.98207 20.8959
15 1 1.13014 1.30392 19.6145
16 2 2.78059 0.917644 17.3963
17 2 3.64055 2.55417 14.8855
18 2 6.10044 2.87649 17.1968
19 2 0.254778 0.214712 16.9974
20 2 1.2043 1.00074 14.7015
21 2 6.23783 3.99932 14.3971
22 2 1.76784 -0.186013 12.2479
23 2 1.56705 2.8865 12.0613
24 2 4.76469 2.55469 10.0249
25 2 2.39128 1.11551 9.96019
26 2 2.50049 3.80281 9.75837
27 2 4.20638 1.28736 12.3266
28 2 4.69583 3.79587 7.54682
29 2 4.65106 0.977455 7.2395
30 2 3.03035 3.48833 5.51188
31 2 1.85942 2.33461 7.73522
32 2 5.51431 2.15949 4.98013
33 2 6.77338 2.89331 2.98918
34 2 4.37653 2.269 2.79375
35 2 2.71643 0.605631 4.80484
ITEM: TIMESTEP
4900
ITEM: NUMBER OF ATOMS
35
ITEM: BOX BOUNDS xy xz yz pp pp pp
0.0000000000000000e+00 7.6685730000000003e+00 2.5561910000000001e+00
0.0000000000000000e+00 4.4274529999999999e+00 0.0000000000000000e+00
0.0000000000000000e+00 3.1699265000000000e+01 0.0000000000000000e+00
ITEM: ATOMS id type x y z
1 1 3.30516 1.94874 25.2292
2 1 5.70291 2.61654 25.1626
3 1 2.30815 0.123907 26.2975
4 1 3.65325 2.3056 27.5585
5 1 2.43124 2.75921 23.258
6 1 7.41661 4.50938 27.3958
7 1 4.89054 2.30769 22.7712
8 1 1.60567 -0.0711669 24.0882
9 1 4.2732 3.51836 19.0593
10 1 3.42187 0.36429 22.2998
11 1 4.76308 0.0724538 25.0994
12 1 0.896431 -0.0692204 21.5874
13 1 6.6382 4.13057 19.9724
14 1 3.41565 2.2073 20.8226
15 1 0.906351 1.70211 19.6661
16 2 2.69622 1.16405 17.5551
17 2 3.52061 2.45102 15.0377
18 2 5.34758 2.6116 16.8523
19 2 5.06068 -0.101526 16.9912
20 2 1.08692 1.14171 14.4689
21 2 6.1095 3.89186 14.6937
22 2 3.9546 3.74405 12.4831
23 2 6.78894 2.56492 11.9398
24 2 4.80564 2.56568 9.74905
25 2 2.65192 0.725253 10.1048
26 2 2.53248 4.41555 9.67709
27 2 4.04558 1.11023 12.5559
28 2 5.04901 4.1909 7.36079
29 2 4.59074 1.12823 7.55587
30 2 3.01606 3.63532 5.37257
31 2 2.25555 2.31154 7.61727
32 2 5.54038 2.19789 5.31964
33 2 1.98368 3.25523 3.164
34 2 4.25193 2.12259 2.77437
35 2 2.85913 0.81438 4.7427
ITEM: TIMESTEP
5000
ITEM: NUMBER OF ATOMS
35
ITEM: BOX BOUNDS xy xz yz pp pp pp
0.0000000000000000e+00 7.6685730000000003e+00 2.5561910000000001e+00
0.0000000000000000e+00 4.4274529999999999e+00 0.0000000000000000e+00
0.0000000000000000e+00 3.1699265000000000e+01 0.0000000000000000e+00
ITEM: ATOMS id type x y z
1 1 3.31242 1.89885 24.6709
2 1 5.86728 1.62504 25.4442
3 1 2.57735 0.0589664 26.3697
4 1 3.34001 2.5563 27.0946
5 1 2.83151 2.6151 22.2575
6 1 5.43277 1.05401 27.5553
7 1 5.17258 1.63174 22.8423
8 1 4.52318 4.55758 23.9457
9 1 4.19628 4.09491 19.0825
10 1 3.56855 -0.236811 21.9802
11 1 7.15579 4.00987 25.2994
12 1 3.99221 4.89086 21.1833
13 1 6.54666 4.32081 19.3128
14 1 2.68542 2.13297 20.045
15 1 5.51788 1.85118 19.4423
16 2 2.55529 1.44524 17.6763
17 2 3.11932 2.36339 15.0071
18 2 5.08238 2.34812 17.0732
19 2 2.33791 3.95207 17.3179
20 2 0.932499 1.20346 14.4416
21 2 6.05102 4.05278 14.9203
22 2 3.83388 3.61573 12.6709
23 2 1.35541 2.28923 11.9873
24 2 5.0924 2.5506 9.83596
25 2 2.80201 0.97484 10.0647
26 2 2.77713 4.02242 10.2604
27 2 3.96281 0.722711 12.5048
28 2 4.74781 4.1033 7.24322
29 2 4.95073 1.22399 7.30891
30 2 2.99113 3.88869 5.38549
31 2 2.38077 2.74613 7.88892
32 2 5.85685 2.31915 5.14476
33 2 1.73653 3.79889 2.8304
34 2 4.59945 2.10051 3.0126
35 2 3.00884 0.723705 4.75509
ITEM: TIMESTEP
5100
ITEM: NUMBER OF ATOMS
35
ITEM: BOX BOUNDS xy xz yz pp pp pp
0.0000000000000000e+00 7.6685730000000003e+00 2.5561910000000001e+00
0.0000000000000000e+00 4.4274529999999999e+00 0.0000000000000000e+00
0.0000000000000000e+00 3.1699265000000000e+01 0.0000000000000000e+00
ITEM: ATOMS id type x y z
1 1 3.70376 1.91424 24.5454
2 1 6.1505 1.6865 25.1483
3 1 2.63881 -0.124798 26.2938
4 1 2.90143 2.50188 26.6566
5 1 3.39831 2.25716 21.9521
6 1 5.49194 2.06622 27.4234
7 1 5.42866 1.26066 23.091
8 1 2.10571 -0.496139 23.7459
9 1 3.71696 4.27611 19.1722
10 1 6.42341 3.79379 22.4132
11 1 7.18806 3.73939 24.5875
12 1 1.65784 0.599816 21.3391
13 1 6.20816 4.43316 19.7059
14 1 2.43686 2.08557 19.5761
15 1 4.97952 2.0373 20.0377
16 2 2.43154 0.899694 17.2352
17 2 3.12868 2.5473 15.0371
18 2 5.12176 2.43742 17.151
19 2 2.40637 4.14634 17.1045
20 2 0.359172 0.998939 14.9028
21 2 5.64658 4.13172 15.0433
22 2 4.06911 3.44894 12.6654
23 2 1.19498 2.09762 12.6066
24 2 5.44279 2.50618 9.88042
25 2 3.03908 1.0494 9.64028
26 2 2.79939 3.91224 10.3842
27 2 3.71518 0.609225 12.3474
28 2 4.85143 4.13365 7.55648
29 2 5.01604 1.18008 7.56524
30 2 3.16062 4.02912 4.78172
31 2 2.14458 2.99384 7.81236
32 2 6.0349 2.42539 5.29546
33 2 6.84648 3.96088 2.65164
34 2 4.70277 2.39635 2.98533
35 2 3.08161 0.752408 4.97768
ITEM: TIMESTEP
5200
ITEM: NUMBER OF ATOMS
35
ITEM: BOX BOUNDS xy xz yz pp pp pp
0.0000000000000000e+00 7.6685730000000003e+00 2.5561910000000001e+00
0.0000000000000000e+00 4.4274529999999999e+00 0.0000000000000000e+00
0.0000000000000000e+00 3.1699265000000000e+01 0.0000000000000000e+00
ITEM: ATOMS id type x y z
1 1 3.62759 1.47859 24.6555
2 1 1.17265 1.70614 25.0663
3 1 4.951 4.19866 25.8902
4 1 2.9028 3.25471 26.922
5 1 3.59768 2.41897 21.7449
6 1 5.2682 2.1823 27.3147
7 1 5.46294 1.30573 22.8183
8 1 4.55027 3.4899 23.6277
9 1 3.4868 4.11612 19.8617
10 1 6.63797 3.1731 21.7014
11 1 2.46647 4.01821 24.8419
12 1 2.49464 0.112484 21.6738
13 1 3.50054 0.0936531 19.3686
14 1 2.10936 2.26536 19.0347
15 1 5.26684 1.85669 20.3512
16 2 2.50078 0.871828 16.9919
17 2 2.8047 2.49919 15.0536
18 2 4.92646 2.63018 17.8397
19 2 2.43392 3.91581 17.2712
20 2 5.14414 1.03715 14.9566
21 2 5.09014 3.86692 14.6208
22 2 3.88455 3.36866 12.5057
23 2 1.64041 1.75912 12.7189
24 2 5.62935 2.70153 10.4059
25 2 2.74108 1.15354 9.87946
26 2 3.12399 4.08255 10.1078
27 2 3.9422 0.611195 12.1653
28 2 4.60556 4.23429 7.36626
29 2 4.83393 1.2261 7.73329
30 2 3.62677 4.31624 4.67207
31 2 2.38848 2.72321 7.27848
32 2 5.74946 2.47955 5.42767
33 2 6.75568 4.07527 2.72949
34 2 4.55637 2.4674 3.03356
35 2 3.66957 0.913622 5.15277
ITEM: TIMESTEP
5300
ITEM: NUMBER OF ATOMS
35
ITEM: BOX BOUNDS xy xz yz pp pp pp
0.0000000000000000e+00 7.6685730000000003e+00 2.5561910000000001e+00
0.0000000000000000e+00 4.4274529999999999e+00 0.0000000000000000e+00
0.0000000000000000e+00 3.1699265000000000e+01 0.0000000000000000e+00
ITEM: ATOMS id type x y z
1 1 3.35756 1.44782 24.6066
2 1 6.09596 2.13382 24.8561
3 1 5.19316 4.3119 26.1778
4 1 2.89086 3.58484 27.2733
5 1 4.27572 2.3989 22.1048
6 1 4.818 1.46139 26.6487
7 1 0.261943 0.243004 22.7383
8 1 5.10446 3.95794 23.7511
9 1 4.08775 3.73643 20.036
10 1 6.54756 3.3448 21.6693
11 1 2.58236 3.83367 24.6695
12 1 2.32452 0.841443 21.8094
13 1 6.19771 4.27133 19.4974
14 1 2.28631 2.24246 19.4506
15 1 5.39085 1.40876 20.2566
16 2 2.30749 0.796895 17.1854
17 2 2.42874 2.57939 14.7768
18 2 4.57242 2.32872 17.7697
19 2 2.4895 4.09422 17.2679
20 2 4.86558 1.083 14.8909
21 2 5.23013 3.8292 14.9347
22 2 3.86751 3.05922 12.2243
23 2 1.416 1.66552 12.4909
24 2 5.61858 3.02749 10.1855
25 2 2.79158 1.41697 10.1186
26 2 3.04596 4.06898 9.57289
27 2 4.42741 0.236687 12.3778
28 2 4.80244 4.31536 7.37164
29 2 4.77627 1.4162 8.03612
30 2 1.16952 0.0479495 4.76223
31 2 2.5643 2.63902 7.13714
32 2 5.93373 2.77255 5.17944
33 2 6.51208 4.08259 3.18305
34 2 4.43475 2.25854 2.80818
35 2 3.75877 1.0963 5.40106
ITEM: TIMESTEP
5400
ITEM: NUMBER OF ATOMS
35
ITEM: BOX BOUNDS xy xz yz pp pp pp
0.0000000000000000e+00 7.6685730000000003e+00 2.5561910000000001e+00
0.0000000000000000e+00 4.4274529999999999e+00 0.0000000000000000e+00
0.0000000000000000e+00 3.1699265000000000e+01 0.0000000000000000e+00
ITEM: ATOMS id type x y z
1 1 3.7043 2.26206 24.7308
2 1 6.25896 1.58477 24.4371
3 1 4.90334 3.91662 26.5545
4 1 2.89973 3.05016 27.3217
5 1 4.26183 2.57246 22.3942
6 1 4.26832 1.32426 26.5606
7 1 0.591387 0.357406 22.539
8 1 5.50912 4.18323 24.1676
9 1 4.19225 3.39161 19.9367
10 1 6.21991 3.26089 21.6015
11 1 2.58528 4.18368 24.864
12 1 2.6523 1.34052 21.7611
13 1 6.25201 4.09392 19.4073
14 1 2.6909 1.83192 19.5918
15 1 5.38978 1.1291 20.1853
16 2 1.99596 0.97316 17.4348
17 2 2.58807 2.51332 14.7944
18 2 4.70817 2.31482 17.1249
19 2 2.24384 3.75963 17.1403
20 2 4.99627 1.08602 14.9305
21 2 4.80305 4.09162 15.0747
22 2 4.35158 2.83059 12.318
23 2 1.39601 1.23674 12.3478
24 2 5.78918 3.14521 9.75816
25 2 3.0219 1.33931 10.1102
26 2 3.10227 4.17717 9.83678
27 2 3.64778 -0.221959 12.5632
28 2 5.22614 4.55258 7.5618
29 2 5.02666 1.65579 7.73438
30 2 1.00311 -0.0825426 4.6351
31 2 2.259 3.20851 7.46983
32 2 6.11486 2.61466 5.21722
33 2 6.52784 4.06921 2.85042
34 2 4.17586 2.29994 3.10205
35 2 3.69643 1.50943 5.49154
ITEM: TIMESTEP
5500
ITEM: NUMBER OF ATOMS
35
ITEM: BOX BOUNDS xy xz yz pp pp pp
0.0000000000000000e+00 7.6685730000000003e+00 2.5561910000000001e+00
0.0000000000000000e+00 4.4274529999999999e+00 0.0000000000000000e+00
0.0000000000000000e+00 3.1699265000000000e+01 0.0000000000000000e+00
ITEM: ATOMS id type x y z
1 1 3.92844 2.07601 24.8457
2 1 1.69848 2.56777 24.2013
3 1 4.76394 3.67181 26.5381
4 1 1.90469 2.29945 26.9649
5 1 4.42984 2.76544 22.2456
6 1 4.87334 0.812696 27.6627
7 1 0.307656 0.821768 22.7193
8 1 4.73104 4.17538 24.2219
9 1 3.86669 3.98356 19.815
10 1 7.17623 3.07076 21.4502
11 1 5.23434 0.217157 25.1928
12 1 2.99393 0.768552 22.1816
13 1 6.42353 3.90885 19.1582
14 1 2.78011 1.67962 19.7602
15 1 5.21389 1.6774 19.6523
16 2 1.83056 0.790267 17.3919
17 2 2.39031 2.30832 14.6159
18 2 4.71894 2.46537 17.3312
19 2 2.12793 3.61932 16.8237
20 2 5.03087 1.131 14.6667
21 2 4.8657 4.02442 14.8906
22 2 3.60082 2.28392 12.3535
23 2 1.45138 0.903619 12.5615
24 2 5.93486 2.72653 10.3669
25 2 3.39812 1.43237 9.81514
26 2 0.711344 0.219071 10.2576
27 2 6.6198 4.09487 12.7567
28 2 2.25813 0.545722 7.48008
29 2 5.26666 1.78991 7.41042
30 2 3.45086 4.47063 4.84203
31 2 2.61299 3.49908 7.7565
32 2 6.33815 2.85984 4.99938
33 2 6.4186 3.99429 2.778
34 2 4.00812 2.43097 2.96827
35 2 3.46321 1.3288 5.2344
ITEM: TIMESTEP
5600
ITEM: NUMBER OF ATOMS
35
ITEM: BOX BOUNDS xy xz yz pp pp pp
0.0000000000000000e+00 7.6685730000000003e+00 2.5561910000000001e+00
0.0000000000000000e+00 4.4274529999999999e+00 0.0000000000000000e+00
0.0000000000000000e+00 3.1699265000000000e+01 0.0000000000000000e+00
ITEM: ATOMS id type x y z
1 1 3.65681 1.86771 24.7038
2 1 6.81545 3.49452 23.8124
3 1 4.91806 3.77135 26.836
4 1 1.32435 1.98914 25.5865
5 1 4.31588 3.41186 22.0674
6 1 0.349251 0.192488 28.1317
7 1 5.62343 1.11562 23.2018
8 1 4.92878 4.4307 24.4582
9 1 3.73348 4.21363 19.8912
10 1 1.78209 2.55788 21.8185
11 1 -0.0288841 -0.258245 25.5988
12 1 3.68799 0.531999 21.9631
13 1 6.60525 3.9197 19.3037
14 1 2.73543 1.85222 19.4406
15 1 5.32389 2.08271 20.2674
16 2 1.95088 0.754534 17.3052
17 2 2.44851 2.25997 14.9006
18 2 4.25114 2.27052 17.3737
19 2 7.17801 3.99613 16.9655
20 2 4.78734 1.11613 15.0086
21 2 5.02179 3.73092 14.8636
22 2 3.97345 2.22818 12.01
23 2 1.45527 0.544983 12.6927
24 2 5.91794 3.05917 10.3162
25 2 3.72461 1.40425 9.59685
26 2 3.37249 4.26067 10.0066
27 2 6.64155 3.81634 12.6946
28 2 2.46221 0.418827 7.61307
29 2 4.86296 2.39994 7.39079
30 2 1.06262 0.128748 4.87143
31 2 2.34782 3.333 7.60548
32 2 6.13817 2.88974 5.1958
33 2 6.21141 4.2719 2.73886
34 2 3.9843 2.53696 2.82616
35 2 3.62149 1.25963 5.15932
ITEM: TIMESTEP
5700
ITEM: NUMBER OF ATOMS
35
ITEM: BOX BOUNDS xy xz yz pp pp pp
0.0000000000000000e+00 7.6685730000000003e+00 2.5561910000000001e+00
0.0000000000000000e+00 4.4274529999999999e+00 0.0000000000000000e+00
0.0000000000000000e+00 3.1699265000000000e+01 0.0000000000000000e+00
ITEM: ATOMS id type x y z
1 1 3.60927 2.21386 24.5344
2 1 6.97885 3.82399 23.6579
3 1 5.15194 3.72784 26.8042
4 1 0.799808 1.91787 25.6598
5 1 4.18761 3.58635 22.4539
6 1 0.83738 -0.259011 28.1969
7 1 5.7312 1.64582 23.1009
8 1 4.83093 4.44509 24.5191
9 1 3.7684 4.36279 19.7664
10 1 2.23594 2.05358 21.8049
11 1 -0.170147 -0.604236 26.2176
12 1 3.9078 0.64465 21.8537
13 1 6.08488 4.02776 19.7979
14 1 2.72589 2.12793 19.3791
15 1 5.28471 1.93746 19.8724
16 2 1.81999 0.984923 17.2472
17 2 2.53693 2.28162 14.8123
18 2 4.40554 2.41066 17.6324
19 2 6.92187 3.83236 17.4878
20 2 4.99613 0.604616 14.8268
21 2 4.75934 3.80336 15.1242
22 2 4.58176 2.11248 12.443
23 2 1.62571 0.616269 12.21
24 2 6.1739 2.93038 9.6544
25 2 3.50534 1.20915 9.99203
26 2 3.5844 4.27733 9.78341
27 2 6.61393 3.7547 12.6225
28 2 2.03723 0.846229 7.33108
29 2 4.76382 1.81424 7.60831
30 2 1.13819 -0.100286 4.95044
31 2 2.00848 3.70443 7.25386
32 2 6.23882 2.68602 4.78866
33 2 6.12119 4.49077 2.95841
34 2 3.87964 2.77353 2.99289
35 2 3.6339 1.47974 5.22644
ITEM: TIMESTEP
5800
ITEM: NUMBER OF ATOMS
35
ITEM: BOX BOUNDS xy xz yz pp pp pp
0.0000000000000000e+00 7.6685730000000003e+00 2.5561910000000001e+00
0.0000000000000000e+00 4.4274529999999999e+00 0.0000000000000000e+00
0.0000000000000000e+00 3.1699265000000000e+01 0.0000000000000000e+00
ITEM: ATOMS id type x y z
1 1 3.6811 2.19276 24.8235
2 1 6.92785 3.60658 24.1978
3 1 5.37463 4.02922 26.5983
4 1 5.60713 1.45075 26.1708
5 1 4.43473 4.03488 21.7771
6 1 3.59357 4.14343 28.3934
7 1 5.54173 2.06284 23.6001
8 1 1.6932 0.111382 24.4159
9 1 3.65624 3.89592 19.5559
10 1 2.42427 2.60022 21.8398
11 1 2.76365 3.51679 26.6446
12 1 4.18576 0.411576 22.2837
13 1 6.03127 4.42217 20.1119
14 1 2.52943 1.76433 19.5974
15 1 5.04923 1.96976 20.279
16 2 1.54589 0.971847 17.3057
17 2 2.3103 2.04461 14.5961
18 2 4.50064 2.57471 17.3357
19 2 7.00274 3.95018 17.3851
20 2 5.06779 0.662895 15.0138
21 2 5.04907 3.51526 15.0514
22 2 4.55745 2.30506 12.8412
23 2 1.92666 0.843642 12.3052
24 2 6.32929 2.48584 9.71311
25 2 3.57291 1.14235 10.1506
26 2 3.37601 4.05616 9.60499
27 2 7.22684 3.63607 11.9996
28 2 2.02504 0.772382 7.50086
29 2 4.33623 2.43138 7.69018
30 2 3.55082 4.17798 5.11488
31 2 6.95461 3.70277 7.10984
32 2 6.25342 2.31072 4.3694
33 2 3.59956 0.39595 2.99219
34 2 3.65443 3.05011 2.57666
35 2 3.6677 1.43576 5.35189
ITEM: TIMESTEP
5900
ITEM: NUMBER OF ATOMS
35
ITEM: BOX BOUNDS xy xz yz pp pp pp
0.0000000000000000e+00 7.6685730000000003e+00 2.5561910000000001e+00
0.0000000000000000e+00 4.4274529999999999e+00 0.0000000000000000e+00
0.0000000000000000e+00 3.1699265000000000e+01 0.0000000000000000e+00
ITEM: ATOMS id type x y z
1 1 3.55391 1.62797 24.7305
2 1 7.11919 3.91374 24.8675
3 1 2.4467 0.0412616 26.3721
4 1 5.63252 1.48291 26.7728
5 1 1.7694 0.480452 21.7529
6 1 1.62411 0.343443 28.5979
7 1 5.82931 2.26727 23.6517
8 1 4.20057 3.99046 24.054
9 1 3.79154 4.00696 19.4867
10 1 2.67798 2.79549 22.4235
11 1 2.56047 2.50135 27.3501
12 1 3.91557 0.624669 22.6202
13 1 6.31791 4.09928 19.7314
14 1 2.08018 1.6209 19.4282
15 1 5.06129 1.99689 20.8196
16 2 1.872 0.932688 17.0727
17 2 2.53131 2.12859 15.0314
18 2 3.96558 2.34714 17.3854
19 2 6.71378 4.04916 17.3682
20 2 5.09486 0.573656 14.8737
21 2 5.45596 3.695 14.7653
22 2 4.69599 2.30985 12.3173
23 2 2.00128 0.712828 12.6392
24 2 6.11659 2.25602 10.0453
25 2 3.86461 0.99823 9.83887
26 2 3.61206 3.82685 9.77559
27 2 2.27397 3.69757 12.2251
28 2 2.00476 1.1365 7.74778
29 2 4.0716 2.77994 7.41245
30 2 3.77949 3.86433 4.89871
31 2 6.48034 3.55464 7.07629
32 2 6.11801 2.12119 3.9967
33 2 3.63744 0.662167 2.87377
34 2 3.37733 3.49355 2.49148
35 2 3.65811 1.17289 5.34072
ITEM: TIMESTEP
6000
ITEM: NUMBER OF ATOMS
35
ITEM: BOX BOUNDS xy xz yz pp pp pp
0.0000000000000000e+00 7.6685730000000003e+00 2.5561910000000001e+00
0.0000000000000000e+00 4.4274529999999999e+00 0.0000000000000000e+00
0.0000000000000000e+00 3.1699265000000000e+01 0.0000000000000000e+00
ITEM: ATOMS id type x y z
1 1 3.30315 1.77631 24.6917
2 1 7.31631 3.82787 25.6659
3 1 1.95694 -0.544661 26.2602
4 1 4.79382 1.6954 26.3719
5 1 1.39641 1.02497 21.8469
6 1 1.90882 0.624532 28.8473
7 1 6.03172 1.84764 24.0086
8 1 4.56757 4.29711 23.9587
9 1 3.51536 4.11201 19.6201
10 1 3.30094 3.03356 22.2285
11 1 2.83137 2.58351 27.3554
12 1 3.95881 -0.135565 22.7373
13 1 6.35156 4.57571 20.5096
14 1 2.00195 2.0282 19.4564
15 1 4.90762 2.42727 20.8609
16 2 1.3486 0.607452 17.0356
17 2 3.19901 2.39006 14.9743
18 2 4.33046 2.27408 17.6411
19 2 6.48693 3.7395 17.2745
20 2 5.43568 0.926005 14.6456
21 2 5.25988 3.61621 14.7831
22 2 4.77271 1.93334 12.1963
23 2 2.38257 0.871643 12.4153
24 2 6.56779 2.47719 10.0576
25 2 3.54368 0.57413 9.64437
26 2 3.92208 3.62583 9.98943
27 2 1.83444 3.66952 12.7737
28 2 1.20641 1.07027 7.65699
29 2 4.18926 2.36138 7.37417
30 2 3.88232 3.88418 4.91756
31 2 6.71938 3.90101 7.1686
32 2 6.07983 2.43025 3.79491
33 2 3.58273 0.79946 2.62479
34 2 3.24187 3.70901 2.50659
35 2 3.49332 0.967355 5.08316
ITEM: TIMESTEP
6100
ITEM: NUMBER OF ATOMS
35
ITEM: BOX BOUNDS xy xz yz pp pp pp
0.0000000000000000e+00 7.6685730000000003e+00 2.5561910000000001e+00
0.0000000000000000e+00 4.4274529999999999e+00 0.0000000000000000e+00
0.0000000000000000e+00 3.1699265000000000e+01 0.0000000000000000e+00
ITEM: ATOMS id type x y z
1 1 2.94429 1.84584 24.4952
2 1 6.69025 3.82157 25.2291
3 1 4.75369 4.53497 26.2689
4 1 5.31339 1.44877 26.8882
5 1 1.55156 1.13515 22.0371
6 1 1.8786 0.600764 28.4047
7 1 5.5731 1.92559 24.3459
8 1 4.23677 3.97678 24.0882
9 1 3.47329 4.43138 19.7717
10 1 3.52189 2.34855 22.0904
11 1 2.74553 2.51085 27.2057
12 1 6.88184 4.28273 23.0535
13 1 3.55759 0.632129 20.0476
14 1 2.20767 2.56223 19.2961
15 1 4.99153 2.82605 20.4615
16 2 1.34706 0.323715 17.1252
17 2 2.78119 2.16252 15.269
18 2 4.24679 1.96255 17.9584
19 2 6.60894 3.65759 17.2364
20 2 5.58723 1.22192 14.6483
21 2 5.71593 4.09215 14.9635
22 2 4.69992 2.01216 12.0968
23 2 2.13328 0.68897 12.1115
24 2 1.47624 2.10449 9.7468
25 2 3.98803 0.695616 9.7273
26 2 3.76373 3.72008 10.2519
27 2 7.39357 3.3997 12.5353
28 2 1.50077 0.684046 7.26541
29 2 3.90138 2.45814 7.78452
30 2 3.66577 3.98348 5.15171
31 2 6.55524 3.47674 7.22022
32 2 6.09988 2.66486 3.90634
33 2 3.29425 1.00521 2.3271
34 2 3.2127 3.80355 2.55239
35 2 3.63962 1.26016 4.93807
ITEM: TIMESTEP
6200
ITEM: NUMBER OF ATOMS
35
ITEM: BOX BOUNDS xy xz yz pp pp pp
0.0000000000000000e+00 7.6685730000000003e+00 2.5561910000000001e+00
0.0000000000000000e+00 4.4274529999999999e+00 0.0000000000000000e+00
0.0000000000000000e+00 3.1699265000000000e+01 0.0000000000000000e+00
ITEM: ATOMS id type x y z
1 1 2.69324 1.62971 24.1862
2 1 6.82545 4.23112 25.1903
3 1 1.95308 0.0469612 26.3372
4 1 5.19563 1.76145 26.9442
5 1 1.33193 1.29157 22.1773
6 1 1.88966 0.508354 28.5611
7 1 5.13405 1.71253 24.4804
8 1 3.83603 3.65892 23.6568
9 1 0.827634 0.644763 19.7491
10 1 3.83203 2.16862 21.9952
11 1 3.092 2.51222 26.7651
12 1 6.62029 4.01222 22.2165
13 1 3.54206 0.388137 20.1127
14 1 2.54563 2.76384 19.9606
15 1 4.98259 2.66225 19.8748
16 2 1.81302 0.286205 17.4762
17 2 3.2543 2.69403 15.3947
18 2 4.16253 1.84132 17.6496
19 2 6.68403 3.49931 17.3804
20 2 5.38905 1.17992 14.9784
21 2 5.61215 4.07272 14.4258
22 2 4.8258 2.01846 12.4318
23 2 2.18543 0.579573 12.4611
24 2 1.16972 2.08411 9.60564
25 2 3.98609 0.47142 9.95293
26 2 3.90602 3.59092 9.87827
27 2 2.27899 3.46872 12.4558
28 2 1.97688 0.785343 7.42886
29 2 3.83757 2.37015 7.70795
30 2 3.65957 4.09266 5.03538
31 2 6.08383 3.25445 6.61139
32 2 6.01356 2.56246 3.97855
33 2 2.92121 1.15719 2.73527
34 2 3.11482 4.05716 2.69035
35 2 3.94324 1.32409 5.0562
ITEM: TIMESTEP
6300
ITEM: NUMBER OF ATOMS
35
ITEM: BOX BOUNDS xy xz yz pp pp pp
0.0000000000000000e+00 7.6685730000000003e+00 2.5561910000000001e+00
0.0000000000000000e+00 4.4274529999999999e+00 0.0000000000000000e+00
0.0000000000000000e+00 3.1699265000000000e+01 0.0000000000000000e+00
ITEM: ATOMS id type x y z
1 1 2.7191 1.50425 24.284
2 1 6.7714 4.12722 25.0959
3 1 4.20717 4.08807 25.7948
4 1 5.60951 1.87756 26.7545
5 1 1.44791 0.971722 22.0248
6 1 2.08431 0.578849 27.9712
7 1 5.35083 2.33843 24.226
8 1 3.44949 3.97933 23.617
9 1 0.79539 0.705003 19.8973
10 1 4.11501 1.78472 22.1383
11 1 2.53593 2.22029 26.3566
12 1 5.87215 3.87577 22.3995
13 1 3.53103 0.758914 19.6934
14 1 2.09384 2.85726 20.0949
15 1 4.91684 3.07721 19.5543
16 2 1.91179 0.476388 17.4939
17 2 3.17629 2.87569 14.7114
18 2 4.34125 1.66979 17.3558
19 2 7.06498 3.03858 17.5742
20 2 5.89397 1.10228 15.3845
21 2 5.79953 3.97299 15.022
22 2 4.67971 1.97085 12.7241
23 2 2.08978 0.946214 12.2575
24 2 6.55992 2.22441 9.82392
25 2 3.62312 0.608601 9.89136
26 2 3.90838 3.38366 10.1136
27 2 2.19545 3.63563 12.4605
28 2 1.28559 0.513891 7.68258
29 2 4.10393 2.09241 7.59393
30 2 3.79449 4.20014 5.13438
31 2 6.55522 3.18584 6.31384
32 2 5.81083 2.76258 3.60713
33 2 2.86054 1.2249 3.09503
34 2 2.835 4.22036 2.64385
35 2 3.91717 1.17107 5.26053
ITEM: TIMESTEP
6400
ITEM: NUMBER OF ATOMS
35
ITEM: BOX BOUNDS xy xz yz pp pp pp
0.0000000000000000e+00 7.6685730000000003e+00 2.5561910000000001e+00
0.0000000000000000e+00 4.4274529999999999e+00 0.0000000000000000e+00
0.0000000000000000e+00 3.1699265000000000e+01 0.0000000000000000e+00
ITEM: ATOMS id type x y z
1 1 2.9191 1.40379 24.0545
2 1 6.58222 4.40631 25.5464
3 1 4.31868 4.09223 24.973
4 1 4.95469 1.822 26.6247
5 1 1.40656 1.23329 22.0583
6 1 2.47485 0.161859 27.2475
7 1 5.67999 1.94365 24.3796
8 1 2.84984 3.5881 22.9216
9 1 0.37334 0.604596 19.4901
10 1 4.35196 1.82318 21.5886
11 1 2.62841 2.44907 26.3637
12 1 5.48771 3.73824 22.5836
13 1 2.9708 1.26807 19.5089
14 1 2.01992 3.20204 20.9155
15 1 4.96983 3.20977 19.8652
16 2 2.07262 -0.0279721 17.4718
17 2 3.15689 2.54808 14.8538
18 2 4.62667 1.73308 17.0251
19 2 2.22737 3.24216 17.6436
20 2 0.994924 1.10394 14.7313
21 2 6.09608 4.26861 15.3852
22 2 4.76855 2.25293 12.676
23 2 2.10589 0.764547 12.4496
24 2 1.32943 2.14077 9.77323
25 2 3.96203 0.549359 10.017
26 2 3.75857 3.50565 10.6389
27 2 6.92692 3.99955 12.4055
28 2 0.776256 0.131202 7.96733
29 2 4.086 2.25065 7.84818
30 2 3.96322 4.20157 5.08969
31 2 6.95682 2.62693 6.55323
32 2 5.38967 2.94999 3.31533
33 2 2.79803 1.48018 2.75367
34 2 2.62207 4.40343 2.77226
35 2 4.09517 1.08082 5.39901
ITEM: TIMESTEP
6500
ITEM: NUMBER OF ATOMS
35
ITEM: BOX BOUNDS xy xz yz pp pp pp
0.0000000000000000e+00 7.6685730000000003e+00 2.5561910000000001e+00
0.0000000000000000e+00 4.4274529999999999e+00 0.0000000000000000e+00
0.0000000000000000e+00 3.1699265000000000e+01 0.0000000000000000e+00
ITEM: ATOMS id type x y z
1 1 3.57296 1.71757 23.8283
2 1 6.81514 4.28193 24.9309
3 1 4.15067 3.61806 25.0801
4 1 5.13146 1.85234 26.8434
5 1 1.26261 1.39741 21.7793
6 1 2.24987 -0.0544769 26.9913
7 1 5.90364 1.74931 24.4541
8 1 2.16323 3.60959 22.8792
9 1 5.37874 1.35193 19.3659
10 1 3.59536 1.3165 21.6571
11 1 2.59206 2.10413 26.4283
12 1 5.32284 3.43675 22.2853
13 1 2.68336 1.47965 19.4606
14 1 2.50613 3.72758 20.5355
15 1 4.77671 3.5259 19.6991
16 2 4.67204 4.555 17.1887
17 2 3.50022 2.72278 15.2354
18 2 5.11489 1.70268 17.136
19 2 2.09385 3.18779 17.8124
20 2 0.790822 0.973334 14.8259
21 2 5.99386 4.16073 14.9004
22 2 4.69039 2.41087 12.7165
23 2 2.2063 1.14653 12.4028
24 2 1.24221 2.2478 9.72091
25 2 3.8541 0.439251 10.2838
26 2 3.94506 3.56784 10.3918
27 2 7.30052 3.63607 12.7388
28 2 0.573931 0.204337 8.04628
29 2 4.1056 2.10428 7.89689
30 2 4.23444 4.11549 5.39655
31 2 1.39294 2.20809 6.15959
32 2 5.35047 2.79992 3.35391
33 2 2.6607 1.88143 3.04112
34 2 -0.00673225 0.18559 2.90987
35 2 4.23479 0.89667 5.28039
ITEM: TIMESTEP
6600
ITEM: NUMBER OF ATOMS
35
ITEM: BOX BOUNDS xy xz yz pp pp pp
0.0000000000000000e+00 7.6685730000000003e+00 2.5561910000000001e+00
0.0000000000000000e+00 4.4274529999999999e+00 0.0000000000000000e+00
0.0000000000000000e+00 3.1699265000000000e+01 0.0000000000000000e+00
ITEM: ATOMS id type x y z
1 1 3.64598 1.43699 23.816
2 1 6.67737 3.92671 25.6293
3 1 4.6179 4.05256 24.9546
4 1 5.39116 1.27633 26.3701
5 1 1.08238 1.33082 22.2582
6 1 2.03159 -0.144498 27.3915
7 1 1.24798 1.71742 24.3193
8 1 2.17816 3.85776 23.1111
9 1 5.69497 1.63684 19.7961
10 1 3.42929 0.632941 21.5021
11 1 2.91125 2.07951 26.0534
12 1 4.13146 3.23734 21.7022
13 1 3.32416 1.61422 19.1779
14 1 1.9405 3.30323 20.3767
15 1 4.59265 3.85811 19.3237
16 2 2.37994 0.574263 17.1767
17 2 3.15561 2.61904 15.4085
18 2 4.86772 1.72042 17.3444
19 2 2.12512 3.58765 17.6336
20 2 1.0207 1.1554 14.7926
21 2 5.84608 3.96385 14.7504
22 2 4.93951 2.15464 12.7544
23 2 2.14958 1.02039 12.3575
24 2 1.52826 2.23363 9.69519
25 2 3.88794 0.771997 10.3399
26 2 3.92596 3.45948 10.1903
27 2 2.67541 4.03282 12.5578
28 2 0.493276 0.121795 7.76706
29 2 3.52861 1.8653 7.79011
30 2 4.02828 3.70281 5.61413
31 2 1.37949 2.41246 5.82925
32 2 5.31828 3.17146 3.30051
33 2 2.67791 1.87316 3.8096
34 2 5.38457 0.18321 3.02649
35 2 4.11551 0.551042 5.45265
ITEM: TIMESTEP
6700
ITEM: NUMBER OF ATOMS
35
ITEM: BOX BOUNDS xy xz yz pp pp pp
0.0000000000000000e+00 7.6685730000000003e+00 2.5561910000000001e+00
0.0000000000000000e+00 4.4274529999999999e+00 0.0000000000000000e+00
0.0000000000000000e+00 3.1699265000000000e+01 0.0000000000000000e+00
ITEM: ATOMS id type x y z
1 1 3.74647 1.6986 23.8223
2 1 6.86824 3.7467 26.5575
3 1 4.3868 4.13044 24.0903
4 1 5.74761 1.37026 26.9953
5 1 0.761473 1.43611 21.9593
6 1 4.49585 3.7548 26.721
7 1 5.84601 1.97708 24.5261
8 1 7.53496 3.66002 23.5009
9 1 0.4498 0.995674 19.4664
10 1 2.86816 0.42354 21.8661
11 1 3.54026 1.76883 26.2328
12 1 3.9652 2.68307 21.8441
13 1 3.23576 1.59416 19.5915
14 1 6.91892 3.58268 20.2811
15 1 4.83812 3.50229 19.2167
16 2 2.27595 0.741223 17.147
17 2 3.31055 2.66928 14.9688
18 2 5.01766 2.39983 17.2023
19 2 2.23501 3.71296 17.5859
20 2 0.605555 1.03412 15.0475
21 2 5.95328 4.07964 14.7306
22 2 5.04256 2.56919 12.3948
23 2 2.70839 1.057 12.404
24 2 1.37209 2.32099 9.71039
25 2 4.40749 0.691518 10.147
26 2 4.1371 3.61411 10.1832
27 2 2.24879 3.70232 12.4719
28 2 0.428514 0.334066 8.04293
29 2 2.89747 1.33361 7.68789
30 2 4.03059 3.4351 5.57443
31 2 6.12704 2.10078 6.28419
32 2 5.46699 3.47687 3.09353
33 2 2.71466 1.81436 3.68767
34 2 0.51722 0.371854 3.45785
35 2 4.09737 0.390086 5.45696
ITEM: TIMESTEP
6800
ITEM: NUMBER OF ATOMS
35
ITEM: BOX BOUNDS xy xz yz pp pp pp
0.0000000000000000e+00 7.6685730000000003e+00 2.5561910000000001e+00
0.0000000000000000e+00 4.4274529999999999e+00 0.0000000000000000e+00
0.0000000000000000e+00 3.1699265000000000e+01 0.0000000000000000e+00
ITEM: ATOMS id type x y z
1 1 2.96777 2.14213 24.1068
2 1 7.46224 3.53713 26.5777
3 1 4.85597 3.79029 23.8246
4 1 6.33233 1.63573 27.4078
5 1 5.67481 1.44104 21.9464
6 1 4.52137 3.35755 26.3942
7 1 5.93495 1.75274 25.1455
8 1 1.99594 4.16659 23.405
9 1 5.61857 1.28523 19.1292
10 1 2.7634 0.207698 21.6025
11 1 3.26309 0.784348 26.4361
12 1 3.77977 2.68862 21.9829
13 1 2.94803 1.41807 19.7869
14 1 7.11671 3.73895 20.4366
15 1 4.68462 3.40933 19.8241
16 2 2.36362 1.05903 17.2664
17 2 3.46376 2.75426 14.5888
18 2 4.88881 2.57662 16.9501
19 2 2.46096 3.76932 17.547
20 2 5.57468 0.967286 14.6235
21 2 5.65343 4.2725 15.1044
22 2 5.10996 2.61913 12.3798
23 2 2.63603 0.928859 12.5975
24 2 1.68974 2.50454 9.73936
25 2 4.09607 0.855054 10.3914
26 2 4.31676 3.85904 9.99269
27 2 2.59562 3.72423 12.2967
28 2 0.234554 -0.56902 7.75361
29 2 3.13854 0.789589 8.02639
30 2 3.78034 3.52831 5.50996
31 2 6.08343 1.97701 6.3182
32 2 5.73319 3.41622 3.23368
33 2 2.91097 2.14989 3.53812
34 2 0.503233 0.845441 3.46918
35 2 3.61219 0.161817 5.48325
ITEM: TIMESTEP
6900
ITEM: NUMBER OF ATOMS
35
ITEM: BOX BOUNDS xy xz yz pp pp pp
0.0000000000000000e+00 7.6685730000000003e+00 2.5561910000000001e+00
0.0000000000000000e+00 4.4274529999999999e+00 0.0000000000000000e+00
0.0000000000000000e+00 3.1699265000000000e+01 0.0000000000000000e+00
ITEM: ATOMS id type x y z
1 1 2.96104 2.07471 24.4144
2 1 2.22045 3.6347 26.2826
3 1 5.09291 3.50725 24.2162
4 1 1.59518 1.21976 27.7231
5 1 5.84533 1.79524 22.082
6 1 4.65161 2.47003 27.0591
7 1 0.85141 1.17827 25.313
8 1 4.35225 0.460253 23.5779
9 1 5.90964 1.79935 19.6626
10 1 5.34032 4.23989 21.6987
11 1 3.20807 0.77169 26.1909
12 1 3.39318 2.34202 22.0485
13 1 3.23904 1.66367 19.6339
14 1 6.83334 3.94253 19.9516
15 1 4.57801 4.19246 18.9521
16 2 2.248 1.3243 17.2866
17 2 2.88681 2.67733 14.7668
18 2 4.75862 2.14077 17.0966
19 2 2.3461 4.13232 17.4149
20 2 5.68442 1.24387 14.8654
21 2 5.95273 4.15087 15.1447
22 2 5.6148 2.52567 12.3544
23 2 2.53601 0.742575 12.6318
24 2 1.58409 2.22196 9.98898
25 2 4.14868 1.37495 10.4097
26 2 4.27005 3.96517 9.90444
27 2 2.72387 3.98875 12.1119
28 2 2.93569 3.06706 7.81993
29 2 3.23297 0.448717 7.89619
30 2 3.50466 3.51264 5.32384
31 2 1.04346 1.7575 6.29437
32 2 5.67846 3.72971 3.2159
33 2 3.10622 2.17129 3.04207
34 2 5.57528 0.945665 3.59224
35 2 3.43875 0.517815 5.36823
ITEM: TIMESTEP
7000
ITEM: NUMBER OF ATOMS
35
ITEM: BOX BOUNDS xy xz yz pp pp pp
0.0000000000000000e+00 7.6685730000000003e+00 2.5561910000000001e+00
0.0000000000000000e+00 4.4274529999999999e+00 0.0000000000000000e+00
0.0000000000000000e+00 3.1699265000000000e+01 0.0000000000000000e+00
ITEM: ATOMS id type x y z
1 1 2.72989 2.54191 24.1541
2 1 2.53349 3.26255 26.688
3 1 5.03692 2.99525 24.8383
4 1 1.62548 0.632383 27.8506
5 1 1.06833 1.4613 22.969
6 1 4.63317 2.47773 27.1667
7 1 0.905018 0.962023 25.4582
8 1 4.3313 -0.00892976 22.9976
9 1 6.05963 1.84868 19.9947
10 1 4.84931 4.12881 21.7218
11 1 3.51114 0.674007 25.9028
12 1 2.71383 2.97832 21.6233
13 1 3.3882 1.93536 19.4495
14 1 7.544 4.32636 19.961
15 1 4.74005 4.33487 19.5553
16 2 2.10966 1.39546 17.0411
17 2 3.2139 2.55484 14.7309
18 2 4.69122 2.83076 17.4962
19 2 7.21662 4.05187 17.4787
20 2 5.44939 1.07942 14.9279
21 2 5.61963 4.02734 15.1535
22 2 5.37502 2.49927 12.8128
23 2 3.09866 1.04974 12.5655
24 2 1.44107 2.46401 9.91636
25 2 4.05759 1.17507 10.0096
26 2 4.32946 4.13597 10.2015
27 2 2.79098 3.9331 12.2582
28 2 3.46943 2.82225 7.86021
29 2 5.87801 4.18218 7.73321
30 2 3.65102 3.43801 5.18473
31 2 5.6808 1.83119 6.36091
32 2 5.68757 3.70657 3.07015
33 2 3.00341 2.11543 2.46011
34 2 5.70307 1.09463 3.50308
35 2 3.33465 0.939573 5.22903
ITEM: TIMESTEP
7100
ITEM: NUMBER OF ATOMS
35
ITEM: BOX BOUNDS xy xz yz pp pp pp
0.0000000000000000e+00 7.6685730000000003e+00 2.5561910000000001e+00
0.0000000000000000e+00 4.4274529999999999e+00 0.0000000000000000e+00
0.0000000000000000e+00 3.1699265000000000e+01 0.0000000000000000e+00
ITEM: ATOMS id type x y z
1 1 2.58908 2.74725 24.4872
2 1 2.17516 2.78218 26.988
3 1 5.2067 3.14402 24.485
4 1 1.76221 0.16755 27.3836
5 1 0.895629 1.47255 23.3278
6 1 5.27193 2.2656 27.297
7 1 1.12326 0.228436 25.262
8 1 3.95196 0.496768 23.4668
9 1 6.16086 2.55003 19.9181
10 1 4.53792 3.78335 22.1463
11 1 3.70841 0.85453 25.7139
12 1 2.83564 2.12283 22.1715
13 1 3.42143 2.33958 19.5844
14 1 7.49978 4.85865 20.242
15 1 4.71885 4.4251 19.7616
16 2 2.07373 1.36583 17.2239
17 2 3.03791 2.47431 15.1099
18 2 4.59847 3.14132 17.3759
19 2 7.18141 4.34393 17.5617
20 2 5.50765 0.696517 15.0487
21 2 5.47368 3.9965 14.9225
22 2 5.43729 2.55197 12.5037
23 2 2.71235 1.09299 12.5399
24 2 1.62365 2.73286 9.69969
25 2 4.42505 0.996769 9.66352
26 2 4.32037 4.12388 10.3631
27 2 2.79935 3.956 12.6775
28 2 3.52724 2.80915 7.69992
29 2 6.02695 4.21741 7.38621
30 2 3.33064 3.56615 5.04139
31 2 5.96249 1.54045 6.51224
32 2 5.83953 3.67336 3.06352
33 2 3.09974 2.3728 2.6198
34 2 5.64022 1.04748 3.1963
35 2 3.11708 0.736651 5.11554
ITEM: TIMESTEP
7200
ITEM: NUMBER OF ATOMS
35
ITEM: BOX BOUNDS xy xz yz pp pp pp
0.0000000000000000e+00 7.6685730000000003e+00 2.5561910000000001e+00
0.0000000000000000e+00 4.4274529999999999e+00 0.0000000000000000e+00
0.0000000000000000e+00 3.1699265000000000e+01 0.0000000000000000e+00
ITEM: ATOMS id type x y z
1 1 2.5608 2.40954 24.5298
2 1 2.85154 2.94473 26.9177
3 1 5.1845 2.97562 25.0516
4 1 4.72084 4.21591 27.6329
5 1 5.73248 1.52619 22.3151
6 1 5.35839 1.87947 27.1362
7 1 0.830145 0.665485 25.1339
8 1 4.02055 0.0433847 23.7994
9 1 5.86143 3.0702 19.7208
10 1 4.67532 3.65198 22.2941
11 1 3.28716 0.503895 25.9214
12 1 2.79442 1.66259 21.7082
13 1 3.6896 2.88852 19.6968
14 1 4.44781 0.28295 21.0293
15 1 2.20703 0.469513 20.0235
16 2 1.78903 1.59986 17.8542
17 2 2.69601 2.16927 15.2323
18 2 4.6979 2.92538 17.0393
19 2 4.40913 0.402396 17.8872
20 2 5.53503 1.11617 15.2696
21 2 5.74939 3.83095 14.7068
22 2 5.42212 2.34343 11.9786
23 2 2.63709 1.02827 12.3278
24 2 1.95495 2.48341 9.71474
25 2 4.78727 1.06823 9.73509
26 2 4.40442 3.9989 10.0653
27 2 2.60318 4.06339 12.6691
28 2 3.58695 3.03482 7.72084
29 2 3.51828 0.0516992 7.51361
30 2 2.88063 3.44651 5.23251
31 2 0.971439 1.23066 6.69546
32 2 5.80444 3.74088 2.77125
33 2 3.3577 2.51464 2.73149
34 2 5.58719 0.88767 3.0912
35 2 3.18564 0.86295 4.8513
ITEM: TIMESTEP
7300
ITEM: NUMBER OF ATOMS
35
ITEM: BOX BOUNDS xy xz yz pp pp pp
0.0000000000000000e+00 7.6685730000000003e+00 2.5561910000000001e+00
0.0000000000000000e+00 4.4274529999999999e+00 0.0000000000000000e+00
0.0000000000000000e+00 3.1699265000000000e+01 0.0000000000000000e+00
ITEM: ATOMS id type x y z
1 1 2.37996 1.71017 24.2266
2 1 2.70308 3.16317 26.2399
3 1 4.84926 2.81239 24.7495
4 1 4.72911 3.79431 27.9328
5 1 5.43168 1.81912 22.5931
6 1 1.06778 1.38094 27.5462
7 1 0.916945 0.541944 25.0402
8 1 6.82821 4.05344 23.6586
9 1 5.30292 2.68394 19.9055
10 1 4.34324 4.49221 22.863
11 1 3.58578 0.443299 26.0449
12 1 3.40065 2.47826 22.1066
13 1 3.18702 3.27844 19.2288
14 1 7.06068 3.98075 21.2097
15 1 1.55734 0.713368 20.4951
16 2 1.7624 1.57122 17.5941
17 2 3.06046 2.36001 15.2805
18 2 4.55024 3.59028 17.1191
19 2 4.16308 0.4986 18.0588
20 2 5.37905 0.762384 14.8906
21 2 5.46041 3.83257 14.4559
22 2 5.07951 2.31522 12.259
23 2 2.84204 1.01174 12.4017
24 2 2.34623 2.28391 9.88724
25 2 4.64075 0.899513 9.80867
26 2 4.85352 4.04512 9.9402
27 2 2.83963 3.80695 12.4507
28 2 3.79603 2.87412 7.41157
29 2 3.44498 0.0694699 7.5867
30 2 2.56116 3.62282 5.12396
31 2 0.923651 1.52439 7.14271
32 2 5.75004 3.7416 2.4745
33 2 3.28854 2.43289 2.44322
34 2 0.962197 0.968238 3.39566
35 2 3.06995 0.833977 5.03638
ITEM: TIMESTEP
7400
ITEM: NUMBER OF ATOMS
35
ITEM: BOX BOUNDS xy xz yz pp pp pp
0.0000000000000000e+00 7.6685730000000003e+00 2.5561910000000001e+00
0.0000000000000000e+00 4.4274529999999999e+00 0.0000000000000000e+00
0.0000000000000000e+00 3.1699265000000000e+01 0.0000000000000000e+00
ITEM: ATOMS id type x y z
1 1 3.26664 2.01344 24.1174
2 1 2.59551 2.90581 26.5419
3 1 5.13961 2.8071 25.1461
4 1 4.90389 2.86248 27.2795
5 1 5.98454 2.42801 22.7766
6 1 1.23852 0.964126 27.6148
7 1 0.851859 0.290281 25.2516
8 1 6.76325 4.39701 23.7699
9 1 4.97625 2.23615 19.9607
10 1 1.75767 -0.265487 22.7159
11 1 3.59269 0.692531 26.5719
12 1 2.79697 2.27498 21.8582
13 1 2.38275 3.05319 19.076
14 1 6.1551 4.65106 21.0837
15 1 1.74587 0.909694 20.0649
16 2 1.28708 2.23408 16.9319
17 2 3.17364 2.12158 15.0624
18 2 4.4059 3.57484 17.2965
19 2 4.14802 0.814897 17.7665
20 2 5.38844 0.635766 14.7082
21 2 5.40351 3.8121 14.9213
22 2 5.33523 2.25075 12.4623
23 2 2.60639 0.868955 12.5353
24 2 2.35884 2.41914 9.98566
25 2 5.2725 0.75663 9.95011
26 2 5.0119 3.70422 10.0085
27 2 2.75479 3.75638 12.2495
28 2 3.63654 2.93293 7.17859
29 2 3.77216 -0.154266 7.55492
30 2 2.34184 3.53738 4.73592
31 2 1.15314 1.5396 7.42929
32 2 6.01929 4.01855 2.70947
33 2 3.24919 2.29677 2.55467
34 2 0.788436 1.34024 3.44926
35 2 2.8905 0.829577 5.27485
ITEM: TIMESTEP
7500
ITEM: NUMBER OF ATOMS
35
ITEM: BOX BOUNDS xy xz yz pp pp pp
0.0000000000000000e+00 7.6685730000000003e+00 2.5561910000000001e+00
0.0000000000000000e+00 4.4274529999999999e+00 0.0000000000000000e+00
0.0000000000000000e+00 3.1699265000000000e+01 0.0000000000000000e+00
ITEM: ATOMS id type x y z
1 1 3.0276 2.55851 24.1875
2 1 2.4764 3.2573 26.5627
3 1 6.08329 2.98388 25.1608
4 1 5.02001 2.40883 27.7085
5 1 5.28837 1.81782 22.2945
6 1 3.6289 4.37334 28.1982
7 1 1.82895 0.529831 24.9405
8 1 4.26376 0.0535891 23.4719
9 1 4.64917 2.36521 19.7938
10 1 4.07949 4.28079 22.3866
11 1 3.49557 0.786013 26.5584
12 1 2.78311 2.61016 21.212
13 1 6.83264 3.28066 19.2767
14 1 3.77585 0.0962057 21.1184
15 1 1.9848 0.839437 19.6035
16 2 1.37021 2.32376 16.876
17 2 3.10653 2.1619 14.6162
18 2 3.46697 3.64273 17.4699
19 2 3.92573 0.995319 17.3818
20 2 0.491309 0.530075 15.003
21 2 5.54366 3.89926 14.8445
22 2 5.41112 2.22668 12.477
23 2 2.7077 0.592756 12.2637
24 2 2.83845 2.07147 9.7604
25 2 5.31948 0.777255 10.0008
26 2 5.20356 3.49098 9.93553
27 2 2.48398 3.78527 12.4936
28 2 3.96653 3.01484 7.54645
29 2 6.57155 4.37238 7.88788
30 2 2.58823 3.53843 5.17488
31 2 1.32944 1.28882 7.4095
32 2 5.77337 4.26963 2.66398
33 2 3.3354 2.69942 2.70597
34 2 5.48375 1.38864 3.49946
35 2 2.65254 0.640514 5.23062
ITEM: TIMESTEP
7600
ITEM: NUMBER OF ATOMS
35
ITEM: BOX BOUNDS xy xz yz pp pp pp
0.0000000000000000e+00 7.6685730000000003e+00 2.5561910000000001e+00
0.0000000000000000e+00 4.4274529999999999e+00 0.0000000000000000e+00
0.0000000000000000e+00 3.1699265000000000e+01 0.0000000000000000e+00
ITEM: ATOMS id type x y z
1 1 3.34092 2.67022 24.0861
2 1 2.88586 3.16816 26.3809
3 1 5.12279 2.45267 25.0761
4 1 5.79311 2.04367 27.2688
5 1 5.38664 2.37803 21.9292
6 1 1.6911 0.12135 27.9581
7 1 1.51797 0.562236 24.6477
8 1 3.96508 0.180615 23.8436
9 1 4.22021 2.08335 19.1493
10 1 1.85227 0.263575 22.2379
11 1 3.62017 0.743049 26.6161
12 1 2.60396 2.71512 22.1859
13 1 6.0647 3.80109 19.1008
14 1 4.21935 0.214725 21.2848
15 1 1.65907 1.27945 19.6471
16 2 1.07512 1.92372 17.2016
17 2 3.06847 2.24823 14.5405
18 2 3.58509 3.73854 17.2182
19 2 3.41826 0.857479 17.0495
20 2 0.484392 0.766567 14.865
21 2 5.51948 3.73963 14.6971
22 2 5.18504 2.03681 12.4949
23 2 2.63582 0.70601 12.2706
24 2 2.91186 1.9721 9.96672
25 2 0.346342 0.465003 10.0739
26 2 5.41321 3.48818 10.0486
27 2 2.84383 3.66605 12.2749
28 2 4.41899 2.73392 7.62079
29 2 4.04291 0.0498597 7.58313
30 2 2.76001 3.30579 5.60556
31 2 1.53076 1.45035 7.44773
32 2 5.46849 4.274 2.65568
33 2 2.93107 3.36606 3.06438
34 2 5.63723 1.61633 3.93255
35 2 2.6816 0.42478 5.00254
ITEM: TIMESTEP
7700
ITEM: NUMBER OF ATOMS
35
ITEM: BOX BOUNDS xy xz yz pp pp pp
0.0000000000000000e+00 7.6685730000000003e+00 2.5561910000000001e+00
0.0000000000000000e+00 4.4274529999999999e+00 0.0000000000000000e+00
0.0000000000000000e+00 3.1699265000000000e+01 0.0000000000000000e+00
ITEM: ATOMS id type x y z
1 1 2.5813 2.30118 24.1146
2 1 3.21315 3.24174 26.5582
3 1 5.34651 2.84815 24.8564
4 1 6.2927 2.16897 27.0069
5 1 5.09004 3.03205 22.3258
6 1 4.9292 4.1066 27.2514
7 1 1.59723 0.160784 24.7545
8 1 3.93953 0.135606 23.8178
9 1 3.44106 1.7494 19.3974
10 1 1.61836 0.617258 22.2571
11 1 4.2675 0.841836 26.1824
12 1 2.89445 2.6333 21.279
13 1 5.72873 3.74213 19.6787
14 1 4.53102 0.863925 21.5269
15 1 1.14765 0.969551 19.7833
16 2 5.65089 2.20529 17.2481
17 2 2.82304 2.34695 14.8963
18 2 3.54156 3.63459 17.2941
19 2 3.29331 0.542942 16.7825
20 2 5.47393 0.783936 14.5905
21 2 5.65627 3.43319 14.5943
22 2 5.29858 2.05661 12.0537
23 2 2.69007 0.70181 12.6089
24 2 2.83113 2.11303 9.88247
25 2 0.607159 0.515359 9.57154
26 2 5.66196 3.48663 9.97474
27 2 2.90668 3.46727 12.3342
28 2 4.42596 2.78284 7.55629
29 2 6.77164 4.40392 7.62517
30 2 2.84486 3.05333 5.67515
31 2 1.85166 1.28034 7.45735
32 2 5.38783 4.52289 2.59908
33 2 2.66167 3.53248 3.16842
34 2 5.23036 2.0713 4.71831
35 2 3.08857 0.214124 5.20126
ITEM: TIMESTEP
7800
ITEM: NUMBER OF ATOMS
35
ITEM: BOX BOUNDS xy xz yz pp pp pp
0.0000000000000000e+00 7.6685730000000003e+00 2.5561910000000001e+00
0.0000000000000000e+00 4.4274529999999999e+00 0.0000000000000000e+00
0.0000000000000000e+00 3.1699265000000000e+01 0.0000000000000000e+00
ITEM: ATOMS id type x y z
1 1 3.0436 2.44529 23.9474
2 1 3.25385 3.12387 26.4268
3 1 5.68574 2.87454 24.7204
4 1 1.50273 1.33003 27.0058
5 1 5.0068 3.11848 22.3797
6 1 5.84186 4.05682 26.8104
7 1 1.34736 0.236235 24.8694
8 1 4.5479 0.270822 23.651
9 1 3.09581 1.80606 19.0767
10 1 1.39575 1.2359 21.9361
11 1 4.40205 1.06742 25.6278
12 1 2.72412 3.62246 21.3828
13 1 5.59623 3.02647 19.8773
14 1 3.7154 1.12775 20.9317
15 1 0.666571 0.485285 19.4277
16 2 5.68512 2.05509 17.145
17 2 2.97968 2.20735 15.1712
18 2 2.83337 3.70167 17.5541
19 2 3.18189 0.300499 17.0752
20 2 0.345415 0.539168 14.8582
21 2 5.22374 3.3456 14.4631
22 2 5.46413 1.99109 12.0208
23 2 2.87779 0.68773 12.3524
24 2 3.31945 2.09165 9.8839
25 2 0.766449 0.604281 9.99181
26 2 5.68445 3.90152 9.92107
27 2 2.79924 3.58665 12.2949
28 2 4.70957 2.70606 7.62514
29 2 7.0099 4.32328 7.57714
30 2 2.73109 3.12059 5.42418
31 2 1.73121 1.13415 7.27171
32 2 2.45702 0.811574 2.90579
33 2 2.81384 3.45598 3.06589
34 2 5.33935 1.7053 4.96229
35 2 2.96357 0.306402 5.22351
ITEM: TIMESTEP
7900
ITEM: NUMBER OF ATOMS
35
ITEM: BOX BOUNDS xy xz yz pp pp pp
0.0000000000000000e+00 7.6685730000000003e+00 2.5561910000000001e+00
0.0000000000000000e+00 4.4274529999999999e+00 0.0000000000000000e+00
0.0000000000000000e+00 3.1699265000000000e+01 0.0000000000000000e+00
ITEM: ATOMS id type x y z
1 1 3.71151 2.87969 23.7168
2 1 2.93166 3.45817 26.1413
3 1 6.63052 2.84469 24.4144
4 1 1.84078 0.818963 26.8303
5 1 4.88471 3.70414 21.8468
6 1 5.63222 2.73 27.0214
7 1 2.46519 0.850747 24.1269
8 1 4.65567 0.581383 23.5134
9 1 2.69658 1.85133 19.435
10 1 0.983242 1.603 22.0686
11 1 4.41101 1.20511 25.9472
12 1 2.38314 3.22122 21.1218
13 1 5.2129 3.41407 19.3772
14 1 3.53319 1.16138 21.4929
15 1 0.730208 0.396937 19.6645
16 2 5.41737 1.80294 17.2519
17 2 2.829 1.8121 14.9388
18 2 2.82379 3.40718 17.1005
19 2 2.45506 0.0858963 17.2528
20 2 0.24273 0.514415 14.7793
21 2 5.23234 3.57216 14.7609
22 2 5.51799 2.19142 12.6252
23 2 3.09322 0.835166 12.4065
24 2 3.44873 2.36731 9.88654
25 2 0.678928 0.713734 9.97841
26 2 5.965 3.57998 10.0681
27 2 2.8665 3.58998 12.4261
28 2 4.59669 2.71253 7.33808
29 2 7.11512 4.27507 7.73877
30 2 2.82648 3.00517 5.50485
31 2 1.96096 1.25938 7.77586
32 2 2.19837 1.32581 2.81591
33 2 2.99538 3.84042 2.90609
34 2 5.47229 1.4585 4.489
35 2 2.8724 -0.0872699 5.21868
ITEM: TIMESTEP
8000
ITEM: NUMBER OF ATOMS
35
ITEM: BOX BOUNDS xy xz yz pp pp pp
0.0000000000000000e+00 7.6685730000000003e+00 2.5561910000000001e+00
0.0000000000000000e+00 4.4274529999999999e+00 0.0000000000000000e+00
0.0000000000000000e+00 3.1699265000000000e+01 0.0000000000000000e+00
ITEM: ATOMS id type x y z
1 1 3.94165 2.8841 23.7576
2 1 3.03179 2.95801 26.0487
3 1 6.17378 2.89458 24.3801
4 1 1.87437 0.355828 25.8664
5 1 4.49567 4.26981 21.5577
6 1 5.86031 2.896 26.6248
7 1 3.09009 0.855778 23.7002
8 1 5.51416 0.521181 24.4066
9 1 3.10582 1.98792 19.4239
10 1 6.1239 1.59367 22.1866
11 1 4.34133 1.0618 26.4449
12 1 2.07284 3.56767 21.7373
13 1 5.61773 2.96664 19.567
14 1 3.82343 1.60508 21.6689
15 1 -0.000711267 0.338562 19.3087
16 2 4.82239 1.69236 17.2746
17 2 2.68684 2.06475 14.5447
18 2 2.21826 3.02425 16.9819
19 2 2.56119 0.383794 17.2399
20 2 5.18438 0.499044 14.8852
21 2 5.40996 3.46654 15.145
22 2 5.61097 2.23382 12.6178
23 2 3.0225 0.594628 12.2307
24 2 3.43733 2.27282 10.0464
25 2 0.697162 0.783729 10.3399
26 2 5.9214 3.52144 10.1644
27 2 3.22164 3.64321 12.4367
28 2 4.89872 2.70177 7.40818
29 2 7.14292 4.39508 7.64128
30 2 2.57682 2.63414 5.23433
31 2 2.24303 1.32536 7.77668
32 2 2.89868 1.42755 2.76856
33 2 2.96853 4.14288 2.97427
34 2 4.88377 1.62418 4.78637
35 2 5.43104 4.24541 4.77903
ITEM: TIMESTEP
8100
ITEM: NUMBER OF ATOMS
35
ITEM: BOX BOUNDS xy xz yz pp pp pp
0.0000000000000000e+00 7.6685730000000003e+00 2.5561910000000001e+00
0.0000000000000000e+00 4.4274529999999999e+00 0.0000000000000000e+00
0.0000000000000000e+00 3.1699265000000000e+01 0.0000000000000000e+00
ITEM: ATOMS id type x y z
1 1 4.07694 3.01085 23.7945
2 1 3.30499 2.28037 26.0633
3 1 6.87804 2.78594 24.3439
4 1 1.83948 0.467429 26.018
5 1 4.89871 3.86683 21.0314
6 1 5.85647 3.0104 26.6649
7 1 2.484 0.402396 23.727
8 1 0.194786 1.09922 24.3314
9 1 3.50282 2.6163 19.2977
10 1 1.14488 2.21883 21.9315
11 1 4.92779 0.422416 26.8662
12 1 7.40093 4.26986 21.9754
13 1 5.96037 2.14439 19.5116
14 1 3.49747 1.76622 21.8175
15 1 4.62837 0.331808 19.61
16 2 4.44779 1.96624 17.2186
17 2 2.75629 1.89099 14.6837
18 2 1.97213 3.2253 17.2752
19 2 1.99804 0.300595 17.43
20 2 5.32849 0.514105 15.0351
21 2 5.08241 3.37185 14.8127
22 2 5.75607 2.06101 12.464
23 2 3.27224 0.590187 12.4286
24 2 3.33009 2.14916 9.9912
25 2 0.785888 0.677296 9.91678
26 2 5.95424 3.76468 9.73163
27 2 3.27529 3.61489 12.4968
28 2 4.99512 2.85517 7.59108
29 2 7.54429 4.32921 7.47991
30 2 2.10186 2.67768 5.18337
31 2 2.25028 1.23139 7.44015
32 2 3.52661 1.61932 2.79192
33 2 3.06325 4.2743 3.15263
34 2 4.9189 1.35708 5.23595
35 2 4.94099 4.22857 4.80946
ITEM: TIMESTEP
8200
ITEM: NUMBER OF ATOMS
35
ITEM: BOX BOUNDS xy xz yz pp pp pp
0.0000000000000000e+00 7.6685730000000003e+00 2.5561910000000001e+00
0.0000000000000000e+00 4.4274529999999999e+00 0.0000000000000000e+00
0.0000000000000000e+00 3.1699265000000000e+01 0.0000000000000000e+00
ITEM: ATOMS id type x y z
1 1 4.30623 3.16087 23.7206
2 1 3.59383 2.45202 26.4291
3 1 1.55048 3.33495 24.3808
4 1 2.54039 0.280352 25.9619
5 1 4.76683 4.59722 20.9289
6 1 6.09864 2.23407 26.5124
7 1 2.40317 0.968307 23.6402
8 1 5.10064 0.722889 24.8574
9 1 3.34028 3.00105 19.6806
10 1 5.86416 2.35847 22.0156
11 1 4.73359 -0.36296 27.062
12 1 2.92662 4.31209 22.144
13 1 6.49013 2.10077 19.3379
14 1 3.74399 1.80282 21.5777
15 1 4.07701 0.368564 19.1703
16 2 4.31458 1.97898 17.0521
17 2 2.62211 1.72626 15.1771
18 2 6.64278 3.62582 17.0468
19 2 1.50729 0.218583 17.8621
20 2 0.229822 0.354091 14.974
21 2 5.18594 3.39736 14.5608
22 2 6.05073 1.89974 12.042
23 2 3.5842 0.698073 12.4573
24 2 3.37199 2.16344 9.86879
25 2 1.00734 0.73353 9.67572
26 2 6.12554 3.68876 9.98016
27 2 3.17031 3.45815 12.366
28 2 4.73579 2.77094 7.47988
29 2 2.37011 3.95873 7.47766
30 2 2.17757 2.75568 4.89806
31 2 2.5158 1.29727 7.36303
32 2 3.8105 1.91104 3.15751
33 2 3.1453 4.60076 2.95944
34 2 4.5302 1.15598 5.39836
35 2 4.75988 4.0817 5.21942
ITEM: TIMESTEP
8300
ITEM: NUMBER OF ATOMS
35
ITEM: BOX BOUNDS xy xz yz pp pp pp
0.0000000000000000e+00 7.6685730000000003e+00 2.5561910000000001e+00
0.0000000000000000e+00 4.4274529999999999e+00 0.0000000000000000e+00
0.0000000000000000e+00 3.1699265000000000e+01 0.0000000000000000e+00
ITEM: ATOMS id type x y z
1 1 3.77155 3.20458 24.1182
2 1 3.69756 2.43304 26.2796
3 1 6.65088 2.95723 24.606
4 1 5.43888 4.22962 25.8917
5 1 1.89037 0.59728 21.0351
6 1 1.46917 1.15386 26.7834
7 1 2.75815 1.08693 23.497
8 1 5.37347 1.07956 24.4654
9 1 3.23364 3.25815 19.7435
10 1 6.19101 2.8769 21.6395
11 1 7.13125 4.42197 27.4745
12 1 2.60645 4.38137 22.5506
13 1 5.42105 2.95309 19.5228
14 1 4.19471 1.92517 21.7452
15 1 4.13955 0.830327 19.6038
16 2 4.19973 2.08137 17.0829
17 2 2.26908 1.63407 15.2054
18 2 6.25076 3.56348 16.819
19 2 1.51609 0.54067 17.5034
20 2 5.19229 0.209197 14.7325
21 2 5.4078 3.01311 14.1784
22 2 1.13521 1.81562 12.2833
23 2 3.56989 0.69471 12.3791
24 2 3.84685 2.0698 9.94777
25 2 1.1 0.52981 9.80277
26 2 6.07312 3.65439 10.1638
27 2 3.57357 3.50981 12.335
28 2 5.08473 2.44151 7.76402
29 2 7.15525 4.04923 7.70603
30 2 1.56578 2.56875 4.75788
31 2 2.22554 1.06864 7.50345
32 2 3.78664 2.25212 2.92571
33 2 1.20811 0.728167 2.93119
34 2 4.74566 0.97754 5.36157
35 2 4.55159 4.07296 5.09328
ITEM: TIMESTEP
8400
ITEM: NUMBER OF ATOMS
35
ITEM: BOX BOUNDS xy xz yz pp pp pp
0.0000000000000000e+00 7.6685730000000003e+00 2.5561910000000001e+00
0.0000000000000000e+00 4.4274529999999999e+00 0.0000000000000000e+00
0.0000000000000000e+00 3.1699265000000000e+01 0.0000000000000000e+00
ITEM: ATOMS id type x y z
1 1 4.15546 3.19682 24.1496
2 1 3.68133 2.2356 26.8981
3 1 2.26181 2.38903 24.9271
4 1 5.4189 4.0659 25.7646
5 1 1.89479 0.913325 20.2873
6 1 1.35628 1.81677 27.1439
7 1 3.45589 0.345552 23.0672
8 1 4.79925 1.00778 25.0935
9 1 2.2519 2.95566 19.2144
10 1 6.14568 2.86854 21.8699
11 1 4.65262 -0.137847 27.1908
12 1 0.249012 0.58226 22.2192
13 1 4.72787 3.53864 18.8737
14 1 3.6734 2.67485 21.8493
15 1 4.20204 1.20727 19.7531
16 2 3.72968 2.13947 17.0446
17 2 2.63853 1.38753 14.5555
18 2 6.72025 3.76026 17.0562
19 2 1.26376 1.12783 17.5255
20 2 7.60388 4.2607 14.7722
21 2 4.90943 3.0573 14.7873
22 2 1.40731 1.89687 12.2904
23 2 3.88323 0.48062 12.4994
24 2 3.60349 1.78684 10.1369
25 2 1.12646 0.254997 10.0969
26 2 6.2503 3.38135 10.0605
27 2 3.62724 3.44031 12.3473
28 2 4.77946 2.49884 7.53497
29 2 2.50867 3.9726 7.6559
30 2 1.71744 2.68786 4.93401
31 2 2.30459 0.900059 7.47314
32 2 3.94369 2.50553 3.04811
33 2 1.66527 1.15434 2.63553
34 2 4.25231 0.896398 5.05207
35 2 4.2533 3.91729 5.19996
ITEM: TIMESTEP
8500
ITEM: NUMBER OF ATOMS
35
ITEM: BOX BOUNDS xy xz yz pp pp pp
0.0000000000000000e+00 7.6685730000000003e+00 2.5561910000000001e+00
0.0000000000000000e+00 4.4274529999999999e+00 0.0000000000000000e+00
0.0000000000000000e+00 3.1699265000000000e+01 0.0000000000000000e+00
ITEM: ATOMS id type x y z
1 1 4.22456 2.93413 23.8354
2 1 3.90097 2.34864 27.1464
3 1 1.84772 1.78752 24.7346
4 1 5.13401 4.2968 25.9843
5 1 2.05905 0.840455 20.5396
6 1 6.14759 1.9548 26.9936
7 1 3.15871 1.00568 23.2024
8 1 5.06514 0.518803 24.8135
9 1 1.97799 3.36709 19.6793
10 1 5.87317 3.58262 21.8618
11 1 2.55928 4.28181 27.035
12 1 0.993157 0.451646 22.7824
13 1 4.67287 3.71911 18.6863
14 1 3.18651 2.84538 21.4758
15 1 4.70207 1.29329 19.6389
16 2 3.28455 2.08983 17.2591
17 2 2.58224 1.17782 14.6789
18 2 6.43111 4.13292 17.259
19 2 0.999655 1.14293 17.2455
20 2 2.68042 4.31878 14.7159
21 2 5.20759 2.90831 15.4632
22 2 1.08192 2.07824 12.4929
23 2 4.05716 0.26448 12.1437
24 2 3.60652 1.62993 9.90295
25 2 1.12658 0.266063 9.8081
26 2 6.20002 2.97106 9.71216
27 2 4.05208 3.1597 12.4596
28 2 4.97658 2.44936 7.42767
29 2 2.30251 3.80607 7.49831
30 2 1.71179 2.44316 5.24131
31 2 2.64412 1.03731 7.59349
32 2 4.37818 2.94715 2.8136
33 2 1.84437 1.23337 2.93134
34 2 3.84268 0.922881 4.73879
35 2 4.05869 4.12724 5.28298
ITEM: TIMESTEP
8600
ITEM: NUMBER OF ATOMS
35
ITEM: BOX BOUNDS xy xz yz pp pp pp
0.0000000000000000e+00 7.6685730000000003e+00 2.5561910000000001e+00
0.0000000000000000e+00 4.4274529999999999e+00 0.0000000000000000e+00
0.0000000000000000e+00 3.1699265000000000e+01 0.0000000000000000e+00
ITEM: ATOMS id type x y z
1 1 4.6577 3.03804 24.4303
2 1 3.87698 1.94308 26.1568
3 1 1.79612 2.26324 24.3151
4 1 4.97962 4.31135 26.1645
5 1 2.25165 1.28638 20.3724
6 1 1.27222 2.1121 26.9759
7 1 3.39052 1.0671 23.0683
8 1 4.58572 0.303427 24.8526
9 1 6.80117 3.22516 19.7647
10 1 6.06525 3.00455 22.1438
11 1 7.5555 4.345 27.1159
12 1 0.773939 0.791735 22.5529
13 1 3.99302 3.87847 19.5359
14 1 3.67154 3.10022 21.6459
15 1 4.86922 1.54256 19.9687
16 2 3.08094 2.6005 17.5408
17 2 2.78666 1.18122 14.9521
18 2 6.01736 4.23978 17.4111
19 2 0.851455 0.730261 17.2037
20 2 2.59436 4.26059 14.592
21 2 5.41791 2.68459 15.0522
22 2 1.52257 1.47196 12.4679
23 2 3.83887 0.140545 12.0112
24 2 3.81981 1.78759 9.82834
25 2 1.16387 -0.0110028 9.80519
26 2 6.14954 3.05861 9.94975
27 2 3.93831 3.34597 12.5098
28 2 5.04906 2.14357 7.37643
29 2 7.45633 4.04369 7.45253
30 2 6.30628 2.70813 5.19457
31 2 2.43606 0.890827 7.37671
32 2 4.98709 3.20648 2.97313
33 2 1.74226 1.36686 3.01444
34 2 4.27143 0.868787 4.41012
35 2 3.88971 4.04186 5.31659
ITEM: TIMESTEP
8700
ITEM: NUMBER OF ATOMS
35
ITEM: BOX BOUNDS xy xz yz pp pp pp
0.0000000000000000e+00 7.6685730000000003e+00 2.5561910000000001e+00
0.0000000000000000e+00 4.4274529999999999e+00 0.0000000000000000e+00
0.0000000000000000e+00 3.1699265000000000e+01 0.0000000000000000e+00
ITEM: ATOMS id type x y z
1 1 4.77429 3.63641 24.1513
2 1 3.57309 2.3568 26.3328
3 1 2.19177 1.49341 24.7923
4 1 2.24002 0.309512 26.8315
5 1 2.85465 1.64408 20.1212
6 1 5.94317 2.43525 26.381
7 1 2.87968 0.633621 22.3382
8 1 0.213627 0.119265 24.6831
9 1 6.15657 3.85837 19.9469
10 1 6.85745 3.10215 22.3568
11 1 2.42533 4.14692 27.0636
12 1 5.44774 0.969622 22.1714
13 1 3.69629 3.70853 19.6328
14 1 4.0128 2.8759 21.7149
15 1 5.20266 1.63475 19.7077
16 2 3.23228 2.4888 17.3561
17 2 3.01406 1.23491 15.0569
18 2 5.42053 4.06656 17.5176
19 2 5.55735 1.23973 17.3883
20 2 2.6768 3.88395 14.8638
21 2 5.27324 2.58104 14.6337
22 2 1.52044 1.69985 12.2647
23 2 3.95594 0.0407999 12.5566
24 2 3.55563 1.47198 9.88988
25 2 1.29949 0.199067 10.0095
26 2 6.49036 3.08201 9.92147
27 2 3.93173 2.78645 12.2731
28 2 4.77996 2.36986 7.61149
29 2 2.40434 3.62772 7.68371
30 2 6.54292 2.88424 5.35491
31 2 2.38983 0.860124 7.2658
32 2 5.08779 3.36407 2.74031
33 2 2.13354 1.57354 2.85599
34 2 4.12456 1.17775 4.3972
35 2 3.75872 3.72813 5.09203
ITEM: TIMESTEP
8800
ITEM: NUMBER OF ATOMS
35
ITEM: BOX BOUNDS xy xz yz pp pp pp
0.0000000000000000e+00 7.6685730000000003e+00 2.5561910000000001e+00
0.0000000000000000e+00 4.4274529999999999e+00 0.0000000000000000e+00
0.0000000000000000e+00 3.1699265000000000e+01 0.0000000000000000e+00
ITEM: ATOMS id type x y z
1 1 5.45296 3.41894 24.1485
2 1 3.39049 2.68682 26.5818
3 1 2.73452 1.59336 24.4252
4 1 2.13076 0.292954 26.8653
5 1 2.47053 1.42552 19.3873
6 1 6.13711 2.05967 26.5188
7 1 2.8458 0.632014 22.1356
8 1 7.67099 4.38977 24.5209
9 1 6.64287 4.16993 20.3427
10 1 2.15449 2.94201 22.5989
11 1 4.47532 0.524523 26.9458
12 1 5.18054 0.548931 22.1581
13 1 3.63837 4.13479 19.2156
14 1 4.34627 2.98891 21.8223
15 1 4.82699 2.05727 19.7096
16 2 2.61495 2.67493 17.2698
17 2 2.67171 0.856811 14.9202
18 2 5.56428 4.08767 17.2692
19 2 5.26522 1.29071 17.1012
20 2 3.1161 3.94209 15.1935
21 2 5.34354 2.46295 14.8073
22 2 1.27052 1.44519 12.564
23 2 4.16817 0.00178661 12.7282
24 2 3.87295 1.23759 9.92642
25 2 1.07435 0.139473 10.044
26 2 6.23622 2.93168 10.0917
27 2 3.94409 2.87202 12.0684
28 2 4.95598 2.38909 7.65927
29 2 2.46316 3.89865 7.59871
30 2 6.34919 2.41521 5.28546
31 2 2.56334 0.727301 7.26684
32 2 5.04777 3.40789 2.56433
33 2 2.30261 2.02821 2.94788
34 2 4.14423 1.06388 4.94331
35 2 3.99976 4.15705 4.78171
ITEM: TIMESTEP
8900
ITEM: NUMBER OF ATOMS
35
ITEM: BOX BOUNDS xy xz yz pp pp pp
0.0000000000000000e+00 7.6685730000000003e+00 2.5561910000000001e+00
0.0000000000000000e+00 4.4274529999999999e+00 0.0000000000000000e+00
0.0000000000000000e+00 3.1699265000000000e+01 0.0000000000000000e+00
ITEM: ATOMS id type x y z
1 1 4.89619 3.06444 24.3912
2 1 3.0388 2.87702 26.5168
3 1 3.3278 1.25246 24.5306
4 1 2.36125 0.048141 26.2397
5 1 2.21642 1.52084 20.0362
6 1 5.87347 2.43875 26.3216
7 1 3.33219 0.621223 22.1812
8 1 8.36156 4.79965 24.7503
9 1 6.43842 3.65087 19.8121
10 1 1.53208 3.08332 22.3273
11 1 4.52031 0.744236 26.6597
12 1 5.86678 0.713222 22.3567
13 1 3.52252 4.16439 19.1021
14 1 4.16519 3.16204 21.711
15 1 5.02283 2.13362 19.3114
16 2 2.31736 2.40956 17.2277
17 2 2.99536 1.12928 14.7743
18 2 5.22071 4.41491 17.4385
19 2 5.11871 1.05348 17.2124
20 2 2.83692 3.91893 14.7599
21 2 5.42581 2.48239 14.9448
22 2 1.63434 1.20236 12.3119
23 2 3.95786 -0.148996 12.4758
24 2 3.58071 1.49604 9.99921
25 2 1.196 -0.216012 9.78966
26 2 6.25755 2.79964 10.1522
27 2 3.88566 2.9379 12.6219
28 2 5.1289 2.33106 7.65475
29 2 2.64042 3.99277 7.28716
30 2 6.32402 2.62946 5.37308
31 2 2.55036 0.730112 7.65312
32 2 5.21452 3.27813 2.80918
33 2 2.57983 2.42936 3.04815
34 2 3.94625 0.783802 4.96138
35 2 4.02417 4.23244 4.93241
ITEM: TIMESTEP
9000
ITEM: NUMBER OF ATOMS
35
ITEM: BOX BOUNDS xy xz yz pp pp pp
0.0000000000000000e+00 7.6685730000000003e+00 2.5561910000000001e+00
0.0000000000000000e+00 4.4274529999999999e+00 0.0000000000000000e+00
0.0000000000000000e+00 3.1699265000000000e+01 0.0000000000000000e+00
ITEM: ATOMS id type x y z
1 1 4.65993 3.13447 23.7658
2 1 3.66988 2.82338 26.1391
3 1 3.28002 0.721074 24.5335
4 1 2.07643 0.747855 26.7293
5 1 1.79888 1.96222 19.815
6 1 6.06109 2.91476 25.9998
7 1 3.24052 0.794687 21.8903
8 1 0.697394 0.769883 24.2965
9 1 5.66278 3.95085 19.8302
10 1 7.18545 2.81432 22.7362
11 1 4.57748 0.227068 26.9314
12 1 0.719421 0.846933 21.717
13 1 3.33002 3.87262 19.6605
14 1 4.85396 2.94045 21.7823
15 1 4.67027 1.52397 19.4631
16 2 2.56455 2.69208 17.5066
17 2 2.90764 1.17079 14.9936
18 2 4.76244 3.76431 17.2665
19 2 4.92794 1.00446 16.995
20 2 2.66979 4.11985 14.7385
21 2 5.59007 2.71683 14.8913
22 2 1.38555 1.4442 12.2153
23 2 6.45014 4.18209 12.1017
24 2 3.74707 1.45796 10.1833
25 2 3.74666 4.2487 10.0193
26 2 6.32662 2.9892 9.69046
27 2 4.21946 2.49214 12.5523
28 2 4.96794 2.1152 7.68225
29 2 2.51095 3.71973 7.67947
30 2 6.41106 2.54771 5.40442
31 2 2.62957 0.913253 7.6225
32 2 5.49441 3.26559 3.12722
33 2 2.88436 2.66922 3.1412
34 2 4.02343 1.05655 4.70371
35 2 3.84184 4.10219 5.2494
ITEM: TIMESTEP
9100
ITEM: NUMBER OF ATOMS
35
ITEM: BOX BOUNDS xy xz yz pp pp pp
0.0000000000000000e+00 7.6685730000000003e+00 2.5561910000000001e+00
0.0000000000000000e+00 4.4274529999999999e+00 0.0000000000000000e+00
0.0000000000000000e+00 3.1699265000000000e+01 0.0000000000000000e+00
ITEM: ATOMS id type x y z
1 1 4.66161 3.52323 23.4716
2 1 3.69403 2.65649 26.4129
3 1 3.17707 0.958179 24.723
4 1 2.01885 0.97041 26.7899
5 1 1.26029 1.41737 19.8263
6 1 6.70854 2.78494 25.3897
7 1 3.45407 1.06776 22.4012
8 1 5.54385 1.01468 24.2998
9 1 5.27755 4.32239 19.3437
10 1 2.3318 2.77439 23.4483
11 1 4.82036 0.467876 26.5795
12 1 0.65626 0.195542 21.9666
13 1 2.47498 3.82543 19.5737
14 1 5.76399 2.69062 21.5338
15 1 3.69163 1.84864 19.5164
16 2 2.16917 2.51958 17.2266
17 2 2.60734 1.25728 15.1965
18 2 4.87644 3.72105 17.028
19 2 4.89716 0.764461 17.0108
20 2 3.0915 4.2897 14.4114
21 2 5.61668 2.89602 14.7752
22 2 1.58369 1.2658 12.635
23 2 6.52212 4.07937 12.4435
24 2 3.90933 1.35421 9.82851
25 2 1.30729 0.13838 10.2566
26 2 5.96917 2.85142 9.98854
27 2 3.88108 2.62754 12.4696
28 2 4.86942 1.95919 7.3362
29 2 2.68864 3.72969 7.70149
30 2 1.62388 2.49661 5.52613
31 2 2.43278 0.555498 7.41981
32 2 5.44017 3.85545 3.21398
33 2 2.94837 2.85985 2.95132
34 2 4.27196 0.909315 4.98979
35 2 4.01988 3.94796 5.35997
ITEM: TIMESTEP
9200
ITEM: NUMBER OF ATOMS
35
ITEM: BOX BOUNDS xy xz yz pp pp pp
0.0000000000000000e+00 7.6685730000000003e+00 2.5561910000000001e+00
0.0000000000000000e+00 4.4274529999999999e+00 0.0000000000000000e+00
0.0000000000000000e+00 3.1699265000000000e+01 0.0000000000000000e+00
ITEM: ATOMS id type x y z
1 1 4.93944 3.43099 23.9329
2 1 4.05071 3.14926 26.9179
3 1 2.98367 1.31315 24.7586
4 1 2.37822 0.733618 26.9922
5 1 0.534913 1.41859 19.32
6 1 6.18752 2.89732 25.9867
7 1 4.0077 1.35963 21.944
8 1 5.55576 1.01414 24.0799
9 1 4.69087 4.39847 19.6764
10 1 2.2737 2.78207 23.5531
11 1 4.88049 0.815893 26.4158
12 1 1.05195 -0.0524126 21.5457
13 1 1.86023 3.68287 19.2069
14 1 6.00061 2.79109 21.2525
15 1 3.32961 1.9992 19.9704
16 2 1.81175 2.17478 17.3429
17 2 3.50717 1.39064 14.854
18 2 4.47894 3.80568 17.1713
19 2 4.72031 0.738598 17.1103
20 2 2.9639 4.01587 14.8591
21 2 5.54533 2.84585 14.4949
22 2 1.60608 1.24163 12.6385
23 2 6.48479 4.40152 12.3343
24 2 3.51137 1.32768 9.94046
25 2 1.06458 -0.0537531 10.0868
26 2 6.2983 2.7744 10.2787
27 2 3.91794 2.81117 12.1748
28 2 5.11208 2.05949 7.42295
29 2 2.48864 3.45685 7.87884
30 2 1.86063 2.3306 5.27932
31 2 2.63722 0.340001 7.73251
32 2 5.39229 4.52543 2.92112
33 2 2.97424 2.8078 2.99974
34 2 4.35377 0.92572 4.87322
35 2 4.28105 3.73141 5.27796
ITEM: TIMESTEP
9300
ITEM: NUMBER OF ATOMS
35
ITEM: BOX BOUNDS xy xz yz pp pp pp
0.0000000000000000e+00 7.6685730000000003e+00 2.5561910000000001e+00
0.0000000000000000e+00 4.4274529999999999e+00 0.0000000000000000e+00
0.0000000000000000e+00 3.1699265000000000e+01 0.0000000000000000e+00
ITEM: ATOMS id type x y z
1 1 4.48906 3.24855 24.466
2 1 3.53431 3.00915 26.443
3 1 3.36543 1.00713 24.7456
4 1 2.53175 1.04722 27.4042
5 1 5.30161 2.2608 19.4919
6 1 6.43004 3.1661 25.9532
7 1 3.99117 1.16241 22.3378
8 1 6.06738 1.17743 24.1825
9 1 1.60638 0.0200241 19.5298
10 1 2.17933 3.4193 23.4493
11 1 5.364 0.687325 26.4649
12 1 3.8287 4.37936 21.7673
13 1 7.00301 4.3576 19.6442
14 1 6.07366 2.78527 21.6565
15 1 2.84195 2.16899 19.7802
16 2 1.85337 1.93665 16.9801
17 2 3.31441 1.18782 14.5979
18 2 4.34384 3.34751 17.0927
19 2 4.00093 0.748298 17.2374
20 2 3.21522 4.05051 15.0165
21 2 5.83768 2.95389 14.8707
22 2 1.28854 1.34326 12.6605
23 2 6.75809 4.4969 12.3253
24 2 3.71423 1.36922 10.0253
25 2 3.51257 4.31583 9.81071
26 2 6.24265 2.62707 10.0844
27 2 4.2317 3.06701 12.3262
28 2 5.18101 1.67675 7.80839
29 2 2.37006 3.2707 7.46998
30 2 1.68062 2.13582 5.11638
31 2 2.67653 0.497243 7.66215
32 2 2.79573 0.318698 2.80855
33 2 3.01017 3.06335 2.9086
34 2 4.52615 0.663149 4.92635
35 2 4.57709 3.82215 5.32438
ITEM: TIMESTEP
9400
ITEM: NUMBER OF ATOMS
35
ITEM: BOX BOUNDS xy xz yz pp pp pp
0.0000000000000000e+00 7.6685730000000003e+00 2.5561910000000001e+00
0.0000000000000000e+00 4.4274529999999999e+00 0.0000000000000000e+00
0.0000000000000000e+00 3.1699265000000000e+01 0.0000000000000000e+00
ITEM: ATOMS id type x y z
1 1 4.77623 3.01979 24.076
2 1 3.85766 2.83879 26.3724
3 1 3.62454 1.08723 24.6893
4 1 2.52404 0.603893 26.8371
5 1 5.52379 2.82339 19.2765
6 1 6.33948 3.34663 26.4357
7 1 3.35645 1.55785 22.2533
8 1 1.30771 1.44932 24.3049
9 1 1.33835 0.217635 19.3564
10 1 2.57185 3.70765 23.9257
11 1 5.39105 1.01711 26.3442
12 1 4.02593 4.61943 22.2655
13 1 3.75092 0.35872 20.259
14 1 5.7396 2.45092 22.0602
15 1 2.86781 2.78494 20.0016
16 2 1.62712 1.74267 17.3071
17 2 3.04021 1.325 14.6993
18 2 4.12838 3.06876 17.2617
19 2 4.19918 0.022064 17.3841
20 2 3.19772 4.53221 14.7254
21 2 5.77717 2.8891 14.8064
22 2 1.63451 1.65077 12.2532
23 2 6.76745 4.17385 12.3436
24 2 3.6489 1.31265 10.2029
25 2 3.7905 4.04012 9.83366
26 2 6.17419 2.84208 9.89848
27 2 4.21139 3.1509 12.6452
28 2 5.12666 1.69789 7.4428
29 2 2.59474 3.30418 7.06223
30 2 1.7108 2.02883 4.66477
31 2 2.55052 0.518205 7.62396
32 2 2.77126 0.267087 3.0934
33 2 3.15054 3.48582 3.05365
34 2 4.50546 0.596169 4.97654
35 2 4.50419 3.3957 5.37316
ITEM: TIMESTEP
9500
ITEM: NUMBER OF ATOMS
35
ITEM: BOX BOUNDS xy xz yz pp pp pp
0.0000000000000000e+00 7.6685730000000003e+00 2.5561910000000001e+00
0.0000000000000000e+00 4.4274529999999999e+00 0.0000000000000000e+00
0.0000000000000000e+00 3.1699265000000000e+01 0.0000000000000000e+00
ITEM: ATOMS id type x y z
1 1 5.44999 3.66882 24.4806
2 1 3.92824 3.10233 26.1971
3 1 4.15414 1.44051 24.2632
4 1 2.68324 0.736744 26.494
5 1 4.91311 2.70155 19.5389
6 1 6.39887 2.62813 26.5927
7 1 3.22004 2.37155 22.4707
8 1 1.43867 1.17612 24.1611
9 1 1.28201 0.757641 19.768
10 1 2.54039 3.67835 24.2476
11 1 4.77014 0.801596 26.7318
12 1 1.29916 -0.173037 21.9159
13 1 3.74488 0.841247 20.3181
14 1 5.88854 2.80433 21.9795
15 1 2.54023 2.76728 20.0723
16 2 1.77949 1.1693 17.338
17 2 3.11894 1.72694 15.0537
18 2 3.9828 2.77786 17.1673
19 2 6.72773 4.20385 17.8044
20 2 0.269297 0.324104 14.9109
21 2 5.74447 3.04527 14.8155
22 2 1.63489 1.32488 11.8586
23 2 6.84233 4.5402 12.4466
24 2 3.8123 1.33219 10.0191
25 2 3.66307 4.05657 10.0147
26 2 6.40818 2.92802 9.46437
27 2 4.18868 2.78107 12.4756
28 2 5.19073 1.85114 7.61028
29 2 2.46282 3.18539 7.30529
30 2 1.69052 1.77566 4.5739
31 2 2.52027 0.4844 7.38885
32 2 3.26276 0.156604 2.77411
33 2 3.02886 3.59932 3.02085
34 2 4.27548 0.660941 5.1946
35 2 4.57311 3.47159 5.14311
ITEM: TIMESTEP
9600
ITEM: NUMBER OF ATOMS
35
ITEM: BOX BOUNDS xy xz yz pp pp pp
0.0000000000000000e+00 7.6685730000000003e+00 2.5561910000000001e+00
0.0000000000000000e+00 4.4274529999999999e+00 0.0000000000000000e+00
0.0000000000000000e+00 3.1699265000000000e+01 0.0000000000000000e+00
ITEM: ATOMS id type x y z
1 1 5.79287 4.4255 24.3187
2 1 3.67551 2.50941 26.8941
3 1 4.50267 1.869 24.0714
4 1 2.2401 0.587753 26.4003
5 1 4.53928 3.01524 19.9895
6 1 6.27006 2.91186 26.2095
7 1 2.78976 1.66203 21.958
8 1 1.95536 1.93621 24.3884
9 1 0.890971 0.802841 19.6743
10 1 3.00199 3.9227 24.628
11 1 5.10781 0.233149 26.867
12 1 3.64905 4.42362 22.3823
13 1 3.98741 0.55604 20.2909
14 1 6.11364 3.19808 22.1762
15 1 1.94587 2.64408 19.8208
16 2 1.64244 0.850571 17.2032
17 2 2.81749 1.94418 14.6705
18 2 4.50868 2.30815 17.2408
19 2 6.52233 4.30747 17.8149
20 2 0.458135 0.3408 15.0332
21 2 5.6109 3.52689 15.1129
22 2 1.54136 1.46106 12.486
23 2 4.09439 -0.242697 12.5171
24 2 3.85811 1.21368 9.77819
25 2 3.81466 4.28927 9.69068
26 2 6.36847 2.85844 10.2243
27 2 4.22212 2.75431 12.3408
28 2 5.10945 1.75351 7.30506
29 2 2.70221 3.28008 7.04081
30 2 1.71439 1.96675 4.6456
31 2 2.40964 0.364997 7.55576
32 2 3.30826 0.130631 2.49381
33 2 3.15075 3.32801 2.81878
34 2 4.22452 0.661606 5.1935
35 2 4.66358 3.53061 4.91959
ITEM: TIMESTEP
9700
ITEM: NUMBER OF ATOMS
35
ITEM: BOX BOUNDS xy xz yz pp pp pp
0.0000000000000000e+00 7.6685730000000003e+00 2.5561910000000001e+00
0.0000000000000000e+00 4.4274529999999999e+00 0.0000000000000000e+00
0.0000000000000000e+00 3.1699265000000000e+01 0.0000000000000000e+00
ITEM: ATOMS id type x y z
1 1 6.1888 4.57319 24.2467
2 1 3.68067 2.18609 27.2778
3 1 4.71435 2.60414 24.0443
4 1 2.1958 0.5055 26.6592
5 1 4.66323 2.53919 20.5687
6 1 5.66798 2.47676 26.3951
7 1 2.94808 1.47614 22.3143
8 1 2.46469 2.85992 24.5596
9 1 0.668778 0.237258 19.7186
10 1 1.13858 0.504433 24.3195
11 1 4.95037 0.192572 26.754
12 1 2.85668 4.33888 21.9139
13 1 3.07437 0.229273 19.8736
14 1 5.90412 3.28553 22.2083
15 1 2.55979 2.52088 19.2389
16 2 1.80337 1.10561 17.3579
17 2 3.14249 2.13135 14.9579
18 2 4.30153 2.46662 17.5996
19 2 6.85711 3.77401 17.3875
20 2 0.219064 0.446153 14.8192
21 2 5.33986 3.67486 15.1106
22 2 1.41008 1.0807 12.5418
23 2 6.56805 4.13472 12.5574
24 2 3.61008 1.32476 10.2187
25 2 3.79066 4.17734 9.99831
26 2 6.35457 2.56087 10.0023
27 2 3.93358 2.92814 12.3102
28 2 5.46321 2.06342 7.29671
29 2 2.63043 3.15524 7.14873
30 2 1.87194 1.97809 4.53452
31 2 2.77463 0.414054 7.35395
32 2 2.93669 0.113356 2.73541
33 2 3.33653 3.03969 2.58271
34 2 4.53051 0.812327 4.49693
35 2 4.50439 3.58325 5.06718
ITEM: TIMESTEP
9800
ITEM: NUMBER OF ATOMS
35
ITEM: BOX BOUNDS xy xz yz pp pp pp
0.0000000000000000e+00 7.6685730000000003e+00 2.5561910000000001e+00
0.0000000000000000e+00 4.4274529999999999e+00 0.0000000000000000e+00
0.0000000000000000e+00 3.1699265000000000e+01 0.0000000000000000e+00
ITEM: ATOMS id type x y z
1 1 3.78784 1.0258 24.7532
2 1 3.44357 2.75911 27.259
3 1 5.03856 3.33674 24.2213
4 1 2.13359 0.0200376 26.3409
5 1 4.26368 1.88316 20.4831
6 1 5.8979 1.96476 26.1924
7 1 3.00797 1.29148 22.2356
8 1 2.64779 3.04113 24.8986
9 1 0.566287 -0.00616716 19.0421
10 1 1.54514 1.25983 24.0313
11 1 4.26729 0.0675976 26.9723
12 1 0.461549 0.221814 22.0897
13 1 5.66914 4.12978 19.2231
14 1 6.28892 3.08827 22.1977
15 1 1.54128 2.18443 20.3174
16 2 1.82111 0.852888 17.1481
17 2 2.87043 2.09975 15.2422
18 2 4.41486 2.58067 17.8559
19 2 7.01497 3.86518 17.0141
20 2 5.33304 0.88208 15.0722
21 2 5.34323 3.47775 14.8051
22 2 1.31056 1.36579 12.2306
23 2 6.33248 4.23493 12.3842
24 2 3.81949 1.20255 10.0076
25 2 3.67618 4.06207 9.87934
26 2 6.37595 2.72783 9.69843
27 2 3.85229 2.53038 12.7556
28 2 5.26659 1.63544 7.53079
29 2 2.8929 3.44287 7.4676
30 2 2.05383 2.2045 4.73014
31 2 3.09757 0.555678 7.42766
32 2 2.72163 0.00338495 2.66093
33 2 3.23692 2.73254 2.47908
34 2 4.87629 0.714077 4.41939
35 2 4.37736 3.7361 5.21043
ITEM: TIMESTEP
9900
ITEM: NUMBER OF ATOMS
35
ITEM: BOX BOUNDS xy xz yz pp pp pp
0.0000000000000000e+00 7.6685730000000003e+00 2.5561910000000001e+00
0.0000000000000000e+00 4.4274529999999999e+00 0.0000000000000000e+00
0.0000000000000000e+00 3.1699265000000000e+01 0.0000000000000000e+00
ITEM: ATOMS id type x y z
1 1 4.04985 1.83806 24.8414
2 1 2.94607 2.12229 26.9091
3 1 5.0569 3.78171 23.9832
4 1 1.60874 -0.0737343 26.2674
5 1 4.1099 2.19006 20.5778
6 1 5.74393 2.32864 26.7727
7 1 3.23566 1.08547 22.4371
8 1 2.65923 3.64518 24.3529
9 1 0.349082 -0.488736 19.7158
10 1 1.33995 1.69328 24.2409
11 1 4.26326 0.178205 27.5635
12 1 0.903906 0.248647 22.021
13 1 5.78016 4.46066 19.9947
14 1 6.64823 3.03939 22.0204
15 1 1.50271 1.72123 19.5151
16 2 1.80962 0.613613 17.4259
17 2 2.603 2.1539 14.8812
18 2 4.53625 1.90071 17.5972
19 2 6.69028 3.85691 17.0803
20 2 5.40559 0.741835 14.5798
21 2 5.35842 3.89142 14.709
22 2 1.26364 1.40305 12.2773
23 2 6.35152 4.23583 12.1956
24 2 4.10211 1.25821 9.69071
25 2 4.09443 4.17728 10.1639
26 2 6.49493 2.82661 9.88772
27 2 3.77969 2.68585 12.503
28 2 5.59995 1.86521 7.10323
29 2 2.8909 3.31128 7.54245
30 2 2.02319 2.44868 5.24525
31 2 2.63476 0.34817 7.50068
32 2 2.81878 -0.151192 2.96367
33 2 2.95232 2.58375 2.62838
34 2 4.69173 0.654137 4.51247
35 2 4.71403 3.57354 5.19616
ITEM: TIMESTEP
10000
ITEM: NUMBER OF ATOMS
35
ITEM: BOX BOUNDS xy xz yz pp pp pp
0.0000000000000000e+00 7.6685730000000003e+00 2.5561910000000001e+00
0.0000000000000000e+00 4.4274529999999999e+00 0.0000000000000000e+00
0.0000000000000000e+00 3.1699265000000000e+01 0.0000000000000000e+00
ITEM: ATOMS id type x y z
1 1 4.05135 1.98235 24.9484
2 1 2.43618 2.06584 26.9334
3 1 5.15095 3.866 24.0623
4 1 3.90308 4.51586 26.1995
5 1 5.04405 1.85299 20.9424
6 1 4.90933 2.62802 26.8119
7 1 3.73751 1.41196 22.7304
8 1 2.29435 4.45677 24.1964
9 1 2.83829 4.60519 19.3572
10 1 1.35531 1.76396 24.5447
11 1 4.25335 -0.0130496 26.6633
12 1 1.20579 0.289957 22.1867
13 1 4.91513 4.38262 20.1718
14 1 7.39437 2.65256 21.6635
15 1 1.50639 2.31858 19.2692
16 2 1.73614 0.224651 17.2633
17 2 2.7744 2.3331 14.8611
18 2 4.19285 1.92983 17.2745
19 2 6.80695 3.20566 17.1336
20 2 4.95951 0.518777 14.6545
21 2 5.01652 3.83802 14.7951
22 2 1.37195 1.46045 12.442
23 2 6.60723 4.45164 12.1871
24 2 4.33355 1.45383 9.73577
25 2 4.42264 4.47615 9.85858
26 2 6.79685 2.59423 9.86079
27 2 3.87125 2.83421 12.0396
28 2 5.26016 1.75879 7.37958
29 2 2.76812 3.38173 7.64931
30 2 2.13689 2.02507 5.28229
31 2 2.98092 0.287594 7.61834
32 2 5.22361 4.09283 2.81568
33 2 2.91976 2.78027 2.87931
34 2 4.86948 0.812934 4.82014
35 2 4.43299 3.5899 5.32004
ITEM: TIMESTEP
10100
ITEM: NUMBER OF ATOMS
35
ITEM: BOX BOUNDS xy xz yz pp pp pp
0.0000000000000000e+00 7.6685730000000003e+00 2.5561910000000001e+00
0.0000000000000000e+00 4.4274529999999999e+00 0.0000000000000000e+00
0.0000000000000000e+00 3.1699265000000000e+01 0.0000000000000000e+00
ITEM: ATOMS id type x y z
1 1 3.83043 2.16018 25.1543
2 1 2.24133 2.64232 27.0172
3 1 5.15396 3.7539 23.7675
4 1 0.81196 0.363117 26.3516
5 1 4.74598 2.42786 20.859
6 1 5.0591 1.95069 27.4377
7 1 3.9111 0.972911 22.9291
8 1 7.92167 4.10302 23.9167
9 1 -0.215531 0.14888 18.8165
10 1 1.23082 1.91917 24.2154
11 1 3.39843 -0.106751 26.0192
12 1 1.6375 0.742726 22.0831
13 1 5.253 4.11086 19.3028
14 1 2.1508 3.56453 21.6373
15 1 2.18018 2.15194 19.4835
16 2 1.67263 0.129934 16.9369
17 2 2.58793 2.08044 14.5996
18 2 3.90269 1.76018 17.4654
19 2 6.56347 3.02371 16.7904
20 2 5.03994 0.93302 15.1163
21 2 5.0696 3.44046 14.5726
22 2 1.36348 1.5721 12.5429
23 2 4.06828 -0.0228909 12.3821
24 2 4.42891 1.3665 10.1333
25 2 1.76295 -0.148993 9.70873
26 2 1.87675 3.00994 10.1183
27 2 4.14455 2.97963 12.3708
28 2 5.44465 1.93383 7.50787
29 2 3.07288 3.48242 7.53891
30 2 2.00344 1.90925 5.52366
31 2 3.25312 0.266436 7.24497
32 2 5.3651 4.0748 3.25337
33 2 2.96302 2.97545 2.84013
34 2 4.53603 0.661119 4.46376
35 2 4.33856 3.42304 5.35414
ITEM: TIMESTEP
10200
ITEM: NUMBER OF ATOMS
35
ITEM: BOX BOUNDS xy xz yz pp pp pp
0.0000000000000000e+00 7.6685730000000003e+00 2.5561910000000001e+00
0.0000000000000000e+00 4.4274529999999999e+00 0.0000000000000000e+00
0.0000000000000000e+00 3.1699265000000000e+01 0.0000000000000000e+00
ITEM: ATOMS id type x y z
1 1 4.33562 2.0792 25.4452
2 1 2.17954 2.08543 26.8209
3 1 5.45659 3.59723 23.0656
4 1 0.652594 0.215478 26.0798
5 1 4.15582 2.93188 20.9491
6 1 4.53783 2.62421 27.8922
7 1 3.80976 1.69329 23.0709
8 1 2.41629 3.20951 23.8326
9 1 2.81517 4.3596 19.2588
10 1 1.47716 1.42061 24.2828
11 1 5.33754 4.17024 25.6191
12 1 1.48526 1.65721 21.562
13 1 5.51627 3.41884 19.2777
14 1 6.65059 4.16307 21.1368
15 1 2.46906 1.62897 19.3074
16 2 1.72001 0.270993 16.8587
17 2 2.65469 2.08624 14.821
18 2 3.97193 1.84196 17.4638
19 2 6.37835 2.97468 17.158
20 2 4.92768 0.710287 15.0833
21 2 5.29293 3.70196 14.7534
22 2 1.25652 1.24913 11.9341
23 2 4.1275 0.0398003 12.689
24 2 4.28354 1.41212 9.92564
25 2 4.54332 4.31668 9.99647
26 2 6.87214 3.14076 10.1461
27 2 3.94109 2.9836 12.2925
28 2 5.94147 2.07187 7.87729
29 2 3.20511 3.45277 7.81577
30 2 1.62725 2.32249 5.0693
31 2 3.41699 0.505136 7.15085
32 2 5.1852 3.95825 2.95723
33 2 2.78188 2.77354 2.95941
34 2 5.05018 0.645797 4.57594
35 2 4.34492 2.9973 5.42479
ITEM: TIMESTEP
10300
ITEM: NUMBER OF ATOMS
35
ITEM: BOX BOUNDS xy xz yz pp pp pp
0.0000000000000000e+00 7.6685730000000003e+00 2.5561910000000001e+00
0.0000000000000000e+00 4.4274529999999999e+00 0.0000000000000000e+00
0.0000000000000000e+00 3.1699265000000000e+01 0.0000000000000000e+00
ITEM: ATOMS id type x y z
1 1 4.34896 2.04257 25.5762
2 1 1.91128 1.44142 26.3127
3 1 4.80121 3.66961 22.7049
4 1 2.39883 3.9809 26.4857
5 1 2.88264 3.23576 21.2987
6 1 4.38294 3.47152 27.2337
7 1 3.92141 1.37217 23.5574
8 1 2.54426 3.46502 23.8702
9 1 0.0448226 0.439926 19.1391
10 1 1.31424 0.947304 24.3068
11 1 5.76651 3.91935 25.3002
12 1 0.981048 1.70397 22.0213
13 1 5.70908 2.88578 19.9023
14 1 4.08356 1.07477 21.1232
15 1 2.55187 1.10074 19.6881
16 2 1.6855 0.190904 17.1815
17 2 2.54705 2.40877 14.8474
18 2 4.34839 1.76708 17.2052
19 2 7.00371 3.11062 17.3266
20 2 5.10588 0.680556 14.7629
21 2 4.97654 3.47372 14.7336
22 2 1.38796 1.48498 12.5291
23 2 3.84184 -0.0340678 12.2648
24 2 4.16289 1.66796 9.69963
25 2 4.64569 4.45732 9.71019
26 2 1.9914 3.09985 10.2177
27 2 3.81968 2.64863 12.4749
28 2 6.16874 1.80632 7.78255
29 2 3.10607 3.6188 7.77947
30 2 1.92548 2.23242 5.29176
31 2 3.492 0.708625 7.05575
32 2 5.06346 4.04146 3.12644
33 2 2.81362 2.31622 2.6434
34 2 4.92836 0.31224 4.40565
35 2 4.48343 3.48982 5.59109
ITEM: TIMESTEP
10400
ITEM: NUMBER OF ATOMS
35
ITEM: BOX BOUNDS xy xz yz pp pp pp
0.0000000000000000e+00 7.6685730000000003e+00 2.5561910000000001e+00
0.0000000000000000e+00 4.4274529999999999e+00 0.0000000000000000e+00
0.0000000000000000e+00 3.1699265000000000e+01 0.0000000000000000e+00
ITEM: ATOMS id type x y z
1 1 4.21341 1.60791 26.263
2 1 1.7415 1.78476 26.8417
3 1 4.70596 3.74422 22.091
4 1 7.39229 3.96649 26.8893
5 1 1.82221 3.85238 21.403
6 1 5.14399 3.9945 27.3935
7 1 3.83861 0.782332 23.7606
8 1 2.44512 3.13351 23.7856
9 1 5.10831 0.370501 19.4038
10 1 0.843922 1.06762 24.3645
11 1 5.05342 3.44847 24.468
12 1 1.56691 1.3395 21.8234
13 1 5.08307 2.94304 19.4829
14 1 3.86107 1.93061 21.554
15 1 2.28381 1.08981 19.3917
16 2 1.95267 0.0801648 17.1677
17 2 2.38097 2.12176 15.0666
18 2 4.6411 1.76997 17.0862
19 2 1.87455 3.301 17.5427
20 2 5.17231 0.539057 14.7854
21 2 5.19428 3.69694 14.8336
22 2 1.22903 1.40951 12.4347
23 2 6.0742 4.36792 12.4236
24 2 4.7415 1.61706 9.85924
25 2 1.97514 0.152203 9.96122
26 2 1.97682 2.9529 10.0169
27 2 3.89511 2.95854 12.2106
28 2 5.94109 1.94692 7.47185
29 2 3.09833 3.49223 7.44323
30 2 2.18649 1.95909 5.16826
31 2 3.60879 0.70896 7.12698
32 2 5.00723 3.8154 3.06071
33 2 2.91877 2.20722 2.88803
34 2 4.68084 0.881932 4.2868
35 2 4.80665 3.39638 5.65629
ITEM: TIMESTEP
10500
ITEM: NUMBER OF ATOMS
35
ITEM: BOX BOUNDS xy xz yz pp pp pp
0.0000000000000000e+00 7.6685730000000003e+00 2.5561910000000001e+00
0.0000000000000000e+00 4.4274529999999999e+00 0.0000000000000000e+00
0.0000000000000000e+00 3.1699265000000000e+01 0.0000000000000000e+00
ITEM: ATOMS id type x y z
1 1 3.64978 1.54696 26.7195
2 1 1.22504 2.03597 26.7815
3 1 4.57884 4.00145 22.1833
4 1 2.98374 3.92033 26.2578
5 1 7.6063 4.09695 21.8467
6 1 5.60873 4.01276 26.7767
7 1 3.21235 0.566415 24.192
8 1 1.99231 2.92826 24.2164
9 1 5.2213 0.841295 19.5456
10 1 1.13942 0.877151 24.606
11 1 4.76608 2.72872 24.6792
12 1 5.59214 1.96938 21.7249
13 1 4.27589 3.50732 19.4723
14 1 3.38255 1.696 21.6541
15 1 2.71147 1.7198 19.1579
16 2 1.95685 0.308318 17.1598
17 2 2.70089 1.95755 15.1005
18 2 4.70771 1.63014 17.068
19 2 6.94223 3.25796 17.5979
20 2 5.09386 0.321084 14.7896
21 2 5.22355 3.41399 14.7029
22 2 1.06808 1.57216 12.2854
23 2 3.92751 0.164098 12.4089
24 2 4.63926 1.25812 10.0083
25 2 2.23357 0.0113771 9.86129
26 2 1.99121 3.08991 9.79359
27 2 3.47675 2.96918 12.2863
28 2 5.85913 1.96341 7.62952
29 2 3.37097 3.5747 7.65898
30 2 2.28122 2.093 5.09454
31 2 3.27508 0.633432 7.68454
32 2 5.28422 3.54569 2.78558
33 2 2.62148 2.56849 2.62828
34 2 5.23206 0.605352 4.50756
35 2 4.82362 3.52052 5.12369
ITEM: TIMESTEP
10600
ITEM: NUMBER OF ATOMS
35
ITEM: BOX BOUNDS xy xz yz pp pp pp
0.0000000000000000e+00 7.6685730000000003e+00 2.5561910000000001e+00
0.0000000000000000e+00 4.4274529999999999e+00 0.0000000000000000e+00
0.0000000000000000e+00 3.1699265000000000e+01 0.0000000000000000e+00
ITEM: ATOMS id type x y z
1 1 4.1116 2.14576 27.0141
2 1 1.27904 1.23335 26.3754
3 1 4.76419 4.04891 22.6608
4 1 2.58504 3.86955 26.0548
5 1 6.95408 4.25717 21.812
6 1 5.20152 3.85586 26.1317
7 1 3.41258 0.775405 24.5389
8 1 1.95226 2.48272 24.1413
9 1 5.43526 1.42758 19.7463
10 1 0.463943 0.519142 23.9462
11 1 4.35209 2.92108 24.4153
12 1 5.70979 1.94767 22.1133
13 1 4.49646 3.63138 20.184
14 1 3.16406 2.21754 22.0851
15 1 2.86122 1.36222 19.5833
16 2 1.85265 0.224922 17.0396
17 2 2.70675 1.84671 14.8749
18 2 4.4833 1.95091 17.2085
19 2 6.8895 3.51219 17.3818
20 2 0.303969 0.23333 14.838
21 2 5.19856 2.94829 14.518
22 2 1.20355 1.72099 12.5424
23 2 3.52043 0.258945 12.4214
24 2 4.50787 1.43379 9.94532
25 2 4.55697 4.0398 10.3089
26 2 2.20008 2.635 9.95614
27 2 3.56951 3.14789 12.4244
28 2 5.79739 2.05975 7.55435
29 2 3.45694 3.69136 7.45916
30 2 2.73807 2.00513 5.22754
31 2 3.36625 0.638749 7.36335
32 2 5.4077 3.93232 2.54547
33 2 2.69363 2.48626 2.66922
34 2 5.00376 0.409066 4.41699
35 2 5.11861 3.62393 5.13292
ITEM: TIMESTEP
10700
ITEM: NUMBER OF ATOMS
35
ITEM: BOX BOUNDS xy xz yz pp pp pp
0.0000000000000000e+00 7.6685730000000003e+00 2.5561910000000001e+00
0.0000000000000000e+00 4.4274529999999999e+00 0.0000000000000000e+00
0.0000000000000000e+00 3.1699265000000000e+01 0.0000000000000000e+00
ITEM: ATOMS id type x y z
1 1 4.12706 1.07892 26.831
2 1 1.43785 1.48859 26.3741
3 1 5.15061 4.36208 22.3158
4 1 2.52418 3.71261 26.3038
5 1 4.5182 0.0808805 20.3986
6 1 4.75314 3.86881 27.3608
7 1 2.62442 0.335299 24.6312
8 1 6.38048 2.98234 23.5395
9 1 0.800927 1.34547 19.0814
10 1 5.1452 0.400348 24.1682
11 1 3.93947 2.63515 24.4716
12 1 5.98873 1.79712 21.6629
13 1 4.56133 3.59884 19.4642
14 1 3.26468 2.64934 22.0118
15 1 3.09741 1.77634 19.3637
16 2 1.71655 0.551069 17.3014
17 2 2.71332 1.42215 15.0086
18 2 4.12283 2.15539 17.3347
19 2 6.85548 3.60282 17.5315
20 2 2.78729 4.38646 14.9267
21 2 5.53199 3.08513 15.0978
22 2 5.89998 1.71505 12.2178
23 2 3.49018 0.425504 12.5979
24 2 4.82941 0.98884 9.86951
25 2 4.6336 4.07797 9.79337
26 2 2.04296 2.37345 9.97846
27 2 3.51152 3.31266 12.661
28 2 5.84345 2.18979 7.23861
29 2 3.28462 3.66713 7.27198
30 2 2.68591 1.78948 5.40408
31 2 3.6515 0.46252 7.6273
32 2 2.43141 0.0857079 2.81256
33 2 3.14779 2.5039 3.04349
34 2 5.2119 0.853137 4.19471
35 2 5.64229 3.20587 4.90829
ITEM: TIMESTEP
10800
ITEM: NUMBER OF ATOMS
35
ITEM: BOX BOUNDS xy xz yz pp pp pp
0.0000000000000000e+00 7.6685730000000003e+00 2.5561910000000001e+00
0.0000000000000000e+00 4.4274529999999999e+00 0.0000000000000000e+00
0.0000000000000000e+00 3.1699265000000000e+01 0.0000000000000000e+00
ITEM: ATOMS id type x y z
1 1 3.49176 0.704678 26.603
2 1 0.62549 1.85671 26.6567
3 1 2.71429 0.460671 21.54
4 1 2.81242 3.26472 26.428
5 1 2.50798 4.04642 20.1762
6 1 4.77317 3.69957 28.0286
7 1 2.04814 -0.237972 24.9099
8 1 6.42997 2.85905 24.0209
9 1 5.18376 1.92076 19.0106
10 1 5.347 0.762561 23.5874
11 1 3.54597 2.01743 24.2547
12 1 5.52059 2.38516 21.688
13 1 4.74009 4.22822 19.406
14 1 3.25468 2.79295 22.1603
15 1 3.04367 1.68962 19.8241
16 2 1.607 0.898004 17.1744
17 2 2.92819 1.31035 14.6677
18 2 3.95181 2.0722 17.0894
19 2 6.77034 3.79374 17.6497
20 2 2.80812 4.42077 15.1938
21 2 5.62292 2.89053 15.2974
22 2 5.73485 1.9742 12.4378
23 2 3.3574 0.204285 12.2529
24 2 4.90426 0.641343 10.1364
25 2 4.72304 3.63188 9.7334
26 2 2.33178 2.5196 9.77748
27 2 3.33259 3.31328 12.462
28 2 5.79564 1.82549 7.58911
29 2 3.56908 3.66043 6.86688
30 2 2.87042 1.45215 5.50163
31 2 3.44231 0.531114 7.66668
32 2 2.61972 0.480858 2.59799
33 2 3.07562 2.877 3.28823
34 2 5.49419 0.741007 4.43544
35 2 5.89355 3.49695 4.89046
ITEM: TIMESTEP
10900
ITEM: NUMBER OF ATOMS
35
ITEM: BOX BOUNDS xy xz yz pp pp pp
0.0000000000000000e+00 7.6685730000000003e+00 2.5561910000000001e+00
0.0000000000000000e+00 4.4274529999999999e+00 0.0000000000000000e+00
0.0000000000000000e+00 3.1699265000000000e+01 0.0000000000000000e+00
ITEM: ATOMS id type x y z
1 1 3.32876 0.505917 26.4086
2 1 5.12577 1.95951 26.0959
3 1 2.53849 0.518576 22.5818
4 1 2.63135 3.12857 26.6066
5 1 4.36236 0.54889 20.9449
6 1 4.62418 3.66053 27.8876
7 1 4.10501 3.8876 24.8383
8 1 6.52992 2.87677 24.4899
9 1 6.1231 1.96734 19.7353
10 1 0.211577 0.650579 23.3319
11 1 3.45911 1.18635 24.4622
12 1 5.89714 2.71761 22.0687
13 1 4.55948 3.96812 19.293
14 1 3.21284 2.7623 22.0774
15 1 3.06172 2.14384 19.6784
16 2 1.3681 0.885552 17.1174
17 2 3.02881 1.39674 14.241
18 2 3.68827 2.37962 16.9647
19 2 6.63265 3.98985 17.6394
20 2 2.88131 4.36207 14.7296
21 2 5.59951 3.02086 14.9401
22 2 5.9302 1.72256 12.7098
23 2 3.08485 0.126748 11.9334
24 2 5.12214 0.816693 10.2829
25 2 4.79119 3.34228 9.86672
26 2 2.31603 2.04676 9.81893
27 2 3.24601 3.30821 12.383
28 2 5.95739 1.80916 7.61557
29 2 3.56857 3.5507 6.8022
30 2 2.99557 1.60331 5.30383
31 2 3.59124 0.331173 7.92493
32 2 3.38135 0.457127 2.59433
33 2 2.90796 3.2888 3.16322
34 2 5.48351 0.896172 4.84899
35 2 5.74302 3.38958 5.05423
ITEM: TIMESTEP
11000
ITEM: NUMBER OF ATOMS
35
ITEM: BOX BOUNDS xy xz yz pp pp pp
0.0000000000000000e+00 7.6685730000000003e+00 2.5561910000000001e+00
0.0000000000000000e+00 4.4274529999999999e+00 0.0000000000000000e+00
0.0000000000000000e+00 3.1699265000000000e+01 0.0000000000000000e+00
ITEM: ATOMS id type x y z
1 1 3.27807 0.327722 26.6877
2 1 5.44556 1.58515 25.8023
3 1 1.7967 0.283567 22.3159
4 1 1.94825 2.51441 26.6681
5 1 4.22978 0.196812 21.0924
6 1 4.00442 3.13937 27.8649
7 1 3.99925 3.78297 25.0541
8 1 6.73265 3.45167 24.2504
9 1 5.62264 1.81373 19.6319
10 1 4.89744 1.16551 23.4001
11 1 2.84183 1.45042 24.6191
12 1 6.17674 2.6473 21.961
13 1 4.58602 4.6667 19.8863
14 1 3.57277 2.61407 22.2871
15 1 3.30668 2.22728 19.0315
16 2 1.28003 1.02864 16.884
17 2 3.1123 1.49931 14.7613
18 2 3.83149 2.65858 16.8325
19 2 6.38217 4.25004 17.6766
20 2 2.84475 4.39347 14.5897
21 2 5.50577 3.28066 15.0105
22 2 5.85201 1.69401 12.4115
23 2 3.20786 0.0844594 12.0668
24 2 5.16357 0.297798 10.07
25 2 4.80215 3.26825 9.47906
26 2 2.33747 2.10289 9.92151
27 2 3.36937 2.91228 12.1366
28 2 6.14416 1.91542 7.25513
29 2 3.53512 3.44214 7.44482
30 2 2.92044 1.85496 5.36692
31 2 3.89952 0.370369 7.82794
32 2 3.43564 0.524792 3.17321
33 2 3.46708 3.42766 2.85571
34 2 5.58293 0.519371 4.98083
35 2 5.50225 3.41513 5.17126
ITEM: TIMESTEP
11100
ITEM: NUMBER OF ATOMS
35
ITEM: BOX BOUNDS xy xz yz pp pp pp
0.0000000000000000e+00 7.6685730000000003e+00 2.5561910000000001e+00
0.0000000000000000e+00 4.4274529999999999e+00 0.0000000000000000e+00
0.0000000000000000e+00 3.1699265000000000e+01 0.0000000000000000e+00
ITEM: ATOMS id type x y z
1 1 3.04871 0.174706 27.1238
2 1 5.20495 0.830854 25.8257
3 1 2.29107 0.00922482 22.5253
4 1 1.54092 2.42951 26.6002
5 1 4.90547 0.36663 20.6227
6 1 4.10565 2.35448 27.2849
7 1 4.06428 3.27701 25.2053
8 1 6.13794 3.78587 24.3534
9 1 4.99396 2.22985 19.0404
10 1 4.84494 1.56375 23.2793
11 1 1.87555 1.61443 24.4199
12 1 5.67703 2.57457 21.3898
13 1 2.0125 -0.218757 19.6937
14 1 3.08218 2.6993 21.9655
15 1 2.24697 2.64883 19.7229
16 2 1.26923 1.47899 17.0374
17 2 2.97265 1.58558 14.7116
18 2 3.92873 3.13009 17.1914
19 2 6.32648 4.4677 17.5467
20 2 0.426341 0.176749 14.5671
21 2 5.65778 3.02371 14.6814
22 2 6.05318 1.58236 12.3714
23 2 3.29179 -0.040967 12.3697
24 2 5.04405 0.316389 10.0132
25 2 5.24288 3.06911 10.0077
26 2 2.40423 1.64361 9.71468
27 2 3.48101 2.72404 12.3319
28 2 6.25341 1.79641 7.45425
29 2 3.5254 3.51994 7.69826
30 2 3.03815 2.17673 5.21434
31 2 3.62357 0.760208 7.24863
32 2 3.23165 0.788691 3.19321
33 2 4.27655 3.14232 2.87127
34 2 0.380081 0.323235 4.96583
35 2 5.43256 3.23381 5.25263
ITEM: TIMESTEP
11200
ITEM: NUMBER OF ATOMS
35
ITEM: BOX BOUNDS xy xz yz pp pp pp
0.0000000000000000e+00 7.6685730000000003e+00 2.5561910000000001e+00
0.0000000000000000e+00 4.4274529999999999e+00 0.0000000000000000e+00
0.0000000000000000e+00 3.1699265000000000e+01 0.0000000000000000e+00
ITEM: ATOMS id type x y z
1 1 1.84866 -0.0547355 27.0929
2 1 5.2549 0.0253494 26.0878
3 1 4.72022 4.71741 22.3489
4 1 1.54268 2.53023 26.5667
5 1 4.61375 0.296486 21.2046
6 1 4.24688 1.76453 27.2213
7 1 3.64597 2.95431 24.3048
8 1 6.19081 3.96715 24.4739
9 1 4.45671 1.80158 19.0145
10 1 4.70854 1.23177 23.1269
11 1 1.78782 1.42327 24.2686
12 1 5.35164 2.97616 20.897
13 1 4.44015 4.76177 19.5055
14 1 2.62643 2.72974 22.1885
15 1 2.30953 2.91413 19.2383
16 2 1.41224 1.94931 17.1039
17 2 3.08784 1.45831 14.9427
18 2 3.61216 3.6377 17.202
19 2 3.81315 0.244428 17.1916
20 2 0.546635 0.0619686 14.8468
21 2 5.69601 2.95112 14.7431
22 2 1.18932 1.12192 12.1781
23 2 6.17892 4.43183 12.5616
24 2 5.14618 0.135164 10.147
25 2 5.23421 3.05621 10.2524
26 2 2.77116 1.28826 9.85565
27 2 3.3135 2.98754 12.312
28 2 0.836156 2.07527 7.65285
29 2 3.70731 3.61219 7.95251
30 2 2.68287 2.21867 5.08603
31 2 3.58119 0.475692 7.28006
32 2 3.29887 0.638118 2.83918
33 2 4.77727 2.69381 2.90018
34 2 0.445827 0.808778 4.60491
35 2 5.49809 3.45839 5.32118
ITEM: TIMESTEP
11300
ITEM: NUMBER OF ATOMS
35
ITEM: BOX BOUNDS xy xz yz pp pp pp
0.0000000000000000e+00 7.6685730000000003e+00 2.5561910000000001e+00
0.0000000000000000e+00 4.4274529999999999e+00 0.0000000000000000e+00
0.0000000000000000e+00 3.1699265000000000e+01 0.0000000000000000e+00
ITEM: ATOMS id type x y z
1 1 5.32397 4.11741 26.735
2 1 4.67076 0.0270473 25.6964
3 1 1.24131 -0.071528 21.6901
4 1 1.26294 2.22864 27.0359
5 1 3.68641 0.875353 21.3991
6 1 3.52393 2.1395 26.2642
7 1 3.41175 3.0208 24.4208
8 1 5.89349 3.76449 23.9212
9 1 4.45086 1.8711 18.8715
10 1 4.89905 1.19054 23.3709
11 1 1.79258 1.09464 24.8102
12 1 5.60661 2.43756 21.4295
13 1 1.95746 0.858917 19.44
14 1 2.43256 2.47464 22.578
15 1 2.23298 3.59058 19.2312
16 2 1.33287 2.11849 17.2779
17 2 3.10544 1.65149 14.8165
18 2 3.94446 3.55443 17.2601
19 2 3.59121 0.394422 17.1975
20 2 3.17653 4.33953 14.7378
21 2 5.5484 2.86894 14.6968
22 2 1.20257 1.41713 12.5249
23 2 3.85479 0.121273 12.6085
24 2 2.78825 4.16574 9.92674
25 2 5.32084 2.8488 10.4555
26 2 2.66655 1.69026 9.79168
27 2 3.56093 2.66946 12.5203
28 2 6.05648 2.08497 7.8766
29 2 3.64476 3.5372 7.29514
30 2 2.68299 2.50914 5.02254
31 2 3.92585 0.430519 7.76455
32 2 3.16327 0.438054 2.75892
33 2 5.2063 2.3749 2.82191
34 2 0.4333 0.538133 4.67872
35 2 5.16324 3.97645 5.16815
ITEM: TIMESTEP
11400
ITEM: NUMBER OF ATOMS
35
ITEM: BOX BOUNDS xy xz yz pp pp pp
0.0000000000000000e+00 7.6685730000000003e+00 2.5561910000000001e+00
0.0000000000000000e+00 4.4274529999999999e+00 0.0000000000000000e+00
0.0000000000000000e+00 3.1699265000000000e+01 0.0000000000000000e+00
ITEM: ATOMS id type x y z
1 1 4.77997 4.02563 26.3294
2 1 5.02519 0.322288 25.9742
3 1 3.16771 4.18725 21.3909
4 1 6.01774 1.43146 27.4552
5 1 3.38622 0.151811 21.3803
6 1 3.24905 2.3836 26.9179
7 1 3.57925 3.67228 24.1735
8 1 5.54565 3.8204 23.3595
9 1 4.58662 1.8717 19.3354
10 1 4.82856 1.32895 23.8426
11 1 2.39181 1.34042 24.5025
12 1 5.0407 2.33483 21.7546
13 1 2.20797 1.19394 19.4696
14 1 2.01374 2.07127 22.5557
15 1 1.77255 3.76066 19.557
16 2 1.28157 1.88295 17.1468
17 2 2.81583 1.49612 14.9405
18 2 3.84581 3.37479 17.2712
19 2 4.00335 0.663319 17.1708
20 2 2.9761 4.56478 14.9686
21 2 5.48512 3.01808 14.8424
22 2 1.3426 1.38997 12.4665
23 2 3.81858 -0.0404229 12.3086
24 2 2.85853 4.53659 10.0194
25 2 5.3065 2.92819 9.99481
26 2 2.89012 1.23847 10.1225
27 2 3.93111 3.12308 12.4211
28 2 6.54676 1.89933 7.35669
29 2 3.72881 3.34845 7.16556
30 2 2.52723 2.10848 4.76542
31 2 3.7832 0.539208 7.57783
32 2 2.86663 0.700313 2.88141
33 2 5.70596 2.13577 2.851
34 2 -0.131775 1.09474 5.16446
35 2 5.65178 3.78004 5.37751
ITEM: TIMESTEP
11500
ITEM: NUMBER OF ATOMS
35
ITEM: BOX BOUNDS xy xz yz pp pp pp
0.0000000000000000e+00 7.6685730000000003e+00 2.5561910000000001e+00
0.0000000000000000e+00 4.4274529999999999e+00 0.0000000000000000e+00
0.0000000000000000e+00 3.1699265000000000e+01 0.0000000000000000e+00
ITEM: ATOMS id type x y z
1 1 4.60713 3.49036 26.2474
2 1 4.4877 0.0677761 26.5039
3 1 3.38882 4.57202 21.6408
4 1 0.749318 1.55436 27.5992
5 1 3.56358 -0.377822 21.5059
6 1 3.35968 2.21409 27.7318
7 1 3.3199 3.81486 23.688
8 1 5.91064 3.89854 24.2117
9 1 4.70227 1.96631 19.6124
10 1 4.89822 1.85117 24.3788
11 1 2.24813 1.86586 25.3514
12 1 4.26768 2.26548 21.5955
13 1 1.87425 0.709765 19.4438
14 1 1.92829 2.02886 22.0004
15 1 6.61566 3.29901 19.0746
16 2 1.50044 1.92546 17.0103
17 2 2.7398 1.47414 14.6973
18 2 3.82674 3.62004 17.3896
19 2 3.92876 0.567884 17.1399
20 2 0.115408 -0.00446319 14.7801
21 2 5.19741 3.21475 15.0968
22 2 1.28565 1.69527 12.3155
23 2 6.63813 4.26596 12.3821
24 2 0.46679 0.0894842 9.84943
25 2 5.47554 2.87107 9.19963
26 2 2.96346 1.47338 10.1427
27 2 4.02784 3.20224 12.3051
28 2 1.55478 1.61642 7.38081
29 2 3.63677 3.35218 7.57729
30 2 2.88498 2.3713 4.81262
31 2 3.98164 0.46202 7.76215
32 2 2.85696 0.451292 2.65012
33 2 5.69468 2.22035 2.90681
34 2 5.14312 0.85225 5.23393
35 2 5.34572 3.8711 5.27217
ITEM: TIMESTEP
11600
ITEM: NUMBER OF ATOMS
35
ITEM: BOX BOUNDS xy xz yz pp pp pp
0.0000000000000000e+00 7.6685730000000003e+00 2.5561910000000001e+00
0.0000000000000000e+00 4.4274529999999999e+00 0.0000000000000000e+00
0.0000000000000000e+00 3.1699265000000000e+01 0.0000000000000000e+00
ITEM: ATOMS id type x y z
1 1 3.73692 3.4296 26.2243
2 1 6.62583 4.06842 26.7691
3 1 0.384337 0.0375935 21.3702
4 1 5.90843 2.10163 27.1191
5 1 2.72219 0.352345 21.9632
6 1 3.62211 1.95888 28.421
7 1 3.53395 3.93626 23.965
8 1 6.0928 4.3683 24.2631
9 1 4.62451 1.55167 19.2783
10 1 4.84761 1.51685 24.8533
11 1 2.23627 1.81114 25.1266
12 1 4.5088 2.11237 22.6023
13 1 2.31121 0.412943 19.5734
14 1 1.89567 2.08769 22.7684
15 1 1.88516 3.07505 19.8148
16 2 1.50932 2.03342 16.8277
17 2 2.80177 1.6497 14.1935
18 2 3.79595 3.60267 17.4473
19 2 3.80795 0.653774 17.1238
20 2 2.69195 4.33694 14.6486
21 2 5.02729 2.96089 14.9504
22 2 1.11467 1.68778 12.2991
23 2 3.95686 0.132769 12.0969
24 2 3.24734 4.46422 10.1
25 2 5.82031 3.08564 9.82977
26 2 3.08537 1.79699 10.0532
27 2 4.06327 3.18472 12.2601
28 2 1.42973 1.50911 7.26899
29 2 3.7146 3.05459 7.31478
30 2 3.13471 2.26529 4.63649
31 2 3.98711 0.467007 7.57441
32 2 2.96246 0.473872 2.87784
33 2 5.50568 2.24928 3.16284
34 2 5.28461 0.436173 4.66386
35 2 5.22593 4.11518 5.3361
ITEM: TIMESTEP
11700
ITEM: NUMBER OF ATOMS
35
ITEM: BOX BOUNDS xy xz yz pp pp pp
0.0000000000000000e+00 7.6685730000000003e+00 2.5561910000000001e+00
0.0000000000000000e+00 4.4274529999999999e+00 0.0000000000000000e+00
0.0000000000000000e+00 3.1699265000000000e+01 0.0000000000000000e+00
ITEM: ATOMS id type x y z
1 1 3.678 3.89775 26.6552
2 1 6.00073 4.42318 26.5708
3 1 -0.0300205 0.0141526 21.6776
4 1 6.10262 1.61172 27.6452
5 1 2.68635 0.093 22.0458
6 1 3.39351 1.87593 27.858
7 1 3.38136 4.44414 24.1039
8 1 5.53477 3.94228 24.5619
9 1 5.02367 1.59398 19.7498
10 1 5.24218 1.83066 25.1234
11 1 2.77286 1.97079 25.2644
12 1 4.20168 2.11617 22.8588
13 1 2.89952 0.27754 19.1516
14 1 1.8314 2.51508 22.608
15 1 2.05282 2.8004 19.317
16 2 1.28984 2.12127 17.0895
17 2 2.85422 1.32393 14.4813
18 2 3.73927 3.35573 17.5261
19 2 3.81342 0.488349 16.9072
20 2 2.74273 4.50634 14.8413
21 2 5.32371 2.96638 14.6457
22 2 1.0313 1.67082 12.2325
23 2 3.62353 0.281297 12.1619
24 2 3.53653 4.85273 9.60728
25 2 5.77558 3.16385 9.8909
26 2 3.37487 1.81579 9.82336
27 2 3.66152 3.40168 12.4684
28 2 1.21687 1.75974 7.08688
29 2 3.82578 3.00361 7.40825
30 2 2.87438 2.01116 4.91446
31 2 4.00446 0.169114 7.6879
32 2 2.89423 0.687566 2.49056
33 2 5.7291 2.65316 2.99146
34 2 5.33906 0.307262 4.70466
35 2 5.5742 3.41441 5.32702
ITEM: TIMESTEP
11800
ITEM: NUMBER OF ATOMS
35
ITEM: BOX BOUNDS xy xz yz pp pp pp
0.0000000000000000e+00 7.6685730000000003e+00 2.5561910000000001e+00
0.0000000000000000e+00 4.4274529999999999e+00 0.0000000000000000e+00
0.0000000000000000e+00 3.1699265000000000e+01 0.0000000000000000e+00
ITEM: ATOMS id type x y z
1 1 3.62961 4.50192 26.1282
2 1 6.42781 3.57584 27.2672
3 1 5.10063 0.0977666 21.5444
4 1 1.00561 1.53353 28.2168
5 1 5.05903 3.95606 21.698
6 1 3.63391 2.48515 27.5137
7 1 2.81786 4.53127 23.6582
8 1 5.73257 4.37083 24.1528
9 1 5.13192 1.73037 19.4529
10 1 5.02721 2.15961 25.8946
11 1 2.30832 2.46642 25.1258
12 1 4.03846 2.19927 23.0738
13 1 2.67002 -0.0360218 19.6226
14 1 1.25007 1.90712 22.0041
15 1 2.79756 2.92926 19.8988
16 2 6.2086 1.85653 17.2932
17 2 2.62746 1.5203 15.0129
18 2 3.89759 3.28887 17.281
19 2 3.7937 0.544493 17.2051
20 2 3.09154 4.30117 14.9373
21 2 5.56413 2.94187 14.6467
22 2 5.95673 1.91434 12.1445
23 2 3.47495 0.447798 12.3362
24 2 1.09621 0.418001 9.69649
25 2 6.01798 3.19515 9.87934
26 2 3.48924 1.9418 9.85503
27 2 3.15759 3.2338 12.2532
28 2 1.31529 1.5609 7.2389
29 2 3.74843 3.21614 7.29892
30 2 2.9928 1.6215 5.09456
31 2 6.44145 4.48174 7.45534
32 2 2.90675 1.16569 2.66688
33 2 5.91402 2.47164 2.43233
34 2 0.512524 0.306799 4.49921
35 2 5.3748 3.32403 5.03849
ITEM: TIMESTEP
11900
ITEM: NUMBER OF ATOMS
35
ITEM: BOX BOUNDS xy xz yz pp pp pp
0.0000000000000000e+00 7.6685730000000003e+00 2.5561910000000001e+00
0.0000000000000000e+00 4.4274529999999999e+00 0.0000000000000000e+00
0.0000000000000000e+00 3.1699265000000000e+01 0.0000000000000000e+00
ITEM: ATOMS id type x y z
1 1 1.35213 0.252217 26.3572
2 1 6.65266 4.2562 26.9404
3 1 6.67202 4.31825 20.9875
4 1 0.526011 0.859638 28.0791
5 1 4.57324 3.89828 22.0862
6 1 3.42197 2.73475 27.7181
7 1 0.604294 0.493211 23.5952
8 1 3.28413 -0.0289589 24.2895
9 1 5.48362 1.71386 19.8223
10 1 4.7308 2.38807 25.1003
11 1 2.09574 2.60941 24.9647
12 1 3.50565 2.01372 23.2066
13 1 1.94014 0.0271503 19.585
14 1 1.79614 1.82061 21.9356
15 1 2.80531 2.37215 19.5169
16 2 1.51743 1.85433 17.3696
17 2 3.02134 1.58177 15.0688
18 2 3.94813 3.51689 17.1727
19 2 4.09698 0.145246 17.6514
20 2 0.209966 0.0913622 14.7193
21 2 5.38906 3.06806 14.8212
22 2 5.64728 1.75249 12.3951
23 2 3.11629 0.40718 12.5588
24 2 1.09693 0.145132 10.2614
25 2 6.33297 3.52289 9.82812
26 2 3.53429 1.67371 9.7794
27 2 3.14164 3.18662 12.4423
28 2 1.12669 1.57541 7.24493
29 2 3.90129 3.27242 7.26051
30 2 3.10911 1.81127 5.1791
31 2 3.83746 0.178402 7.09174
32 2 3.49394 1.29098 2.7005
33 2 5.8813 2.45881 2.50134
34 2 0.315086 0.0935087 3.95835
35 2 5.3683 3.20971 4.63566
ITEM: TIMESTEP
12000
ITEM: NUMBER OF ATOMS
35
ITEM: BOX BOUNDS xy xz yz pp pp pp
0.0000000000000000e+00 7.6685730000000003e+00 2.5561910000000001e+00
0.0000000000000000e+00 4.4274529999999999e+00 0.0000000000000000e+00
0.0000000000000000e+00 3.1699265000000000e+01 0.0000000000000000e+00
ITEM: ATOMS id type x y z
1 1 1.36935 0.207319 25.7194
2 1 3.92167 0.348666 26.2939
3 1 6.4974 4.4433 20.6416
4 1 4.96966 1.29339 28.1245
5 1 4.30527 3.89899 22.1267
6 1 3.14476 2.4558 27.2556
7 1 0.639574 0.749899 23.8597
8 1 5.59439 4.12334 23.7656
9 1 5.09367 2.25569 19.4701
10 1 4.96235 2.19446 25.599
11 1 2.43289 2.58401 25.1469
12 1 3.83535 1.67772 22.8613
13 1 3.89563 4.43166 19.7573
14 1 1.39834 2.02248 21.6351
15 1 2.83003 2.07309 19.526
16 2 1.59216 1.83426 17.1752
17 2 2.87686 1.57559 15.1054
18 2 4.29795 3.32882 17.2801
19 2 4.28128 0.18403 18.0606
20 2 5.43958 0.42454 15.0016
21 2 5.55955 3.2975 15.0585
22 2 5.42729 1.79878 12.5424
23 2 2.76523 0.0267192 12.4896
24 2 1.23036 0.282061 9.86174
25 2 6.34818 3.03443 9.67128
26 2 3.74204 1.66442 9.57029
27 2 2.90324 2.916 12.8555
28 2 6.10031 1.79217 7.37573
29 2 3.92895 3.43073 7.70315
30 2 2.5773 2.04703 5.03176
31 2 6.65845 4.38364 7.14106
32 2 3.58431 1.34992 2.47019
33 2 6.35006 2.41018 2.28803
34 2 3.14093 4.35541 3.81302
35 2 5.39894 3.34284 4.98869
ITEM: TIMESTEP
12100
ITEM: NUMBER OF ATOMS
35
ITEM: BOX BOUNDS xy xz yz pp pp pp
0.0000000000000000e+00 7.6685730000000003e+00 2.5561910000000001e+00
0.0000000000000000e+00 4.4274529999999999e+00 0.0000000000000000e+00
0.0000000000000000e+00 3.1699265000000000e+01 0.0000000000000000e+00
ITEM: ATOMS id type x y z
1 1 1.40731 -0.0470663 26.4301
2 1 3.99955 0.379519 25.8574
3 1 4.13585 0.139314 20.9005
4 1 5.014 1.53782 27.7833
5 1 3.78938 3.79542 21.4426
6 1 2.35597 2.56151 26.9627
7 1 0.699214 0.546265 23.7036
8 1 5.4231 3.54799 23.7769
9 1 5.39641 3.00073 19.9571
10 1 5.58917 2.41816 25.841
11 1 2.74715 2.31167 24.1375
12 1 3.51628 1.5976 22.3346
13 1 0.832126 0.106848 19.2337
14 1 6.13623 2.5868 21.9269
15 1 2.94537 2.32084 19.8573
16 2 1.51989 1.74446 17.5653
17 2 3.0601 1.76052 14.907
18 2 4.23738 3.19606 17.3814
19 2 3.91666 0.349946 17.7839
20 2 0.560713 0.179343 15.5537
21 2 5.87013 3.42334 14.9866
22 2 5.22296 1.38682 12.3798
23 2 2.5443 0.0926771 12.1907
24 2 1.17591 0.121422 9.9639
25 2 6.43795 3.00159 10.1467
26 2 3.84557 1.45415 9.95715
27 2 2.57648 3.02062 12.3159
28 2 1.51544 1.6125 7.40236
29 2 3.98674 3.19016 7.30899
30 2 2.5415 1.72867 5.05934
31 2 3.99674 0.429275 7.0232
32 2 3.73891 1.18912 2.93766
33 2 6.56249 2.73101 2.54585
34 2 0.677902 0.388293 3.8222
35 2 5.19529 3.30862 4.82723
ITEM: TIMESTEP
12200
ITEM: NUMBER OF ATOMS
35
ITEM: BOX BOUNDS xy xz yz pp pp pp
0.0000000000000000e+00 7.6685730000000003e+00 2.5561910000000001e+00
0.0000000000000000e+00 4.4274529999999999e+00 0.0000000000000000e+00
0.0000000000000000e+00 3.1699265000000000e+01 0.0000000000000000e+00
ITEM: ATOMS id type x y z
1 1 4.27913 4.25431 26.5287
2 1 3.52425 0.506843 25.7791
3 1 4.35143 0.0309458 20.6425
4 1 4.77176 1.11164 27.6587
5 1 3.90561 4.33923 21.8555
6 1 2.30076 2.49349 26.902
7 1 5.14483 0.360581 24.094
8 1 5.24865 4.41239 23.8461
9 1 5.26637 3.06049 19.4866
10 1 5.7477 2.4031 25.0444
11 1 2.88625 2.61784 24.5439
12 1 3.63269 1.52843 22.5819
13 1 0.863682 0.433034 18.7923
14 1 6.27358 2.16381 22.501
15 1 2.85992 1.94932 19.8817
16 2 1.70174 2.38209 17.5298
17 2 3.49659 1.86134 14.6785
18 2 4.13931 2.67889 17.1586
19 2 3.48695 0.23587 17.2654
20 2 0.660738 0.269989 15.3695
21 2 5.84909 3.21625 14.6464
22 2 4.9292 1.28169 12.743
23 2 2.42667 0.138575 12.4109
24 2 3.6346 4.14573 9.66402
25 2 6.11485 3.17084 9.72128
26 2 3.88401 1.49129 9.99344
27 2 2.62322 3.06011 12.376
28 2 1.57645 1.5777 7.84339
29 2 4.11251 3.24618 7.25416
30 2 2.78672 2.02189 5.29548
31 2 4.39667 0.226504 7.05544
32 2 3.50629 1.41865 2.74661
33 2 6.65247 3.14054 2.76537
34 2 0.614904 0.109102 4.57235
35 2 5.35659 2.91021 4.97162
ITEM: TIMESTEP
12300
ITEM: NUMBER OF ATOMS
35
ITEM: BOX BOUNDS xy xz yz pp pp pp
0.0000000000000000e+00 7.6685730000000003e+00 2.5561910000000001e+00
0.0000000000000000e+00 4.4274529999999999e+00 0.0000000000000000e+00
0.0000000000000000e+00 3.1699265000000000e+01 0.0000000000000000e+00
ITEM: ATOMS id type x y z
1 1 3.50161 3.76357 26.2889
2 1 3.18467 0.26521 25.996
3 1 6.77311 4.02162 20.6464
4 1 5.36281 1.57282 27.4632
5 1 1.49481 0.113179 21.3121
6 1 2.14768 2.35301 27.3404
7 1 4.98913 0.365198 24.1515
8 1 2.13924 0.228881 23.6572
9 1 4.83063 2.57995 19.7715
10 1 5.71483 2.37004 25.3179
11 1 3.41596 2.37046 24.4906
12 1 3.90144 2.10337 21.7326
13 1 0.557287 0.164013 18.3453
14 1 6.50096 2.81237 22.8479
15 1 2.52185 1.57516 19.7631
16 2 1.88038 2.41707 17.1408
17 2 3.16251 1.81184 14.7369
18 2 4.50377 2.74215 17.0489
19 2 3.25468 0.464422 17.0643
20 2 0.892352 0.433803 15.2197
21 2 6.04087 3.1992 14.5351
22 2 5.1618 1.5001 12.3144
23 2 2.25856 -0.00296667 12.5198
24 2 3.20316 4.36506 10.0302
25 2 5.86095 3.23154 9.88955
26 2 3.64581 1.44015 9.87371
27 2 2.53139 2.91547 12.3386
28 2 1.81781 1.58914 7.72944
29 2 4.54354 3.25977 7.52664
30 2 2.98532 1.49025 5.41372
31 2 6.93846 4.39106 7.26524
32 2 3.56983 1.63384 3.03378
33 2 6.52798 3.27317 2.82555
34 2 0.627683 0.198653 4.75252
35 2 5.61321 2.86054 5.15853
ITEM: TIMESTEP
12400
ITEM: NUMBER OF ATOMS
35
ITEM: BOX BOUNDS xy xz yz pp pp pp
0.0000000000000000e+00 7.6685730000000003e+00 2.5561910000000001e+00
0.0000000000000000e+00 4.4274529999999999e+00 0.0000000000000000e+00
0.0000000000000000e+00 3.1699265000000000e+01 0.0000000000000000e+00
ITEM: ATOMS id type x y z
1 1 3.46403 4.2721 25.9087
2 1 3.13312 0.352351 25.9348
3 1 6.54999 3.72331 20.1882
4 1 4.73484 1.42879 27.2631
5 1 1.22174 0.608792 21.3009
6 1 2.47539 2.4483 27.4303
7 1 4.64517 0.243666 24.163
8 1 2.06561 -0.0033511 23.588
9 1 4.9366 2.20667 19.5254
10 1 6.29834 2.18585 25.0938
11 1 3.45138 2.41198 24.1614
12 1 3.64195 2.08032 21.6423
13 1 0.795298 -0.0232255 18.7143
14 1 6.5945 2.8936 22.4437
15 1 2.37588 1.48042 19.3649
16 2 2.02563 2.62342 17.095
17 2 3.4559 1.7682 14.3903
18 2 4.44792 2.7768 16.7991
19 2 3.50743 0.421465 17.3798
20 2 0.66694 0.221736 15.137
21 2 5.97894 3.43077 14.7391
22 2 4.87685 1.55006 12.3045
23 2 2.38795 0.012737 12.4291
24 2 3.32306 4.61635 10.0583
25 2 5.70868 3.13151 10.2448
26 2 2.9733 1.65051 9.90037
27 2 2.43512 2.91669 12.1772
28 2 1.69582 1.51516 7.66069
29 2 4.41146 3.07627 7.72953
30 2 3.26337 1.06467 5.5877
31 2 7.24428 4.46415 7.68471
32 2 3.85484 1.83752 3.21675
33 2 6.32676 3.35447 2.94121
34 2 0.945839 0.0427788 4.3482
35 2 5.719 2.86166 5.43745
ITEM: TIMESTEP
12500
ITEM: NUMBER OF ATOMS
35
ITEM: BOX BOUNDS xy xz yz pp pp pp
0.0000000000000000e+00 7.6685730000000003e+00 2.5561910000000001e+00
0.0000000000000000e+00 4.4274529999999999e+00 0.0000000000000000e+00
0.0000000000000000e+00 3.1699265000000000e+01 0.0000000000000000e+00
ITEM: ATOMS id type x y z
1 1 3.59617 3.96901 26.0288
2 1 3.39296 0.114393 25.6315
3 1 6.56096 4.16108 19.873
4 1 4.91815 1.87062 26.4255
5 1 0.575556 0.0675707 21.282
6 1 6.75522 3.05143 27.17
7 1 4.822 0.256416 23.3074
8 1 2.25786 0.322787 23.2732
9 1 5.22164 2.02633 19.2184
10 1 6.34697 2.16968 24.4565
11 1 3.79332 2.32124 24.4096
12 1 3.6094 1.93188 22.2271
13 1 3.81869 4.19753 18.6926
14 1 5.81049 2.85268 22.0981
15 1 2.36531 1.91902 19.9928
16 2 1.79057 2.08889 17.1198
17 2 3.33904 1.9295 14.7699
18 2 4.56962 2.8388 16.8222
19 2 3.7041 0.429796 17.5838
20 2 0.82145 0.432503 15.2413
21 2 6.03298 3.44541 14.4817
22 2 4.87821 1.21768 12.314
23 2 2.14334 0.137702 12.5125
24 2 0.690407 0.430375 10.1005
25 2 5.58643 3.18791 9.99863
26 2 3.14496 1.88898 10.027
27 2 2.35041 3.14813 12.4384
28 2 1.69206 1.34275 7.60317
29 2 4.20265 2.91571 7.72252
30 2 3.64377 1.12114 5.55445
31 2 6.71488 4.29144 7.8157
32 2 4.01454 1.96756 3.10367
33 2 6.27883 3.44691 3.2108
34 2 3.85334 4.37178 4.42779
35 2 5.87046 2.53028 5.33874
ITEM: TIMESTEP
12600
ITEM: NUMBER OF ATOMS
35
ITEM: BOX BOUNDS xy xz yz pp pp pp
0.0000000000000000e+00 7.6685730000000003e+00 2.5561910000000001e+00
0.0000000000000000e+00 4.4274529999999999e+00 0.0000000000000000e+00
0.0000000000000000e+00 3.1699265000000000e+01 0.0000000000000000e+00
ITEM: ATOMS id type x y z
1 1 3.60681 4.62013 25.906
2 1 3.27683 -0.00135497 25.1912
3 1 5.73936 4.54583 19.7914
4 1 4.87029 1.98907 26.6446
5 1 3.89817 4.37406 21.1714
6 1 6.83829 3.32032 26.8827
7 1 2.55462 4.07865 23.8553
8 1 2.40808 0.0592933 23.0459
9 1 4.68137 2.23968 19.6416
10 1 6.15584 2.24591 24.1051
11 1 4.00155 2.13569 24.0632
12 1 2.88829 2.08427 21.9337
13 1 3.37769 4.28018 18.9991
14 1 5.7783 2.78218 21.5665
15 1 2.4472 2.23978 19.6431
16 2 2.01115 1.75736 17.584
17 2 3.17481 1.93215 14.8762
18 2 4.37683 3.19779 17.0922
19 2 4.35097 0.0901665 17.2042
20 2 0.817498 0.496737 15.2251
21 2 5.93352 3.42587 14.799
22 2 4.59905 1.73699 12.6577
23 2 2.01271 0.0657145 12.487
24 2 0.482546 0.455016 9.93497
25 2 5.78405 3.5738 10.3585
26 2 3.34731 2.06239 10.0076
27 2 2.26132 2.79683 12.2627
28 2 1.56781 1.08232 7.7934
29 2 3.9003 2.73464 7.24327
30 2 3.8527 0.938257 5.35724
31 2 6.46387 3.914 7.72903
32 2 3.86755 1.90866 3.02273
33 2 6.71645 3.83924 2.88452
34 2 3.85212 4.30336 4.79876
35 2 6.41373 2.53337 5.44634
ITEM: TIMESTEP
12700
ITEM: NUMBER OF ATOMS
35
ITEM: BOX BOUNDS xy xz yz pp pp pp
0.0000000000000000e+00 7.6685730000000003e+00 2.5561910000000001e+00
0.0000000000000000e+00 4.4274529999999999e+00 0.0000000000000000e+00
0.0000000000000000e+00 3.1699265000000000e+01 0.0000000000000000e+00
ITEM: ATOMS id type x y z
1 1 0.641755 0.644085 26.0726
2 1 3.18139 0.0916791 26.007
3 1 2.88447 0.290714 19.0382
4 1 4.4551 2.59897 26.5972
5 1 0.978383 0.109195 21.492
6 1 2.43002 2.67839 26.2299
7 1 2.58941 4.39693 23.6
8 1 5.31129 4.00368 23.6283
9 1 4.08406 2.40012 19.5602
10 1 1.79141 1.95683 24.1776
11 1 4.05148 2.10216 24.3873
12 1 3.51521 1.65647 22.0365
13 1 0.811162 0.869607 19.3013
14 1 5.46793 2.51251 22.1167
15 1 1.74921 2.95059 20.118
16 2 1.98273 1.48939 17.1978
17 2 3.22996 2.07283 15.0738
18 2 4.51926 3.00187 17.3557
19 2 7.09768 4.31749 17.0625
20 2 0.689103 0.609242 14.6761
21 2 5.72559 3.54513 14.8676
22 2 4.58087 1.45835 12.6242
23 2 1.88791 -0.0365989 12.5913
24 2 0.56326 0.564805 10.2891
25 2 5.5181 3.74068 10.1035
26 2 3.24986 2.07607 9.76133
27 2 1.849 2.86547 12.5803
28 2 1.20238 1.09065 7.48639
29 2 4.03374 2.66276 7.33645
30 2 4.00618 0.69253 5.354
31 2 6.71646 3.97505 7.83901
32 2 3.84611 2.29609 3.12185
33 2 6.90787 3.89193 2.84333
34 2 4.06987 3.99096 4.89035
35 2 1.79546 2.42286 5.0351
ITEM: TIMESTEP
12800
ITEM: NUMBER OF ATOMS
35
ITEM: BOX BOUNDS xy xz yz pp pp pp
0.0000000000000000e+00 7.6685730000000003e+00 2.5561910000000001e+00
0.0000000000000000e+00 4.4274529999999999e+00 0.0000000000000000e+00
0.0000000000000000e+00 3.1699265000000000e+01 0.0000000000000000e+00
ITEM: ATOMS id type x y z
1 1 0.720633 0.552736 26.172
2 1 3.5901 0.708101 27.0657
3 1 2.66454 0.607995 19.366
4 1 4.70617 3.0317 26.8835
5 1 3.80774 4.12322 21.9041
6 1 2.07262 2.43968 25.9252
7 1 2.63954 3.87571 24.0786
8 1 2.77915 0.197275 24.8217
9 1 3.63316 2.66454 19.787
10 1 1.6467 1.93182 23.5594
11 1 4.38903 2.24182 24.3874
12 1 3.27614 0.582604 22.0117
13 1 5.33261 1.12887 19.5819
14 1 5.29366 2.32478 21.7622
15 1 6.59776 3.27494 20.0838
16 2 1.85145 1.43837 17.0045
17 2 3.32982 2.29665 14.673
18 2 4.64062 2.70955 17.3797
19 2 7.2933 4.28078 17.4044
20 2 0.484677 0.74071 14.8352
21 2 5.63305 3.75212 14.9287
22 2 4.00478 1.26078 12.1999
23 2 4.47214 4.16817 12.3403
24 2 0.555404 0.791978 10.0531
25 2 5.35081 3.37846 9.87336
26 2 2.83559 2.06609 10.028
27 2 1.85221 2.8759 12.4594
28 2 1.68773 1.12435 7.52444
29 2 4.43276 2.70539 7.44616
30 2 4.34744 0.914965 5.36056
31 2 6.71968 4.16177 7.66323
32 2 4.25562 2.2076 2.96171
33 2 6.61214 4.08662 3.03372
34 2 4.51163 3.92098 5.10754
35 2 1.51407 2.12495 4.74958
ITEM: TIMESTEP
12900
ITEM: NUMBER OF ATOMS
35
ITEM: BOX BOUNDS xy xz yz pp pp pp
0.0000000000000000e+00 7.6685730000000003e+00 2.5561910000000001e+00
0.0000000000000000e+00 4.4274529999999999e+00 0.0000000000000000e+00
0.0000000000000000e+00 3.1699265000000000e+01 0.0000000000000000e+00
ITEM: ATOMS id type x y z
1 1 0.906019 0.818524 26.4611
2 1 3.40624 1.25868 27.6863
3 1 2.59118 0.909202 19.6712
4 1 4.97596 2.74047 26.661
5 1 3.45626 4.24076 21.7322
6 1 2.16006 2.75125 26.3441
7 1 2.65493 4.28536 24.3104
8 1 3.01013 0.106509 25.2599
9 1 3.82262 3.1122 19.6927
10 1 1.86778 1.60461 23.2794
11 1 4.43406 2.06684 24.4548
12 1 3.41394 -0.45173 22.2222
13 1 4.75428 0.784729 20.0056
14 1 4.42255 2.28566 22.1961
15 1 6.08583 2.96031 19.7261
16 2 2.25913 1.47832 17.0282
17 2 3.06263 2.4196 14.6594
18 2 4.55339 2.74112 17.1852
19 2 7.17127 4.11412 17.5332
20 2 0.471414 0.809573 14.6397
21 2 5.77215 3.97832 15.1183
22 2 4.20538 1.11896 12.2488
23 2 3.94906 4.13466 12.3191
24 2 0.158665 0.358331 9.643
25 2 5.48802 3.49819 10.0126
26 2 2.83003 2.12732 9.87113
27 2 1.45249 2.77902 12.2816
28 2 2.24079 1.22291 7.45483
29 2 4.39204 2.61012 7.66386
30 2 4.47512 1.05215 5.30104
31 2 7.09339 3.90863 7.36319
32 2 4.45758 2.51253 2.79444
33 2 6.5184 4.18091 3.08334
34 2 4.25535 3.80211 5.12293
35 2 1.99572 2.23389 4.89031
ITEM: TIMESTEP
13000
ITEM: NUMBER OF ATOMS
35
ITEM: BOX BOUNDS xy xz yz pp pp pp
0.0000000000000000e+00 7.6685730000000003e+00 2.5561910000000001e+00
0.0000000000000000e+00 4.4274529999999999e+00 0.0000000000000000e+00
0.0000000000000000e+00 3.1699265000000000e+01 0.0000000000000000e+00
ITEM: ATOMS id type x y z
1 1 0.716563 0.695488 26.8521
2 1 3.39249 0.661345 27.3329
3 1 2.21512 0.564453 19.9628
4 1 4.79132 3.2291 27.2967
5 1 0.910857 0.291732 21.9691
6 1 2.39284 3.10912 26.0927
7 1 3.13096 4.16035 24.0732
8 1 2.94062 0.490233 25.1134
9 1 3.33673 3.18701 19.289
10 1 1.95663 1.65479 23.5588
11 1 4.69796 2.32414 24.9784
12 1 6.03441 3.39243 22.7161
13 1 4.49793 0.742716 19.7888
14 1 3.79319 1.47798 21.8396
15 1 5.72841 3.03186 19.5573
16 2 2.02258 1.11983 17.3055
17 2 2.92913 2.61458 14.6686
18 2 4.72103 2.70104 17.0813
19 2 7.22048 4.36846 17.3979
20 2 0.68718 1.06438 14.93
21 2 5.75425 4.07503 14.8413
22 2 3.92586 1.11732 12.2921
23 2 3.97994 4.17304 12.2672
24 2 5.39537 0.467386 9.78031
25 2 5.27418 3.66898 9.99453
26 2 2.908 1.89575 10.0531
27 2 6.26401 2.54317 12.487
28 2 1.97685 0.672686 7.41915
29 2 4.84613 2.46267 7.58968
30 2 4.74719 1.28218 5.22281
31 2 2.04956 3.5098 7.04789
32 2 4.36934 2.73651 2.86254
33 2 6.66382 4.34209 3.05431
34 2 4.44821 4.12653 5.02541
35 2 2.23198 2.30111 4.64132
ITEM: TIMESTEP
13100
ITEM: NUMBER OF ATOMS
35
ITEM: BOX BOUNDS xy xz yz pp pp pp
0.0000000000000000e+00 7.6685730000000003e+00 2.5561910000000001e+00
0.0000000000000000e+00 4.4274529999999999e+00 0.0000000000000000e+00
0.0000000000000000e+00 3.1699265000000000e+01 0.0000000000000000e+00
ITEM: ATOMS id type x y z
1 1 1.15326 0.942766 27.1395
2 1 3.63744 0.724898 27.1985
3 1 1.69873 0.549953 20.2649
4 1 4.31396 3.01475 27.4984
5 1 0.467193 0.163077 22.1519
6 1 2.2755 2.71313 26.2832
7 1 3.30083 4.27947 24.5094
8 1 3.39462 0.0339247 24.7568
9 1 3.14779 2.51993 19.4672
10 1 2.08112 1.91439 23.6423
11 1 4.76164 2.24448 24.93
12 1 5.27337 3.67774 22.528
13 1 4.64626 0.89346 19.1867
14 1 3.38143 1.57807 21.837
15 1 5.97281 3.07082 19.3524
16 2 1.98978 1.04178 17.6841
17 2 3.36571 2.71559 14.8515
18 2 4.66029 2.8745 17.0381
19 2 6.95444 4.28839 16.9284
20 2 0.711621 1.21289 15.0602
21 2 5.55995 4.28629 14.661
22 2 3.63701 1.15771 12.5063
23 2 3.78706 4.01032 12.4194
24 2 5.44675 0.642067 10.0121
25 2 5.38878 3.30235 9.91943
26 2 2.56989 2.28188 9.84538
27 2 6.3625 2.45111 12.4485
28 2 2.13443 0.544607 7.63611
29 2 4.66586 1.84094 7.79713
30 2 4.91803 1.36366 5.25217
31 2 2.23108 3.39861 7.12606
32 2 4.28978 2.74075 2.6946
33 2 6.97633 4.72249 2.86256
34 2 5.14479 4.23165 4.98175
35 2 1.98277 2.37793 4.12301
ITEM: TIMESTEP
13200
ITEM: NUMBER OF ATOMS
35
ITEM: BOX BOUNDS xy xz yz pp pp pp
0.0000000000000000e+00 7.6685730000000003e+00 2.5561910000000001e+00
0.0000000000000000e+00 4.4274529999999999e+00 0.0000000000000000e+00
0.0000000000000000e+00 3.1699265000000000e+01 0.0000000000000000e+00
ITEM: ATOMS id type x y z
1 1 1.063 0.713906 27.3667
2 1 3.67042 0.551789 26.7321
3 1 1.96787 0.751815 20.7606
4 1 5.30918 2.5205 27.0187
5 1 6.9911 4.40977 22.6954
6 1 2.09527 2.8473 26.1218
7 1 1.1616 0.430186 25.1939
8 1 6.00419 4.04266 24.6653
9 1 3.21535 3.35751 19.6419
10 1 1.7127 2.1582 23.8031
11 1 4.13232 2.05842 24.5755
12 1 5.11453 3.31157 22.5956
13 1 4.79645 0.83984 19.075
14 1 3.34005 1.98524 21.6099
15 1 5.98546 2.97054 19.7845
16 2 2.02858 1.35315 17.4485
17 2 3.27826 2.47407 14.9313
18 2 4.30719 2.93147 17.5641
19 2 7.00377 3.84029 16.7663
20 2 5.8752 1.47221 14.9205
21 2 5.61011 4.29442 14.4684
22 2 3.83055 1.23381 12.1485
23 2 3.4304 3.87508 12.6027
24 2 5.15631 0.41913 10.2011
25 2 5.21239 3.80929 10.1367
26 2 2.71603 2.21307 9.69653
27 2 6.27761 2.51652 12.5154
28 2 2.20095 0.367389 7.62846
29 2 4.65954 1.65997 7.96473
30 2 4.87446 1.16997 5.34075
31 2 2.3879 3.16888 6.92015
32 2 4.47197 3.42547 2.58604
33 2 4.89355 0.460574 2.63183
34 2 5.09198 3.97297 5.19484
35 2 2.24228 2.32976 3.86704
ITEM: TIMESTEP
13300
ITEM: NUMBER OF ATOMS
35
ITEM: BOX BOUNDS xy xz yz pp pp pp
0.0000000000000000e+00 7.6685730000000003e+00 2.5561910000000001e+00
0.0000000000000000e+00 4.4274529999999999e+00 0.0000000000000000e+00
0.0000000000000000e+00 3.1699265000000000e+01 0.0000000000000000e+00
ITEM: ATOMS id type x y z
1 1 1.42714 -0.343221 27.8154
2 1 3.80658 0.672401 27.2709
3 1 1.83809 0.880715 20.4501
4 1 5.08709 2.70021 26.5933
5 1 5.15512 0.353194 22.0813
6 1 2.56676 2.72117 25.8942
7 1 0.300484 0.324572 25.3224
8 1 5.47827 4.27565 24.7227
9 1 3.14162 3.06412 19.7433
10 1 1.53758 1.58307 23.2881
11 1 4.3413 1.7461 24.0012
12 1 5.31755 3.94287 22.4434
13 1 4.1424 0.857632 19.526
14 1 3.31392 2.11606 21.9837
15 1 5.65052 3.26661 20.1915
16 2 1.9632 1.17516 17.6524
17 2 3.1651 2.45317 14.974
18 2 4.54805 3.04682 17.3936
19 2 6.95219 4.3294 17.0303
20 2 5.5816 1.26697 15.1508
21 2 5.67475 4.08753 14.4671
22 2 3.57493 1.36926 12.2735
23 2 3.46986 4.22312 12.7772
24 2 5.11709 0.354997 9.77203
25 2 5.03409 3.81763 10.5213
26 2 2.55108 2.15272 9.68136
27 2 6.22186 2.33915 12.1343
28 2 2.01297 0.000190677 7.73013
29 2 5.20996 2.05996 7.66445
30 2 4.99939 0.913788 5.29894
31 2 2.31071 2.78805 6.60308
32 2 5.21113 4.14354 2.63541
33 2 4.96783 0.740954 2.95292
34 2 4.72815 3.60074 5.17204
35 2 2.57076 2.25101 3.75879
ITEM: TIMESTEP
13400
ITEM: NUMBER OF ATOMS
35
ITEM: BOX BOUNDS xy xz yz pp pp pp
0.0000000000000000e+00 7.6685730000000003e+00 2.5561910000000001e+00
0.0000000000000000e+00 4.4274529999999999e+00 0.0000000000000000e+00
0.0000000000000000e+00 3.1699265000000000e+01 0.0000000000000000e+00
ITEM: ATOMS id type x y z
1 1 3.61728 3.77334 27.3254
2 1 3.91252 -0.0690974 27.4884
3 1 1.53645 1.29224 20.5454
4 1 5.0306 2.49934 26.3027
5 1 5.33927 -0.0859691 22.088
6 1 2.50601 2.06898 25.9257
7 1 5.43509 0.0420194 25.3302
8 1 2.8953 0.0320781 25.1493
9 1 2.97995 3.21188 18.666
10 1 1.55013 1.79178 23.5696
11 1 3.99176 2.45261 23.895
12 1 5.26796 4.48819 22.1998
13 1 4.66588 0.677411 19.916
14 1 3.66541 2.36146 21.2061
15 1 5.20363 2.93717 19.5997
16 2 1.74536 1.34995 17.7214
17 2 2.73787 2.53627 15.2238
18 2 4.77733 2.90398 17.0387
19 2 4.26572 0.319299 17.4823
20 2 5.75462 0.949114 15.146
21 2 5.64253 3.90332 14.8567
22 2 3.81095 1.28177 12.5135
23 2 3.27269 4.05361 12.6759
24 2 4.61441 0.519156 9.81659
25 2 4.65489 3.64883 10.4022
26 2 2.54546 2.24712 9.4842
27 2 6.47068 2.41047 12.153
28 2 2.28062 0.30283 7.83615
29 2 5.083 1.97045 7.78812
30 2 4.77191 0.456339 5.57404
31 2 2.52905 2.37795 6.43291
32 2 5.57473 4.2744 2.63854
33 2 5.54324 1.34799 2.85015
34 2 4.85961 3.67449 4.97598
35 2 2.59143 2.40087 3.77804
ITEM: TIMESTEP
13500
ITEM: NUMBER OF ATOMS
35
ITEM: BOX BOUNDS xy xz yz pp pp pp
0.0000000000000000e+00 7.6685730000000003e+00 2.5561910000000001e+00
0.0000000000000000e+00 4.4274529999999999e+00 0.0000000000000000e+00
0.0000000000000000e+00 3.1699265000000000e+01 0.0000000000000000e+00
ITEM: ATOMS id type x y z
1 1 3.5711 4.23089 27.1358
2 1 5.97916 3.9778 26.9744
3 1 1.45826 1.7322 21.0169
4 1 5.06303 1.60477 26.2401
5 1 0.0100816 0.270662 22.518
6 1 2.39067 1.84795 26.2044
7 1 2.93837 4.56921 24.8347
8 1 5.56041 4.14545 24.6833
9 1 3.13761 2.98228 19.0726
10 1 1.48329 2.29308 23.5255
11 1 4.09707 2.30328 23.6914
12 1 5.44992 4.08243 22.4502
13 1 4.53333 0.49242 20.3529
14 1 4.04743 2.73891 21.4522
15 1 5.45431 3.312 19.2238
16 2 1.61783 1.19357 17.6469
17 2 2.70516 2.41314 15.4089
18 2 4.77695 3.00768 16.7823
19 2 4.12198 0.389141 17.3187
20 2 0.428361 0.752577 14.9261
21 2 5.57407 4.0983 14.5491
22 2 3.74014 1.1141 12.7191
23 2 3.69441 3.73869 12.7423
24 2 4.56705 0.621944 10.3987
25 2 4.5861 3.76856 10.3462
26 2 2.13369 2.46136 9.54618
27 2 6.20203 2.39708 12.2246
28 2 2.38645 -0.105998 7.7584
29 2 4.92198 1.84476 7.86841
30 2 4.7533 0.673375 5.32532
31 2 2.48463 2.32024 6.31473
32 2 5.84131 4.31515 2.54995
33 2 5.7719 1.44829 3.10098
34 2 4.95445 3.67637 5.1622
35 2 3.10521 2.86044 3.6401
ITEM: TIMESTEP
13600
ITEM: NUMBER OF ATOMS
35
ITEM: BOX BOUNDS xy xz yz pp pp pp
0.0000000000000000e+00 7.6685730000000003e+00 2.5561910000000001e+00
0.0000000000000000e+00 4.4274529999999999e+00 0.0000000000000000e+00
0.0000000000000000e+00 3.1699265000000000e+01 0.0000000000000000e+00
ITEM: ATOMS id type x y z
1 1 3.50661 4.33318 26.7845
2 1 6.38096 3.94 26.767
3 1 1.641 2.21536 21.2501
4 1 4.35289 2.09922 26.7395
5 1 0.590964 0.405687 22.3689
6 1 2.12343 1.90972 25.9368
7 1 2.94433 3.58364 24.5469
8 1 5.47625 4.04547 24.455
9 1 2.90152 2.81168 19.0164
10 1 1.76262 2.00531 23.679
11 1 4.51817 1.57194 24.3624
12 1 5.73431 4.92612 21.8204
13 1 4.47307 0.862732 19.5181
14 1 3.79904 2.77534 21.6308
15 1 5.42974 3.20874 19.4039
16 2 1.61528 1.17234 17.9224
17 2 2.51791 2.19053 15.233
18 2 4.419 3.11189 16.9328
19 2 4.42146 -0.0643465 17.2865
20 2 5.29712 1.12728 14.8422
21 2 5.57956 3.75354 14.6324
22 2 3.29294 1.20354 12.5144
23 2 3.40297 3.82829 12.8127
24 2 4.82728 0.837721 10.378
25 2 4.75029 3.9262 10.3259
26 2 1.9578 2.40424 9.50782
27 2 6.17099 2.20475 12.346
28 2 4.92496 4.4274 7.82454
29 2 4.797 1.02652 7.98769
30 2 4.92038 0.843604 5.53989
31 2 2.11843 2.58472 6.22567
32 2 6.1246 4.50843 2.82894
33 2 6.16963 1.47069 3.18074
34 2 5.17049 3.72706 5.21938
35 2 3.39565 3.09292 3.17313
ITEM: TIMESTEP
13700
ITEM: NUMBER OF ATOMS
35
ITEM: BOX BOUNDS xy xz yz pp pp pp
0.0000000000000000e+00 7.6685730000000003e+00 2.5561910000000001e+00
0.0000000000000000e+00 4.4274529999999999e+00 0.0000000000000000e+00
0.0000000000000000e+00 3.1699265000000000e+01 0.0000000000000000e+00
ITEM: ATOMS id type x y z
1 1 3.51983 4.08798 26.843
2 1 5.87479 4.32026 26.2907
3 1 6.58601 2.43969 20.8192
4 1 4.44396 2.14141 27.0628
5 1 0.480587 -0.00273964 21.8437
6 1 2.00905 2.24873 25.8319
7 1 3.2222 3.53488 24.361
8 1 5.59397 3.93489 23.9709
9 1 3.11323 3.60011 20.0444
10 1 2.23355 1.59042 23.1406
11 1 4.76446 1.16686 24.8001
12 1 3.17202 0.477605 21.5761
13 1 4.58357 1.46204 19.4856
14 1 4.66681 2.57908 22.481
15 1 5.36847 4.12256 19.3137
16 2 1.71592 1.34374 17.8876
17 2 2.63705 1.96267 15.1875
18 2 4.18899 2.74608 17.2683
19 2 6.68635 3.9492 16.9078
20 2 5.13613 0.957327 15.0504
21 2 5.21961 3.84562 14.7366
22 2 3.08431 0.9377 12.4312
23 2 2.88074 3.9111 12.8407
24 2 4.98764 0.621277 10.5552
25 2 4.76078 3.84288 10.3586
26 2 2.47554 2.52275 9.40007
27 2 5.75718 2.61835 12.2975
28 2 4.52577 4.23044 7.66474
29 2 4.62276 0.780795 7.93406
30 2 4.9741 0.969859 5.23311
31 2 2.45986 2.48831 6.37875
32 2 4.00635 0.342549 3.1052
33 2 1.52647 1.76384 3.31828
34 2 4.87112 3.93287 5.22051
35 2 3.73848 3.10527 3.0837
ITEM: TIMESTEP
13800
ITEM: NUMBER OF ATOMS
35
ITEM: BOX BOUNDS xy xz yz pp pp pp
0.0000000000000000e+00 7.6685730000000003e+00 2.5561910000000001e+00
0.0000000000000000e+00 4.4274529999999999e+00 0.0000000000000000e+00
0.0000000000000000e+00 3.1699265000000000e+01 0.0000000000000000e+00
ITEM: ATOMS id type x y z
1 1 2.68623 4.0929 26.6577
2 1 2.5672 0.222967 26.228
3 1 1.8361 1.76237 20.8721
4 1 4.9029 2.01395 27.1521
5 1 3.1879 4.16061 22.3126
6 1 1.83772 2.41432 25.7264
7 1 4.19699 3.69882 24.7011
8 1 6.34962 3.85285 23.5557
9 1 3.1753 4.20527 19.0467
10 1 2.10271 1.78753 23.521
11 1 5.04092 1.56252 24.9181
12 1 3.21347 -0.181974 21.5667
13 1 4.49734 2.14892 19.9854
14 1 4.68912 2.06543 22.3594
15 1 6.19436 4.50159 19.2751
16 2 1.55716 1.2874 17.6136
17 2 2.4638 2.34734 14.9036
18 2 3.99416 2.43873 17.3856
19 2 6.37506 3.91574 16.9473
20 2 5.33179 0.872901 15.3773
21 2 4.69816 3.62194 14.9165
22 2 2.51817 1.12083 12.4528
23 2 2.9106 3.75265 12.718
24 2 5.09938 0.707467 10.3963
25 2 5.13972 3.66946 10.0524
26 2 2.47637 2.18727 9.54196
27 2 5.39478 2.46279 12.5889
28 2 4.17925 3.70964 7.77677
29 2 4.36506 1.0216 7.9039
30 2 5.06375 1.24558 5.44872
31 2 2.4315 2.35723 6.26928
32 2 4.33502 0.324067 2.61888
33 2 1.76145 2.09759 3.61646
34 2 5.13173 4.2395 5.28876
35 2 4.34072 3.28067 3.03803
ITEM: TIMESTEP
13900
ITEM: NUMBER OF ATOMS
35
ITEM: BOX BOUNDS xy xz yz pp pp pp
0.0000000000000000e+00 7.6685730000000003e+00 2.5561910000000001e+00
0.0000000000000000e+00 4.4274529999999999e+00 0.0000000000000000e+00
0.0000000000000000e+00 3.1699265000000000e+01 0.0000000000000000e+00
ITEM: ATOMS id type x y z
1 1 2.95196 4.61917 26.7725
2 1 3.24038 0.966281 27.2952
3 1 2.24525 1.86105 20.7875
4 1 4.72903 3.11165 27.0113
5 1 3.407 4.19085 21.629
6 1 1.81492 1.86849 25.7859
7 1 3.76998 3.52583 24.6775
8 1 6.35869 3.59897 24.5448
9 1 2.60271 4.03738 19.4084
10 1 2.33312 0.843938 23.1333
11 1 5.04705 1.42917 24.7473
12 1 6.28327 3.53254 21.9875
13 1 4.89695 2.3603 19.875
14 1 4.52918 1.39653 22.4028
15 1 2.84211 0.270939 19.3355
16 2 1.42635 1.22942 17.4866
17 2 2.38 2.29136 14.8852
18 2 3.88586 2.41952 17.3825
19 2 6.30986 4.0375 17.2154
20 2 5.04181 0.975064 14.9722
21 2 4.93851 3.80663 14.8954
22 2 2.53648 0.787687 12.3852
23 2 2.56608 3.78919 12.3428
24 2 5.11898 0.85366 10.2835
25 2 5.54113 3.57731 10.4545
26 2 2.29523 1.81321 9.69817
27 2 4.89366 2.14304 12.7494
28 2 4.07599 3.89116 7.55248
29 2 4.23417 0.808978 7.90835
30 2 5.1328 1.35493 5.08393
31 2 1.91471 2.58147 6.50414
32 2 4.59205 0.453553 2.71322
33 2 2.28045 2.27563 3.56673
34 2 5.61464 4.34656 5.25115
35 2 4.58738 3.46863 2.99206
ITEM: TIMESTEP
14000
ITEM: NUMBER OF ATOMS
35
ITEM: BOX BOUNDS xy xz yz pp pp pp
0.0000000000000000e+00 7.6685730000000003e+00 2.5561910000000001e+00
0.0000000000000000e+00 4.4274529999999999e+00 0.0000000000000000e+00
0.0000000000000000e+00 3.1699265000000000e+01 0.0000000000000000e+00
ITEM: ATOMS id type x y z
1 1 0.519773 0.446838 27.0777
2 1 4.0243 1.62922 28.2025
3 1 2.78718 2.14093 20.7882
4 1 4.98724 3.35345 26.7829
5 1 4.08305 3.91478 21.7468
6 1 2.66559 1.36152 25.703
7 1 3.1058 3.46151 24.1308
8 1 6.09171 3.69006 24.7706
9 1 7.06402 4.0992 19.8542
10 1 2.061 0.956628 23.5559
11 1 4.7329 1.23232 24.7931
12 1 6.10413 2.92812 22.6451
13 1 5.67537 1.86868 19.714
14 1 4.49372 1.35649 21.9637
15 1 4.56057 4.22291 19.3732
16 2 1.03069 1.22565 17.234
17 2 2.40728 2.30026 15.0407
18 2 3.80759 2.69865 17.6514
19 2 6.46503 4.01522 17.2173
20 2 4.89267 0.593745 14.8255
21 2 4.96953 3.95011 14.8785
22 2 2.28519 0.743323 12.4769
23 2 2.17303 3.33251 12.5431
24 2 5.20894 0.591511 10.1341
25 2 5.0155 3.54168 10.1013
26 2 2.96446 2.1635 9.53697
27 2 4.74995 2.17973 12.4273
28 2 4.25255 4.08795 7.61591
29 2 4.19374 0.759361 7.38283
30 2 5.53693 1.46195 5.10555
31 2 1.66708 2.44763 7.31885
32 2 4.76905 0.668102 2.64242
33 2 2.54336 2.2578 3.62284
34 2 2.81748 0.0065545 5.20226
35 2 4.78165 3.78558 2.76529
ITEM: TIMESTEP
14100
ITEM: NUMBER OF ATOMS
35
ITEM: BOX BOUNDS xy xz yz pp pp pp
0.0000000000000000e+00 7.6685730000000003e+00 2.5561910000000001e+00
0.0000000000000000e+00 4.4274529999999999e+00 0.0000000000000000e+00
0.0000000000000000e+00 3.1699265000000000e+01 0.0000000000000000e+00
ITEM: ATOMS id type x y z
1 1 0.311063 0.231764 26.523
2 1 3.89875 1.90089 28.4733
3 1 3.04958 1.96812 20.4644
4 1 5.41133 3.46795 27.1208
5 1 4.48843 3.95163 21.5517
6 1 2.57124 1.78515 26.6408
7 1 3.31695 3.15 24.1633
8 1 5.73697 3.78293 24.9512
9 1 4.40023 0.0628752 19.945
10 1 2.61292 1.03411 23.8324
11 1 5.14728 1.54672 24.6391
12 1 6.69466 2.78913 21.9562
13 1 5.55131 2.17269 19.6014
14 1 4.77034 0.403293 22.486
15 1 1.73077 0.140976 19.3616
16 2 1.02385 1.10492 17.1164
17 2 2.48838 2.16207 15.1362
18 2 3.35258 2.38726 17.6994
19 2 6.23123 4.28439 17.3285
20 2 4.85241 0.7047 14.6644
21 2 4.77308 3.20143 15.1013
22 2 1.95761 0.460373 12.2426
23 2 7.14352 3.62899 12.4214
24 2 5.37935 0.46271 9.91376
25 2 5.72373 3.71775 9.78076
26 2 2.84608 2.05246 10.0401
27 2 4.59145 2.1427 12.3974
28 2 4.02423 3.90936 7.3199
29 2 4.17368 1.08365 7.51268
30 2 5.5642 1.4821 4.97383
31 2 1.35587 2.33094 7.73278
32 2 4.96499 0.84113 2.67251
33 2 2.73683 2.76832 3.88132
34 2 5.45161 4.35633 5.0166
35 2 4.91666 3.95284 2.55731
ITEM: TIMESTEP
14200
ITEM: NUMBER OF ATOMS
35
ITEM: BOX BOUNDS xy xz yz pp pp pp
0.0000000000000000e+00 7.6685730000000003e+00 2.5561910000000001e+00
0.0000000000000000e+00 4.4274529999999999e+00 0.0000000000000000e+00
0.0000000000000000e+00 3.1699265000000000e+01 0.0000000000000000e+00
ITEM: ATOMS id type x y z
1 1 0.123405 0.120324 27.0278
2 1 4.17638 1.64559 27.906
3 1 3.60071 1.85737 20.4101
4 1 5.661 3.61664 27.6972
5 1 4.80149 3.94249 21.8325
6 1 2.23743 1.92458 26.0548
7 1 3.84918 3.73747 24.6322
8 1 6.35048 3.67197 24.7888
9 1 7.16401 4.17409 20.0301
10 1 2.76698 1.36454 23.4151
11 1 5.07715 1.54402 24.8184
12 1 1.23426 2.03138 21.7408
13 1 5.62351 2.48092 19.3054
14 1 5.11236 0.353749 22.5995
15 1 1.88315 0.405645 19.5128
16 2 0.677815 1.01569 17.0326
17 2 2.08052 1.70308 14.6729
18 2 3.20912 2.57453 17.786
19 2 5.93723 4.08263 17.3832
20 2 4.68647 0.342359 14.7169
21 2 4.98748 3.46542 15.0772
22 2 1.86332 0.375636 12.5879
23 2 6.86718 3.58574 12.297
24 2 0.838032 0.745026 9.65543
25 2 5.73993 3.49821 9.90601
26 2 2.99967 1.88214 10.4237
27 2 4.50552 2.02391 12.3666
28 2 3.61234 3.70875 6.75078
29 2 3.65092 1.12669 7.84654
30 2 5.51389 1.64844 5.15834
31 2 1.49592 2.47493 7.28299
32 2 5.09707 1.10504 2.4916
33 2 2.89232 3.10711 4.21453
34 2 5.8089 4.45695 5.17807
35 2 5.08828 4.09279 2.65967
ITEM: TIMESTEP
14300
ITEM: NUMBER OF ATOMS
35
ITEM: BOX BOUNDS xy xz yz pp pp pp
0.0000000000000000e+00 7.6685730000000003e+00 2.5561910000000001e+00
0.0000000000000000e+00 4.4274529999999999e+00 0.0000000000000000e+00
0.0000000000000000e+00 3.1699265000000000e+01 0.0000000000000000e+00
ITEM: ATOMS id type x y z
1 1 3.67143 4.36024 27.1553
2 1 3.65623 2.14722 26.7323
3 1 3.7826 2.10361 21.5266
4 1 6.02553 3.75299 27.244
5 1 5.02992 3.95579 22.6273
6 1 2.16425 1.39347 25.6234
7 1 4.08818 3.82642 24.7235
8 1 6.68644 3.58197 24.7107
9 1 7.54143 3.80327 20.0094
10 1 3.10807 2.13263 23.5442
11 1 4.95514 1.62247 25.0773
12 1 6.32244 1.82031 21.7989
13 1 5.23955 2.06487 19.3036
14 1 7.59142 4.17005 22.3871
15 1 2.5835 0.0891964 19.8423
16 2 5.60919 1.18313 17.1048
17 2 2.04025 1.96841 14.9988
18 2 3.19827 2.89135 17.4344
19 2 5.76782 4.10795 17.2773
20 2 4.57938 0.00196522 14.8173
21 2 4.36821 3.21704 14.8832
22 2 1.73306 0.0762505 12.3244
23 2 6.89473 3.37859 12.0616
24 2 0.732198 0.497083 9.47659
25 2 5.33716 3.21569 9.58425
26 2 3.21392 2.21659 10.2689
27 2 4.75158 1.70235 12.8626
28 2 3.81168 3.98589 6.64927
29 2 3.66445 0.784087 8.03859
30 2 5.61159 1.79038 4.79624
31 2 6.41131 2.57558 7.32541
32 2 5.08035 1.43742 2.60466
33 2 2.89444 2.84742 3.98616
34 2 3.36891 0.649342 5.54293
35 2 5.25302 4.37757 3.26279
ITEM: TIMESTEP
14400
ITEM: NUMBER OF ATOMS
35
ITEM: BOX BOUNDS xy xz yz pp pp pp
0.0000000000000000e+00 7.6685730000000003e+00 2.5561910000000001e+00
0.0000000000000000e+00 4.4274529999999999e+00 0.0000000000000000e+00
0.0000000000000000e+00 3.1699265000000000e+01 0.0000000000000000e+00
ITEM: ATOMS id type x y z
1 1 0.960239 1.21926 27.4864
2 1 4.1215 2.26102 27.2582
3 1 4.02114 2.22508 21.6706
4 1 6.89618 3.53201 27.0954
5 1 5.23606 4.12626 22.3924
6 1 2.62185 1.33709 25.706
7 1 3.78652 3.5193 25.1232
8 1 6.20059 3.70471 24.2552
9 1 2.74169 3.60309 19.7092
10 1 3.02168 1.86673 23.5331
11 1 5.09191 1.2175 24.174
12 1 1.22591 1.8089 22.0874
13 1 4.93446 1.86441 19.3382
14 1 2.57365 4.12756 22.0717
15 1 2.75673 0.427435 19.9793
16 2 5.71501 1.25859 17.2995
17 2 1.85513 1.42706 14.9584
18 2 3.15909 2.66451 17.259
19 2 5.5554 4.28721 17.3851
20 2 4.08399 0.185515 14.8461
21 2 4.25097 3.23274 14.8408
22 2 4.58305 4.42217 12.0284
23 2 6.9591 3.23314 12.4383
24 2 0.477767 0.16961 9.85362
25 2 5.59066 3.29819 9.83003
26 2 2.78676 1.68867 10.2617
27 2 4.52416 1.58919 12.2934
28 2 3.8837 3.80661 6.76492
29 2 3.86684 1.14249 8.05493
30 2 5.86178 2.02795 4.98285
31 2 1.57555 2.35756 7.36919
32 2 4.90346 1.5228 2.40488
33 2 2.75956 3.18096 3.5098
34 2 3.64867 1.21314 5.59073
35 2 2.5935 0.0402898 3.47805
ITEM: TIMESTEP
14500
ITEM: NUMBER OF ATOMS
35
ITEM: BOX BOUNDS xy xz yz pp pp pp
0.0000000000000000e+00 7.6685730000000003e+00 2.5561910000000001e+00
0.0000000000000000e+00 4.4274529999999999e+00 0.0000000000000000e+00
0.0000000000000000e+00 3.1699265000000000e+01 0.0000000000000000e+00
ITEM: ATOMS id type x y z
1 1 1.65504 1.32911 27.8165
2 1 4.33315 2.92474 27.519
3 1 3.53706 1.77572 21.8343
4 1 7.15454 3.85941 26.6318
5 1 4.83982 4.32654 21.8024
6 1 3.09532 0.863153 26.1575
7 1 3.85337 3.62362 25.3547
8 1 6.04312 3.47022 24.5548
9 1 2.72686 3.78535 19.4572
10 1 2.69251 1.79599 23.8297
11 1 5.64937 1.08014 24.1686
12 1 6.33718 2.28653 21.4422
13 1 5.03493 2.07273 19.3949
14 1 2.26624 4.1674 22.4071
15 1 2.20613 1.38915 19.3381
16 2 5.69015 0.986564 17.1055
17 2 1.23046 1.3865 14.5253
18 2 2.99586 2.4214 17.0012
19 2 5.58508 4.05126 17.6169
20 2 4.18235 0.239353 15.1073
21 2 4.37012 2.93079 14.78
22 2 4.53111 4.39485 12.6291
23 2 2.11887 3.06983 12.8513
24 2 2.97806 4.11284 9.8983
25 2 5.48266 3.20088 9.98601
26 2 2.45309 1.58579 10.2106
27 2 4.62127 1.59627 11.8995
28 2 3.96908 3.97207 6.57112
29 2 4.39245 1.3767 8.00534
30 2 6.29269 2.32726 4.91231
31 2 1.59093 2.42915 7.67585
32 2 4.80606 1.70744 2.79403
33 2 2.58529 3.61107 3.39814
34 2 3.72679 1.04537 5.26889
35 2 2.43269 0.0599007 3.27303
ITEM: TIMESTEP
14600
ITEM: NUMBER OF ATOMS
35
ITEM: BOX BOUNDS xy xz yz pp pp pp
0.0000000000000000e+00 7.6685730000000003e+00 2.5561910000000001e+00
0.0000000000000000e+00 4.4274529999999999e+00 0.0000000000000000e+00
0.0000000000000000e+00 3.1699265000000000e+01 0.0000000000000000e+00
ITEM: ATOMS id type x y z
1 1 1.26986 1.29246 27.7126
2 1 5.08019 3.38821 27.414
3 1 3.71624 1.91511 21.5763
4 1 2.34935 3.69192 27.0338
5 1 4.38508 4.31741 22.0586
6 1 3.33568 1.06888 26.3322
7 1 4.02607 3.54893 25.0235
8 1 6.36188 3.50489 24.312
9 1 2.73102 4.28955 19.621
10 1 2.80603 1.78494 23.5656
11 1 5.14241 1.25052 24.9002
12 1 6.13216 2.2832 21.3657
13 1 4.01064 2.15299 19.3232
14 1 7.32893 4.28774 22.3179
15 1 1.93904 1.44416 19.46
16 2 0.481239 0.64704 17.1365
17 2 1.52297 1.46631 14.7496
18 2 2.76565 2.36009 17.0138
19 2 5.69344 3.62758 17.6151
20 2 6.27244 4.18239 14.9576
21 2 4.02348 2.94799 14.8935
22 2 4.94641 4.34907 12.4545
23 2 2.32271 3.23865 12.4495
24 2 2.86105 4.08784 9.66542
25 2 5.38157 3.21472 9.87915
26 2 2.36541 1.32891 10.1386
27 2 4.71758 1.31774 11.9194
28 2 4.1135 4.15316 6.30569
29 2 4.37211 1.31253 8.0733
30 2 6.30932 2.24311 5.43195
31 2 1.99248 2.8146 7.76985
32 2 4.76038 2.16535 2.94634
33 2 2.48922 3.56581 3.37421
34 2 3.91877 0.892981 5.56046
35 2 2.45361 0.500259 3.06731
ITEM: TIMESTEP
14700
ITEM: NUMBER OF ATOMS
35
ITEM: BOX BOUNDS xy xz yz pp pp pp
0.0000000000000000e+00 7.6685730000000003e+00 2.5561910000000001e+00
0.0000000000000000e+00 4.4274529999999999e+00 0.0000000000000000e+00
0.0000000000000000e+00 3.1699265000000000e+01 0.0000000000000000e+00
ITEM: ATOMS id type x y z
1 1 5.77942 1.10436 27.2551
2 1 5.08851 3.62656 26.6167
3 1 3.35932 2.2697 21.2775
4 1 2.85532 3.38476 26.8474
5 1 4.70523 4.22066 22.0609
6 1 3.34422 1.34246 26.7588
7 1 4.00947 3.78952 24.5079
8 1 6.5718 3.84887 25.0155
9 1 6.81289 3.67164 19.7845
10 1 2.45467 1.82993 24.1094
11 1 5.4307 1.61679 24.8351
12 1 5.86588 2.27329 22.1578
13 1 4.50678 2.14479 19.1566
14 1 4.75392 0.214897 22.9115
15 1 1.62049 0.731442 19.6471
16 2 5.32656 0.469037 17.1556
17 2 1.45384 1.40227 14.5677
18 2 2.64685 1.78612 17.1931
19 2 5.38946 3.54499 17.4142
20 2 6.46938 4.27772 14.8454
21 2 3.76741 2.86985 14.585
22 2 5.17673 4.29775 12.2519
23 2 2.48464 2.64745 12.1777
24 2 2.97331 4.3588 10.1744
25 2 5.34489 2.94651 9.78099
26 2 2.63533 1.50131 9.93698
27 2 4.95589 1.59491 12.2013
28 2 4.3055 3.88649 6.35566
29 2 4.31059 1.40877 7.99625
30 2 6.22939 2.21352 5.32594
31 2 2.09985 2.95142 7.38768
32 2 4.90163 2.52865 3.22351
33 2 2.53608 3.76207 3.68097
34 2 3.85514 0.892971 5.42366
35 2 2.40819 0.978507 3.39885
ITEM: TIMESTEP
14800
ITEM: NUMBER OF ATOMS
35
ITEM: BOX BOUNDS xy xz yz pp pp pp
0.0000000000000000e+00 7.6685730000000003e+00 2.5561910000000001e+00
0.0000000000000000e+00 4.4274529999999999e+00 0.0000000000000000e+00
0.0000000000000000e+00 3.1699265000000000e+01 0.0000000000000000e+00
ITEM: ATOMS id type x y z
1 1 1.15214 1.44727 26.9572
2 1 4.5599 3.36458 26.7649
3 1 2.98307 2.65634 21.7628
4 1 2.12238 3.36858 27.0516
5 1 2.17834 0.146623 21.4758
6 1 3.54284 1.28504 27.1874
7 1 4.16458 4.11652 23.9004
8 1 6.71548 4.18928 24.8792
9 1 6.39485 3.22446 19.123
10 1 2.76893 1.91053 24.6183
11 1 5.5785 2.13281 24.963
12 1 5.87746 2.2129 22.5344
13 1 4.3326 1.08284 19.9384
14 1 4.25342 0.0239053 22.2978
15 1 1.71795 0.0367656 19.204
16 2 5.08094 0.293294 17.2696
17 2 1.26611 1.25632 14.9565
18 2 2.50922 1.78455 17.1973
19 2 5.06158 3.28172 16.7073
20 2 6.57395 4.33477 14.6353
21 2 3.96282 2.71981 14.8058
22 2 5.26883 4.30962 12.2947
23 2 2.55728 2.6472 12.3742
24 2 0.278229 0.0996755 10.3256
25 2 5.35876 3.20916 9.61872
26 2 2.81969 1.38812 9.55677
27 2 5.17692 1.49344 12.4468
28 2 4.35016 3.99392 6.56699
29 2 4.96487 1.10814 7.71411
30 2 1.11801 1.92767 5.33394
31 2 2.03774 3.04818 7.81842
32 2 4.96769 2.87116 3.13898
33 2 2.75832 4.10289 4.05192
34 2 3.63694 1.08896 5.34939
35 2 2.25706 1.0889 3.01409
ITEM: TIMESTEP
14900
ITEM: NUMBER OF ATOMS
35
ITEM: BOX BOUNDS xy xz yz pp pp pp
0.0000000000000000e+00 7.6685730000000003e+00 2.5561910000000001e+00
0.0000000000000000e+00 4.4274529999999999e+00 0.0000000000000000e+00
0.0000000000000000e+00 3.1699265000000000e+01 0.0000000000000000e+00
ITEM: ATOMS id type x y z
1 1 1.03052 1.30713 26.9969
2 1 4.61433 3.11895 26.4818
3 1 3.17253 2.50478 21.7255
4 1 6.93009 3.54542 27.1451
5 1 1.21053 0.667692 21.1574
6 1 3.58646 1.47443 27.5309
7 1 1.74559 0.219304 23.821
8 1 6.68772 4.30538 24.5562
9 1 6.48307 2.39538 19.7426
10 1 3.18215 2.26992 24.5907
11 1 5.40566 2.0413 24.9025
12 1 5.6003 2.36652 22.6185
13 1 3.78211 0.95908 19.4109
14 1 7.03379 4.40023 22.2879
15 1 4.11144 3.92689 19.1216
16 2 4.76147 0.408525 17.2096
17 2 1.52926 1.04351 15.1318
18 2 2.8495 1.99644 17.4017
19 2 5.31634 3.01776 17.026
20 2 6.29724 3.89159 14.6763
21 2 3.66258 2.43201 14.5212
22 2 2.51999 0.0492644 12.1789
23 2 2.56455 2.90996 12.1169
24 2 2.76803 4.37883 9.99657
25 2 5.02468 2.93655 9.93172
26 2 2.99102 1.23506 9.73068
27 2 5.12946 1.44595 12.485
28 2 4.65714 3.965 6.8885
29 2 5.28297 1.38733 7.78474
30 2 6.05283 2.29183 5.42723
31 2 2.35844 2.96438 7.54572
32 2 5.15836 3.03822 3.25194
33 2 2.81233 3.96751 4.34425
34 2 3.37568 1.25853 5.18554
35 2 2.50945 1.47264 2.54177
ITEM: TIMESTEP
15000
ITEM: NUMBER OF ATOMS
35
ITEM: BOX BOUNDS xy xz yz pp pp pp
0.0000000000000000e+00 7.6685730000000003e+00 2.5561910000000001e+00
0.0000000000000000e+00 4.4274529999999999e+00 0.0000000000000000e+00
0.0000000000000000e+00 3.1699265000000000e+01 0.0000000000000000e+00
ITEM: ATOMS id type x y z
1 1 5.64717 1.19797 27.1433
2 1 4.49364 3.89249 26.1915
3 1 2.92089 2.10056 21.7228
4 1 2.31589 3.37143 26.9271
5 1 1.12213 0.157566 21.561
6 1 3.23367 1.29649 26.9862
7 1 1.98304 -0.0019043 23.5455
8 1 3.79669 0.335768 25.0341
9 1 6.12718 2.8256 19.5348
10 1 3.10709 2.71165 24.3737
11 1 5.81277 1.54868 24.8741
12 1 5.45162 2.57901 22.3539
13 1 3.88428 0.890319 19.7746
14 1 4.06982 0.60348 22.7337
15 1 3.66963 3.54269 19.4642
16 2 5.19911 0.250296 16.9924
17 2 1.31378 0.549804 14.7904
18 2 2.63845 2.01576 17.2557
19 2 5.26176 3.14518 17.4049
20 2 6.43967 3.47138 14.6749
21 2 3.83686 2.31686 14.8097
22 2 2.37884 0.150979 12.4142
23 2 2.22685 2.96535 12.0544
24 2 2.78466 4.18832 9.59948
25 2 5.27928 2.54528 10.1391
26 2 2.54292 1.19013 9.78807
27 2 5.08488 1.40823 12.5189
28 2 2.68416 0.0714784 7.50612
29 2 4.89286 1.29796 7.49515
30 2 5.86898 2.42799 5.1998
31 2 2.73013 2.92647 7.26303
32 2 5.18576 3.31952 2.8943
33 2 3.24638 4.31394 4.55702
34 2 3.42416 1.10521 5.08353
35 2 2.68774 1.86131 2.88903
ITEM: TIMESTEP
15100
ITEM: NUMBER OF ATOMS
35
ITEM: BOX BOUNDS xy xz yz pp pp pp
0.0000000000000000e+00 7.6685730000000003e+00 2.5561910000000001e+00
0.0000000000000000e+00 4.4274529999999999e+00 0.0000000000000000e+00
0.0000000000000000e+00 3.1699265000000000e+01 0.0000000000000000e+00
ITEM: ATOMS id type x y z
1 1 5.41283 1.89777 27.4558
2 1 4.37839 3.35676 26.0572
3 1 2.33606 2.55641 21.9162
4 1 1.93109 3.47603 26.7698
5 1 1.5333 0.353602 21.0575
6 1 2.68933 1.1312 27.0954
7 1 2.11783 0.0503101 23.5149
8 1 4.09874 0.24293 25.0925
9 1 6.03899 2.50941 19.5906
10 1 2.7512 2.55546 24.1838
11 1 5.83783 2.01142 25.0465
12 1 4.98041 2.75143 21.7738
13 1 4.22541 0.938498 19.6911
14 1 4.73896 0.281534 22.596
15 1 3.25551 3.09585 19.3278
16 2 5.16429 0.434001 17.4231
17 2 1.2858 0.525289 14.6811
18 2 2.48071 1.47811 17.2832
19 2 4.92056 3.41915 17.2194
20 2 6.4734 3.36674 14.7979
21 2 3.99747 1.88784 15.0052
22 2 2.48558 -0.22762 12.2836
23 2 2.48754 2.87405 12.3721
24 2 2.63397 4.01384 9.77428
25 2 5.18251 2.77341 9.78005
26 2 2.5045 1.33455 10.212
27 2 4.70584 1.30443 12.2831
28 2 2.52715 -0.0862937 7.6879
29 2 5.43768 1.4731 7.43322
30 2 5.83642 2.81058 5.06005
31 2 2.80906 2.93326 6.95039
32 2 5.33675 3.54568 2.58268
33 2 3.67265 4.30584 4.67018
34 2 3.58871 0.884908 5.16685
35 2 2.63653 2.41552 3.03317
ITEM: TIMESTEP
15200
ITEM: NUMBER OF ATOMS
35
ITEM: BOX BOUNDS xy xz yz pp pp pp
0.0000000000000000e+00 7.6685730000000003e+00 2.5561910000000001e+00
0.0000000000000000e+00 4.4274529999999999e+00 0.0000000000000000e+00
0.0000000000000000e+00 3.1699265000000000e+01 0.0000000000000000e+00
ITEM: ATOMS id type x y z
1 1 4.99269 1.70622 27.4435
2 1 3.74356 3.70239 26.1095
3 1 2.07762 2.29136 21.8834
4 1 6.69482 3.73884 27.3417
5 1 1.80623 0.624803 19.7317
6 1 2.42757 1.07128 26.689
7 1 2.04666 0.420121 23.3021
8 1 3.91466 0.058545 24.8095
9 1 5.80556 2.57149 19.3462
10 1 3.5792 2.55154 24.0847
11 1 5.98404 2.03451 24.8513
12 1 4.72821 2.7666 21.8798
13 1 4.14536 0.237126 20.2192
14 1 4.81873 0.408953 22.3717
15 1 3.4025 3.11957 19.4999
16 2 4.68366 0.366911 17.5207
17 2 1.32672 0.510198 14.8781
18 2 2.36094 1.68362 17.3738
19 2 4.94113 3.09592 17.0431
20 2 6.48515 3.49506 15.0464
21 2 3.84221 1.69316 14.7919
22 2 5.11493 3.82354 12.3432
23 2 2.58837 2.66775 12.6859
24 2 7.45132 4.26089 9.92357
25 2 4.77174 2.83529 9.83615
26 2 2.57678 1.35118 9.95132
27 2 5.16173 1.07536 12.185
28 2 5.4166 4.21187 7.35212
29 2 5.76471 1.39985 7.59431
30 2 5.87051 2.61209 5.00405
31 2 2.839 2.97692 7.00892
32 2 5.35028 3.97654 2.6186
33 2 1.22125 0.0772764 4.79685
34 2 3.81586 1.08885 5.0363
35 2 2.69913 2.65828 3.27302
ITEM: TIMESTEP
15300
ITEM: NUMBER OF ATOMS
35
ITEM: BOX BOUNDS xy xz yz pp pp pp
0.0000000000000000e+00 7.6685730000000003e+00 2.5561910000000001e+00
0.0000000000000000e+00 4.4274529999999999e+00 0.0000000000000000e+00
0.0000000000000000e+00 3.1699265000000000e+01 0.0000000000000000e+00
ITEM: ATOMS id type x y z
1 1 5.02718 1.66197 26.3346
2 1 3.5576 3.99008 26.0945
3 1 2.06426 2.39219 21.7534
4 1 5.805 3.71308 27.1421
5 1 1.73699 0.0786926 19.2929
6 1 2.52692 1.68287 26.0608
7 1 2.27738 0.366041 23.4578
8 1 6.58374 4.41398 25.0453
9 1 5.56073 2.47195 19.4686
10 1 3.70565 2.32036 23.918
11 1 5.93232 1.98312 24.4121
12 1 4.43066 3.25657 21.8229
13 1 4.80248 0.442794 20.4399
14 1 4.62187 0.314437 22.9143
15 1 3.09227 2.00037 19.6845
16 2 4.60927 0.0461273 17.7033
17 2 1.28316 0.446845 15.088
18 2 2.06984 1.9055 17.0511
19 2 4.42703 3.07079 17.0428
20 2 6.70856 3.379 14.8848
21 2 3.97021 1.86228 14.6847
22 2 5.37849 4.1056 12.6746
23 2 2.52098 2.43845 12.2582
24 2 7.15326 4.14924 9.8317
25 2 4.59184 2.89767 10.0165
26 2 2.16971 1.25693 9.61547
27 2 5.57927 0.780268 12.511
28 2 5.97731 4.31358 7.40703
29 2 5.47993 1.23696 7.7531
30 2 5.99516 2.88445 5.06418
31 2 3.27342 2.76023 7.01542
32 2 5.36025 4.47846 2.91464
33 2 1.25839 0.144442 5.19842
34 2 3.9364 1.08336 4.95942
35 2 2.89019 2.84596 3.19354
ITEM: TIMESTEP
15400
ITEM: NUMBER OF ATOMS
35
ITEM: BOX BOUNDS xy xz yz pp pp pp
0.0000000000000000e+00 7.6685730000000003e+00 2.5561910000000001e+00
0.0000000000000000e+00 4.4274529999999999e+00 0.0000000000000000e+00
0.0000000000000000e+00 3.1699265000000000e+01 0.0000000000000000e+00
ITEM: ATOMS id type x y z
1 1 4.82382 1.79804 25.9055
2 1 3.86662 4.15532 25.655
3 1 2.30594 1.90997 21.5166
4 1 5.66074 4.05723 27.4616
5 1 4.09465 3.85821 19.2818
6 1 2.33907 2.04959 26.1667
7 1 2.00704 0.2963 23.5736
8 1 6.55349 4.03417 25.143
9 1 6.00814 2.22369 19.4005
10 1 3.02577 2.60689 23.8761
11 1 5.30832 2.4848 23.2809
12 1 4.31594 3.40548 21.5697
13 1 5.04929 0.717545 20.6698
14 1 4.67078 0.0093955 23.0433
15 1 3.21025 1.46378 19.5172
16 2 4.31435 0.284519 17.7321
17 2 1.34741 0.190889 14.8969
18 2 1.76501 1.71682 17.0881
19 2 4.34281 2.99213 17.0745
20 2 6.70061 3.15422 14.7623
21 2 4.28155 1.90086 14.7097
22 2 5.56739 4.07784 12.5093
23 2 2.83097 2.26682 11.9162
24 2 6.92755 4.04607 10.076
25 2 4.63632 2.85636 10.2956
26 2 1.98568 1.14238 9.74863
27 2 5.40435 0.928525 12.3635
28 2 5.72861 3.9926 7.6562
29 2 5.72777 1.52211 7.61175
30 2 6.39263 2.90574 5.04613
31 2 3.15969 2.47425 7.32948
32 2 2.62617 0.430657 2.91812
33 2 1.46468 0.133095 5.59219
34 2 4.08259 1.41352 4.82882
35 2 3.15608 3.38575 3.33763
ITEM: TIMESTEP
15500
ITEM: NUMBER OF ATOMS
35
ITEM: BOX BOUNDS xy xz yz pp pp pp
0.0000000000000000e+00 7.6685730000000003e+00 2.5561910000000001e+00
0.0000000000000000e+00 4.4274529999999999e+00 0.0000000000000000e+00
0.0000000000000000e+00 3.1699265000000000e+01 0.0000000000000000e+00
ITEM: ATOMS id type x y z
1 1 4.32928 1.68639 25.6154
2 1 3.56599 4.52368 26.1079
3 1 2.52885 1.37828 21.5039
4 1 6.01581 4.63597 27.5773
5 1 3.54601 4.33744 19.0414
6 1 2.25569 2.25178 26.6492
7 1 0.994754 0.0679025 23.4297
8 1 6.13395 3.85043 25.3343
9 1 6.19991 3.35236 19.8409
10 1 2.89946 2.58574 23.7584
11 1 5.61848 2.4875 23.3972
12 1 4.41424 3.30165 21.4891
13 1 4.90233 0.503132 20.8743
14 1 3.67199 0.181325 23.2207
15 1 3.20495 1.61962 19.1024
16 2 4.39633 -0.00236769 16.9383
17 2 1.69286 0.0446273 14.5558
18 2 1.72294 1.41629 17.0804
19 2 4.35217 3.02839 16.9548
20 2 6.79161 3.06604 14.8062
21 2 4.17335 1.29641 14.7366
22 2 5.34177 3.71977 12.3286
23 2 2.90635 2.33169 12.7617
24 2 7.21101 4.39353 9.93083
25 2 4.71945 2.50439 9.84435
26 2 1.98717 1.02816 10.0374
27 2 5.59813 1.04289 12.2451
28 2 5.67119 4.20303 7.76778
29 2 5.38475 1.13955 7.49209
30 2 6.65717 2.94396 4.98437
31 2 2.89315 2.63192 7.94041
32 2 2.75557 1.08309 3.07473
33 2 1.85996 -0.101047 5.44466
34 2 4.32692 1.46563 5.16518
35 2 3.03918 3.98471 3.09431
ITEM: TIMESTEP
15600
ITEM: NUMBER OF ATOMS
35
ITEM: BOX BOUNDS xy xz yz pp pp pp
0.0000000000000000e+00 7.6685730000000003e+00 2.5561910000000001e+00
0.0000000000000000e+00 4.4274529999999999e+00 0.0000000000000000e+00
0.0000000000000000e+00 3.1699265000000000e+01 0.0000000000000000e+00
ITEM: ATOMS id type x y z
1 1 4.44614 1.94244 25.5067
2 1 3.43879 4.39425 26.2315
3 1 1.95895 1.71569 21.1657
4 1 3.79875 0.656419 27.4455
5 1 0.8428 0.434402 19.3498
6 1 2.04058 2.33987 26.9938
7 1 0.543218 0.0309936 23.985
8 1 5.57975 3.6446 25.359
9 1 5.97466 3.44932 19.1982
10 1 2.23953 2.36218 24.5918
11 1 5.50207 2.59316 23.006
12 1 3.91501 3.18932 21.2585
13 1 4.86916 0.658096 21.7112
14 1 3.0966 0.235796 23.2262
15 1 3.65193 2.01403 19.1586
16 2 7.02746 4.09611 17.1921
17 2 4.39303 4.30991 14.7198
18 2 1.69381 1.3938 17.0094
19 2 4.49869 2.87534 16.9652
20 2 1.49439 2.55185 14.4875
21 2 4.28073 1.27198 14.7123
22 2 5.62861 3.58239 12.045
23 2 3.11836 2.52699 12.2745
24 2 7.39941 3.95285 10.2453
25 2 4.79651 2.53773 9.70026
26 2 2.27568 1.21101 10.3095
27 2 5.45332 0.714632 12.5576
28 2 5.33759 4.26301 7.68511
29 2 5.58384 0.903519 7.57029
30 2 1.902 2.92647 5.23928
31 2 2.67015 2.64091 7.66966
32 2 3.08202 1.70809 3.12697
33 2 4.2778 4.27262 5.0695
34 2 4.35101 1.65339 5.216
35 2 0.253111 0.0676164 2.95112
ITEM: TIMESTEP
15700
ITEM: NUMBER OF ATOMS
35
ITEM: BOX BOUNDS xy xz yz pp pp pp
0.0000000000000000e+00 7.6685730000000003e+00 2.5561910000000001e+00
0.0000000000000000e+00 4.4274529999999999e+00 0.0000000000000000e+00
0.0000000000000000e+00 3.1699265000000000e+01 0.0000000000000000e+00
ITEM: ATOMS id type x y z
1 1 4.46373 1.86263 25.0913
2 1 3.6022 4.12939 26.9588
3 1 1.76347 2.48024 21.2766
4 1 4.0075 0.645419 27.5259
5 1 0.598256 0.593102 19.2842
6 1 1.62442 2.27712 27.2142
7 1 2.99865 3.99585 23.9977
8 1 2.85124 -0.0475001 25.1935
9 1 5.28266 3.513 19.7056
10 1 1.482 1.93855 24.9937
11 1 5.00813 2.38059 23.0412
12 1 3.94858 3.609 21.6328
13 1 4.17738 0.353228 21.5254
14 1 2.47463 1.50403 23.0119
15 1 3.33488 1.36764 19.4911
16 2 7.1101 4.24346 17.1561
17 2 4.33619 3.97262 14.7528
18 2 2.05165 1.17594 17.3066
19 2 4.58737 2.62927 17.226
20 2 1.70634 2.53561 14.3726
21 2 4.00501 1.24242 14.9178
22 2 5.65291 3.81423 12.2903
23 2 3.56479 2.09137 12.3752
24 2 2.62601 3.93552 9.7568
25 2 4.97897 2.42501 9.78736
26 2 2.24634 0.911561 10.0207
27 2 5.64709 0.674344 12.3686
28 2 5.54678 3.85005 7.34203
29 2 5.48402 0.940341 7.68465
30 2 6.73842 3.18986 4.96342
31 2 2.85679 2.35104 7.58228
32 2 3.00936 2.23743 2.83354
33 2 1.8671 0.253272 4.90522
34 2 4.4556 1.55297 5.48423
35 2 5.10598 0.675722 3.00344
ITEM: TIMESTEP
15800
ITEM: NUMBER OF ATOMS
35
ITEM: BOX BOUNDS xy xz yz pp pp pp
0.0000000000000000e+00 7.6685730000000003e+00 2.5561910000000001e+00
0.0000000000000000e+00 4.4274529999999999e+00 0.0000000000000000e+00
0.0000000000000000e+00 3.1699265000000000e+01 0.0000000000000000e+00
ITEM: ATOMS id type x y z
1 1 3.55536 2.02153 25.6254
2 1 3.72204 3.94975 27.022
3 1 6.56571 2.74527 21.233
4 1 3.88055 0.458082 27.1123
5 1 0.26425 0.239904 19.6455
6 1 6.38596 2.64238 27.7622
7 1 2.69629 3.98544 24.1618
8 1 5.34766 3.97401 24.6344
9 1 5.25401 3.65143 19.519
10 1 1.14918 1.89079 25.4636
11 1 5.2508 1.96107 23.1259
12 1 3.71706 4.62337 21.8462
13 1 3.81111 0.617162 21.8068
14 1 2.46059 1.64207 23.422
15 1 2.894 1.9456 19.5121
16 2 7.15293 3.80482 17.1948
17 2 4.12834 4.02736 15.0052
18 2 2.1685 1.10809 17.1417
19 2 4.66299 2.47217 17.3038
20 2 1.64276 2.59648 14.9325
21 2 4.231 0.879346 14.8581
22 2 6.036 3.72487 12.2957
23 2 3.34641 2.1929 12.4016
24 2 2.41805 3.6561 9.85917
25 2 5.1842 2.39141 10.1008
26 2 2.72332 0.709343 9.60247
27 2 1.05486 0.559489 12.2937
28 2 5.70497 3.47827 7.35776
29 2 5.57958 0.664335 7.33048
30 2 6.52284 3.31688 4.72791
31 2 3.11544 2.1105 7.50881
32 2 2.89915 2.82637 2.72218
33 2 1.90793 0.601122 4.75435
34 2 4.15053 1.91932 5.1451
35 2 5.04415 1.19998 2.90916
ITEM: TIMESTEP
15900
ITEM: NUMBER OF ATOMS
35
ITEM: BOX BOUNDS xy xz yz pp pp pp
0.0000000000000000e+00 7.6685730000000003e+00 2.5561910000000001e+00
0.0000000000000000e+00 4.4274529999999999e+00 0.0000000000000000e+00
0.0000000000000000e+00 3.1699265000000000e+01 0.0000000000000000e+00
ITEM: ATOMS id type x y z
1 1 3.17835 2.53557 25.9386
2 1 4.20416 4.22251 27.0204
3 1 6.66247 2.76721 21.6542
4 1 3.88726 -0.0507625 26.4576
5 1 5.15935 0.85725 19.782
6 1 6.04731 2.14862 28.0848
7 1 2.51454 4.31533 24.3567
8 1 5.04325 4.22185 24.7162
9 1 4.97318 4.30593 19.6139
10 1 5.5803 1.77653 25.994
11 1 4.55229 2.26708 23.3352
12 1 1.32475 -0.0946185 22.1679
13 1 3.65441 0.830932 21.6877
14 1 2.20859 1.83476 23.7491
15 1 3.40175 2.3169 19.5564
16 2 7.13025 3.6965 17.6107
17 2 4.17824 3.78934 14.8501
18 2 1.99583 0.659849 17.2986
19 2 4.52543 2.01817 16.9942
20 2 1.60448 2.31645 14.999
21 2 4.43095 0.981458 14.5535
22 2 6.24754 3.62682 12.6661
23 2 3.59009 2.17897 12.4174
24 2 2.74465 3.40414 10.0571
25 2 5.14958 1.92139 10.1557
26 2 2.8811 0.561706 9.73192
27 2 1.22598 0.694403 12.2261
28 2 5.58743 3.40143 7.47277
29 2 0.673097 0.329949 7.06097
30 2 6.69385 3.67267 4.99507
31 2 3.00886 2.03641 7.32105
32 2 2.98729 3.25845 2.49408
33 2 1.46197 0.738582 4.49564
34 2 3.9947 2.57826 4.79934
35 2 5.23376 1.55433 2.46565
ITEM: TIMESTEP
16000
ITEM: NUMBER OF ATOMS
35
ITEM: BOX BOUNDS xy xz yz pp pp pp
0.0000000000000000e+00 7.6685730000000003e+00 2.5561910000000001e+00
0.0000000000000000e+00 4.4274529999999999e+00 0.0000000000000000e+00
0.0000000000000000e+00 3.1699265000000000e+01 0.0000000000000000e+00
ITEM: ATOMS id type x y z
1 1 2.67788 1.94127 26.7665
2 1 4.647 4.09147 27.5198
3 1 6.64327 3.49074 21.2657
4 1 4.3404 0.580296 26.6074
5 1 5.85381 1.51982 19.8124
6 1 5.8734 1.60956 27.9638
7 1 7.17838 4.37594 23.8926
8 1 4.60147 4.41607 24.9289
9 1 5.13972 4.34998 19.7451
10 1 5.1572 2.29629 25.8888
11 1 4.51757 2.12045 23.5228
12 1 3.68399 4.18121 21.845
13 1 3.07048 1.10347 21.9939
14 1 1.80131 2.09869 23.5363
15 1 3.13096 2.70153 19.6649
16 2 6.94214 3.5263 17.6151
17 2 4.10171 3.61085 14.6211
18 2 1.76556 0.215186 17.2743
19 2 4.36093 1.90776 17.3473
20 2 2.03117 2.05929 15.1445
21 2 4.39401 0.634063 14.941
22 2 6.19203 3.5849 12.6178
23 2 4.11662 2.05605 12.185
24 2 2.98019 3.13925 9.7886
25 2 5.45411 1.57778 9.58806
26 2 2.65215 0.17392 10.079
27 2 1.46281 0.925027 12.3494
28 2 5.40458 3.2155 7.66743
29 2 0.386953 0.470575 7.26759
30 2 6.68704 4.34855 4.69567
31 2 2.9287 1.59073 7.21569
32 2 2.72172 3.54436 2.48844
33 2 1.64587 1.34324 4.42729
34 2 4.38679 2.53987 4.7789
35 2 5.34238 2.18549 2.27805
ITEM: TIMESTEP
16100
ITEM: NUMBER OF ATOMS
35
ITEM: BOX BOUNDS xy xz yz pp pp pp
0.0000000000000000e+00 7.6685730000000003e+00 2.5561910000000001e+00
0.0000000000000000e+00 4.4274529999999999e+00 0.0000000000000000e+00
0.0000000000000000e+00 3.1699265000000000e+01 0.0000000000000000e+00
ITEM: ATOMS id type x y z
1 1 2.82068 1.83383 26.7028
2 1 4.68521 3.91526 27.8784
3 1 6.20472 3.4708 21.8443
4 1 7.18322 3.80904 26.4181
5 1 5.78096 1.31924 19.6367
6 1 5.50141 1.47395 28.0752
7 1 3.92409 0.275051 24.3671
8 1 1.37401 0.595156 25.2847
9 1 3.12851 0.0992582 19.3401
10 1 5.27242 2.82213 25.4202
11 1 4.11159 3.12017 23.4433
12 1 3.92561 4.44596 21.6736
13 1 3.29847 1.5273 21.4203
14 1 1.53646 2.13377 23.5956
15 1 3.10916 3.00032 19.7956
16 2 6.73426 3.06925 17.499
17 2 4.40313 3.31504 14.695
18 2 1.49574 0.247867 17.0905
19 2 4.24634 1.89962 17.5632
20 2 1.92329 1.90454 15.1091
21 2 4.29894 0.249702 15.3591
22 2 7.11463 3.64785 12.2711
23 2 3.9747 2.09628 11.9839
24 2 2.66877 2.80345 9.60927
25 2 5.6488 1.31496 9.73481
26 2 5.4952 4.16793 10.0426
27 2 1.52948 0.760133 12.6234
28 2 5.47905 3.22084 7.27166
29 2 0.160843 -0.00836179 6.96059
30 2 4.07413 0.235199 4.58104
31 2 2.80273 1.5178 7.21518
32 2 2.80017 3.77711 2.53722
33 2 1.91945 1.85202 4.52387
34 2 4.3599 3.1493 5.12566
35 2 5.30127 2.78923 2.59425
ITEM: TIMESTEP
16200
ITEM: NUMBER OF ATOMS
35
ITEM: BOX BOUNDS xy xz yz pp pp pp
0.0000000000000000e+00 7.6685730000000003e+00 2.5561910000000001e+00
0.0000000000000000e+00 4.4274529999999999e+00 0.0000000000000000e+00
0.0000000000000000e+00 3.1699265000000000e+01 0.0000000000000000e+00
ITEM: ATOMS id type x y z
1 1 3.30246 1.159 26.6241
2 1 4.43256 3.80415 27.4973
3 1 5.76842 3.29448 21.5018
4 1 6.95992 3.00391 26.9064
5 1 5.69616 2.15025 19.5538
6 1 5.70239 1.51016 27.5504
7 1 3.47842 1.12 24.2388
8 1 1.29544 0.535068 25.4551
9 1 3.12317 0.409254 19.4006
10 1 4.91796 2.69504 25.4618
11 1 3.29352 3.61448 23.7633
12 1 1.39777 0.746929 21.8806
13 1 4.22791 1.63015 22.1026
14 1 1.42484 2.09663 23.6969
15 1 3.01078 3.6256 19.4772
16 2 6.58182 2.84489 17.4115
17 2 4.70262 2.89372 14.6593
18 2 1.33318 0.0927959 17.2498
19 2 4.0351 1.69021 17.2723
20 2 1.98278 1.87713 14.7881
21 2 4.31971 0.297184 14.8403
22 2 6.92495 3.61207 12.2713
23 2 4.37942 1.93424 12.2907
24 2 3.05189 2.63548 9.57486
25 2 5.40475 0.999953 9.92921
26 2 5.56283 4.12171 9.82465
27 2 1.89758 0.568231 12.6297
28 2 5.49477 2.70238 7.52043
29 2 2.72927 4.34045 7.14863
30 2 4.12023 0.757925 4.57605
31 2 2.77553 1.27995 7.21466
32 2 3.05849 4.27391 2.54899
33 2 1.64805 2.0552 4.77733
34 2 4.05444 3.8248 4.91841
35 2 5.3751 2.93918 2.86893
ITEM: TIMESTEP
16300
ITEM: NUMBER OF ATOMS
35
ITEM: BOX BOUNDS xy xz yz pp pp pp
0.0000000000000000e+00 7.6685730000000003e+00 2.5561910000000001e+00
0.0000000000000000e+00 4.4274529999999999e+00 0.0000000000000000e+00
0.0000000000000000e+00 3.1699265000000000e+01 0.0000000000000000e+00
ITEM: ATOMS id type x y z
1 1 3.61753 0.697666 26.6783
2 1 4.36351 3.17765 27.6863
3 1 6.20603 4.03234 21.7259
4 1 2.10797 3.31549 26.2543
5 1 4.99981 2.48262 19.5241
6 1 5.44529 0.860421 27.9402
7 1 3.37725 0.571351 24.2149
8 1 1.09251 0.960173 25.5559
9 1 2.60545 1.06432 19.4771
10 1 4.33652 2.94672 25.4008
11 1 2.92936 3.94472 23.3321
12 1 1.64987 0.857721 21.6794
13 1 4.35795 1.72908 21.8842
14 1 0.906458 2.46323 23.6101
15 1 2.89267 3.52943 19.9657
16 2 6.5298 3.16769 17.0091
17 2 4.47118 3.39621 14.8646
18 2 1.41715 -0.09173 17.1244
19 2 3.95107 1.36369 17.0785
20 2 2.23605 1.68733 14.8814
21 2 4.68733 0.139682 14.4742
22 2 6.89127 3.01072 12.2099
23 2 4.5555 1.79681 12.2967
24 2 3.21803 2.45533 9.92514
25 2 5.67083 1.07715 9.94303
26 2 5.46513 4.14896 9.79929
27 2 1.98359 0.325772 12.1069
28 2 5.22742 2.43694 7.42673
29 2 2.72969 4.03302 7.72596
30 2 4.10218 1.23303 4.70504
31 2 2.86164 0.929671 7.28535
32 2 2.9434 4.8097 2.67946
33 2 1.48994 2.5365 5.18351
34 2 4.04303 3.86311 5.12643
35 2 5.67161 2.98713 2.53306
ITEM: TIMESTEP
16400
ITEM: NUMBER OF ATOMS
35
ITEM: BOX BOUNDS xy xz yz pp pp pp
0.0000000000000000e+00 7.6685730000000003e+00 2.5561910000000001e+00
0.0000000000000000e+00 4.4274529999999999e+00 0.0000000000000000e+00
0.0000000000000000e+00 3.1699265000000000e+01 0.0000000000000000e+00
ITEM: ATOMS id type x y z
1 1 2.7338 1.04788 26.6485
2 1 4.86237 2.71269 27.5536
3 1 6.05661 4.09209 21.7255
4 1 1.72853 3.29724 25.2481
5 1 5.11505 2.24986 19.1466
6 1 5.80371 0.206968 27.9496
7 1 2.90824 0.406972 24.0134
8 1 0.369458 0.991653 25.8391
9 1 2.39277 1.41271 19.1706
10 1 4.30549 2.86825 25.098
11 1 3.24639 4.08525 23.269
12 1 1.76057 1.48984 21.4827
13 1 4.06132 2.80694 21.5879
14 1 5.89679 2.06352 23.4597
15 1 2.65789 3.98614 19.3729
16 2 6.56733 3.06337 16.9439
17 2 4.87232 3.19841 14.6773
18 2 3.79207 4.43366 17.513
19 2 3.96851 1.51683 17.0044
20 2 2.12213 1.66143 14.6603
21 2 4.78511 0.219152 14.5533
22 2 2.0703 3.07858 12.401
23 2 4.33939 1.48086 12.3285
24 2 3.20865 2.34572 9.92934
25 2 5.85417 1.16971 9.83656
26 2 5.91275 3.78332 9.72573
27 2 1.91224 -0.129981 12.3119
28 2 5.14462 2.26369 7.44783
29 2 2.67505 3.45516 7.58491
30 2 3.9553 1.27355 4.98526
31 2 2.70262 0.833168 7.361
32 2 0.525862 0.469764 3.05522
33 2 6.65391 3.11923 5.07784
34 2 4.04471 4.19317 5.29016
35 2 5.77681 3.49687 2.87299
ITEM: TIMESTEP
16500
ITEM: NUMBER OF ATOMS
35
ITEM: BOX BOUNDS xy xz yz pp pp pp
0.0000000000000000e+00 7.6685730000000003e+00 2.5561910000000001e+00
0.0000000000000000e+00 4.4274529999999999e+00 0.0000000000000000e+00
0.0000000000000000e+00 3.1699265000000000e+01 0.0000000000000000e+00
ITEM: ATOMS id type x y z
1 1 2.33112 1.2699 26.2675
2 1 5.56608 2.43427 27.1655
3 1 6.02018 4.3692 21.8728
4 1 6.21398 2.93389 25.039
5 1 5.41633 2.51489 19.4826
6 1 3.49397 3.54905 27.2916
7 1 2.58576 1.42532 23.923
8 1 5.03095 0.689532 25.489
9 1 3.12555 1.73348 19.0753
10 1 3.76147 3.11409 25.0096
11 1 2.57167 3.99814 23.2642
12 1 1.71535 1.86308 21.2498
13 1 3.85202 3.23819 21.1254
14 1 5.24543 2.29056 23.0924
15 1 6.84727 4.36408 19.8083
16 2 6.45469 2.82446 17.1673
17 2 4.94562 2.84339 14.6647
18 2 1.47177 0.107487 16.968
19 2 3.87729 1.82568 16.8104
20 2 2.26515 1.34755 14.5825
21 2 4.81211 0.0504081 15.1188
22 2 1.89193 3.04565 12.3591
23 2 4.64505 1.39977 12.1855
24 2 3.57466 2.18565 9.84003
25 2 0.903127 0.535401 9.88678
26 2 6.13296 3.74828 10.0444
27 2 4.58504 4.37583 12.2781
28 2 5.28669 1.81489 7.37692
29 2 2.45425 3.65314 7.51283
30 2 3.94 1.77613 5.03684
31 2 2.66143 0.511816 7.84925
32 2 0.686965 0.815437 3.02789
33 2 6.64807 2.77815 5.13449
34 2 1.56619 0.170192 5.44868
35 2 5.4317 4.11219 3.11385
ITEM: TIMESTEP
16600
ITEM: NUMBER OF ATOMS
35
ITEM: BOX BOUNDS xy xz yz pp pp pp
0.0000000000000000e+00 7.6685730000000003e+00 2.5561910000000001e+00
0.0000000000000000e+00 4.4274529999999999e+00 0.0000000000000000e+00
0.0000000000000000e+00 3.1699265000000000e+01 0.0000000000000000e+00
ITEM: ATOMS id type x y z
1 1 2.46285 0.46116 26.1541
2 1 5.99228 2.18745 27.4323
3 1 3.08343 0.130115 21.6758
4 1 6.15655 3.32743 24.7371
5 1 5.14106 2.53318 19.5682
6 1 3.02852 2.8742 26.9703
7 1 2.03787 1.35679 23.9401
8 1 4.71412 1.11574 25.158
9 1 2.53322 2.25475 19.5283
10 1 3.70584 3.58015 24.424
11 1 2.32287 4.22104 22.7977
12 1 1.08417 2.08166 21.6727
13 1 3.58993 4.06827 20.6349
14 1 4.09872 2.07522 22.4002
15 1 4.74245 0.311757 18.9801
16 2 6.40967 3.04241 17.2581
17 2 4.76998 2.85708 14.4877
18 2 1.81615 0.176816 17.2699
19 2 3.91724 1.75644 16.9982
20 2 2.56493 1.12653 14.6428
21 2 7.42339 3.83536 14.8602
22 2 2.46771 2.66151 12.4413
23 2 4.89167 1.46261 12.4088
24 2 3.78683 2.03969 9.89574
25 2 0.869628 0.432056 9.97716
26 2 6.16142 3.30132 10.1871
27 2 2.14917 -0.0109456 12.305
28 2 5.20473 2.12454 7.5993
29 2 2.65318 3.37106 7.56887
30 2 3.95592 1.7728 5.01119
31 2 2.78207 0.320692 7.91
32 2 5.35054 1.41605 2.91233
33 2 6.60338 2.9964 4.92697
34 2 1.57207 0.033826 5.62798
35 2 5.39188 4.62714 3.19991
ITEM: TIMESTEP
16700
ITEM: NUMBER OF ATOMS
35
ITEM: BOX BOUNDS xy xz yz pp pp pp
0.0000000000000000e+00 7.6685730000000003e+00 2.5561910000000001e+00
0.0000000000000000e+00 4.4274529999999999e+00 0.0000000000000000e+00
0.0000000000000000e+00 3.1699265000000000e+01 0.0000000000000000e+00
ITEM: ATOMS id type x y z
1 1 2.17598 -0.185478 26.7257
2 1 5.7171 1.84829 26.4719
3 1 5.59831 4.49296 20.8755
4 1 6.42003 3.78203 24.8419
5 1 4.77147 2.73435 19.3376
6 1 3.07717 2.47437 26.3462
7 1 2.16729 1.18872 24.1468
8 1 4.60335 1.3782 24.5204
9 1 2.31729 2.04615 19.6135
10 1 3.65078 3.48999 24.1401
11 1 7.43569 4.80705 22.6152
12 1 5.94092 2.33201 22.3645
13 1 0.552559 0.748225 20.6553
14 1 3.11267 2.42919 22.0324
15 1 3.90401 0.0322663 18.9449
16 2 6.65561 2.9578 16.9767
17 2 5.13779 2.60379 14.8991
18 2 1.56989 0.189081 17.7946
19 2 3.99747 2.01148 16.9851
20 2 2.38993 0.999588 15.1307
21 2 2.45433 4.15303 14.7477
22 2 2.73234 2.69038 12.4073
23 2 5.15982 0.847925 12.4477
24 2 3.50313 1.78912 10.16
25 2 0.913207 0.383464 9.70581
26 2 6.32275 3.10741 10.1227
27 2 5.24705 4.03291 12.3298
28 2 5.41551 2.05896 7.57554
29 2 2.72639 3.04836 7.57295
30 2 3.86253 1.49924 5.53664
31 2 3.06276 0.443864 7.79692
32 2 5.15129 1.70834 3.03524
33 2 6.70898 3.38646 4.8101
34 2 1.33868 0.316601 5.32495
35 2 2.4997 0.757604 2.98675
ITEM: TIMESTEP
16800
ITEM: NUMBER OF ATOMS
35
ITEM: BOX BOUNDS xy xz yz pp pp pp
0.0000000000000000e+00 7.6685730000000003e+00 2.5561910000000001e+00
0.0000000000000000e+00 4.4274529999999999e+00 0.0000000000000000e+00
0.0000000000000000e+00 3.1699265000000000e+01 0.0000000000000000e+00
ITEM: ATOMS id type x y z
1 1 4.70297 4.10028 26.6355
2 1 5.77361 1.34537 26.6556
3 1 2.43591 0.131252 21.3127
4 1 6.28482 3.46009 25.1274
5 1 4.63764 2.50026 19.5689
6 1 3.12159 2.02725 26.1897
7 1 2.25542 1.63596 23.766
8 1 4.65774 1.54035 24.4462
9 1 2.24302 2.78725 19.2828
10 1 3.5304 3.98751 24.0424
11 1 4.57062 -0.00522774 22.4768
12 1 5.43461 2.78695 22.6873
13 1 0.566696 0.940623 20.6565
14 1 3.37315 2.61579 21.4871
15 1 3.44033 0.275158 18.9768
16 2 6.54352 2.99178 16.9698
17 2 5.33553 2.48116 14.5
18 2 0.912187 0.410593 17.755
19 2 4.0992 1.93521 17.1542
20 2 2.6091 0.79573 15.217
21 2 2.63394 4.24406 15.1089
22 2 2.69048 2.28014 12.8872
23 2 5.63846 0.961631 12.118
24 2 3.74637 1.51701 10.213
25 2 1.2483 -0.1188 9.76861
26 2 6.21565 3.14685 9.97098
27 2 5.33607 3.91078 12.5179
28 2 5.63839 1.76516 7.58329
29 2 2.95738 3.39476 7.30633
30 2 3.76144 1.66867 5.55682
31 2 3.11812 0.161883 7.70654
32 2 4.77392 2.15631 3.28407
33 2 6.44832 3.41039 4.63048
34 2 1.35047 0.436471 5.27429
35 2 2.44551 1.09918 2.93627
ITEM: TIMESTEP
16900
ITEM: NUMBER OF ATOMS
35
ITEM: BOX BOUNDS xy xz yz pp pp pp
0.0000000000000000e+00 7.6685730000000003e+00 2.5561910000000001e+00
0.0000000000000000e+00 4.4274529999999999e+00 0.0000000000000000e+00
0.0000000000000000e+00 3.1699265000000000e+01 0.0000000000000000e+00
ITEM: ATOMS id type x y z
1 1 5.02137 3.55119 26.9361
2 1 5.36804 1.19632 26.8175
3 1 2.3751 0.164939 21.5323
4 1 6.59327 3.36845 25.1908
5 1 4.63287 3.43914 19.294
6 1 2.84119 1.79951 26.5013
7 1 2.41178 1.64608 23.6501
8 1 4.47945 1.513 24.6915
9 1 1.63666 3.16186 19.7412
10 1 4.09107 4.12889 24.5098
11 1 4.78512 -0.201875 22.8497
12 1 5.49934 2.1295 22.0071
13 1 5.03181 0.860132 19.9524
14 1 3.26268 2.66973 21.323
15 1 2.8056 1.44368 19.0744
16 2 6.15965 3.24718 17.1663
17 2 5.27915 2.06675 14.6959
18 2 0.818035 0.381712 17.6988
19 2 3.66081 2.2172 17.1118
20 2 2.83875 0.620149 15.2414
21 2 2.95709 3.81452 14.8518
22 2 3.09963 2.3658 12.8646
23 2 0.532797 1.04504 12.0636
24 2 3.75008 1.3613 10.1295
25 2 3.98765 3.96136 9.93258
26 2 6.7373 2.77111 10.2024
27 2 5.4577 4.00427 12.3278
28 2 5.85139 1.80296 7.7012
29 2 2.9709 3.48311 7.59996
30 2 3.76619 1.81909 5.39181
31 2 2.99262 0.0960667 7.52223
32 2 4.42939 2.72526 2.95679
33 2 6.64604 3.50795 4.8226
34 2 1.28557 0.329621 5.00675
35 2 2.18387 1.19551 2.90418
ITEM: TIMESTEP
17000
ITEM: NUMBER OF ATOMS
35
ITEM: BOX BOUNDS xy xz yz pp pp pp
0.0000000000000000e+00 7.6685730000000003e+00 2.5561910000000001e+00
0.0000000000000000e+00 4.4274529999999999e+00 0.0000000000000000e+00
0.0000000000000000e+00 3.1699265000000000e+01 0.0000000000000000e+00
ITEM: ATOMS id type x y z
1 1 5.53668 3.3933 27.4412
2 1 5.1248 0.42195 26.6403
3 1 2.08535 0.23585 21.9966
4 1 6.60869 3.47356 25.5577
5 1 3.38181 3.55017 19.1443
6 1 2.34184 1.16099 26.4669
7 1 2.69094 1.74096 24.0272
8 1 5.19688 1.5413 24.2858
9 1 6.35875 3.87666 20.4022
10 1 4.29891 3.93728 24.3491
11 1 7.1431 4.11679 22.9947
12 1 5.79508 2.2518 22.2496
13 1 5.11653 1.468 19.5989
14 1 3.37052 2.33566 21.8366
15 1 2.26833 1.14505 19.5657
16 2 6.00333 3.73996 17.6091
17 2 5.61412 2.02573 14.9349
18 2 0.637779 0.945823 17.027
19 2 3.33979 2.35501 16.9611
20 2 2.73556 0.411227 15.0243
21 2 2.88728 3.44787 14.6412
22 2 3.35984 2.3779 12.0802
23 2 5.61042 0.842065 12.424
24 2 4.22899 0.761439 9.6769
25 2 4.44634 4.01346 10.1409
26 2 1.63474 2.55689 10.2321
27 2 5.84393 3.86734 12.7246
28 2 5.66092 1.83254 7.75491
29 2 2.8984 3.30536 7.85285
30 2 4.06733 1.8985 5.27799
31 2 2.91252 0.279129 7.34974
32 2 4.35148 3.26786 2.98217
33 2 6.36761 3.22081 4.75625
34 2 1.13257 0.419039 5.1495
35 2 2.08811 1.47582 2.71927
ITEM: TIMESTEP
17100
ITEM: NUMBER OF ATOMS
35
ITEM: BOX BOUNDS xy xz yz pp pp pp
0.0000000000000000e+00 7.6685730000000003e+00 2.5561910000000001e+00
0.0000000000000000e+00 4.4274529999999999e+00 0.0000000000000000e+00
0.0000000000000000e+00 3.1699265000000000e+01 0.0000000000000000e+00
ITEM: ATOMS id type x y z
1 1 5.45151 2.9457 27.2205
2 1 5.26105 0.512433 27.0888
3 1 4.03085 4.35285 22.3035
4 1 6.53024 3.46956 24.8135
5 1 2.84854 3.93566 19.2125
6 1 2.62453 0.719143 26.3928
7 1 3.17572 1.56322 24.1673
8 1 5.49842 1.22657 24.9826
9 1 6.34241 4.13294 20.7774
10 1 4.21925 3.44362 24.8462
11 1 4.36881 0.215764 23.027
12 1 6.0119 2.14258 22.335
13 1 4.55089 2.46746 19.5239
14 1 3.25855 2.09979 21.6964
15 1 1.96158 1.3821 19.6897
16 2 5.71973 4.09697 17.8958
17 2 5.33295 2.25116 14.6998
18 2 0.613715 0.953264 17.2253
19 2 3.13937 2.30223 17.065
20 2 3.1245 0.657891 15.0068
21 2 2.89619 3.3036 14.4448
22 2 3.62419 1.95126 11.961
23 2 0.992049 0.603114 12.5776
24 2 4.60545 0.539977 9.88949
25 2 4.51787 4.05271 10.0836
26 2 1.49734 2.25339 9.98891
27 2 5.93822 3.67144 12.3254
28 2 5.47655 1.92923 7.38918
29 2 3.08869 3.11047 7.59506
30 2 3.72955 2.07283 5.2626
31 2 2.95064 0.254985 7.31812
32 2 4.16857 3.47224 2.92076
33 2 6.41427 3.40583 4.8344
34 2 1.15596 0.403948 5.26953
35 2 2.13862 1.77122 3.03208
ITEM: TIMESTEP
17200
ITEM: NUMBER OF ATOMS
35
ITEM: BOX BOUNDS xy xz yz pp pp pp
0.0000000000000000e+00 7.6685730000000003e+00 2.5561910000000001e+00
0.0000000000000000e+00 4.4274529999999999e+00 0.0000000000000000e+00
0.0000000000000000e+00 3.1699265000000000e+01 0.0000000000000000e+00
ITEM: ATOMS id type x y z
1 1 5.59681 2.41901 26.8947
2 1 5.15128 -0.26654 27.3987
3 1 4.49334 3.9123 22.6874
4 1 6.88353 3.49794 25.2305
5 1 2.83489 4.25483 19.927
6 1 3.06852 1.03732 26.6464
7 1 2.50645 1.20974 24.0937
8 1 5.37541 1.14654 24.7914
9 1 5.38546 4.30156 20.3784
10 1 4.06798 3.40752 25.0542
11 1 4.4577 0.290255 22.5121
12 1 5.92062 2.37706 22.8198
13 1 4.25143 2.06855 19.5247
14 1 3.01474 2.17429 21.741
15 1 1.76958 2.0571 19.5943
16 2 5.48408 4.05117 17.6551
17 2 5.51072 2.28649 15.0193
18 2 0.58789 0.920045 17.0639
19 2 2.85568 2.67938 17.3764
20 2 3.13717 0.490138 14.9007
21 2 2.92123 3.61435 14.5645
22 2 3.76177 1.94966 12.2485
23 2 1.49203 0.742619 12.5984
24 2 4.37366 0.672349 9.89557
25 2 4.33284 3.55325 9.60438
26 2 1.97865 2.05022 9.67083
27 2 6.15585 3.23116 12.0516
28 2 5.70844 1.83279 7.21826
29 2 2.93871 3.18848 7.54854
30 2 3.57768 2.06011 5.15488
31 2 3.26754 0.247529 7.64231
32 2 4.22274 3.53898 2.93663
33 2 6.23763 3.99492 4.97065
34 2 1.1276 0.454845 5.21853
35 2 1.92892 1.75281 3.01888
ITEM: TIMESTEP
17300
ITEM: NUMBER OF ATOMS
35
ITEM: BOX BOUNDS xy xz yz pp pp pp
0.0000000000000000e+00 7.6685730000000003e+00 2.5561910000000001e+00
0.0000000000000000e+00 4.4274529999999999e+00 0.0000000000000000e+00
0.0000000000000000e+00 3.1699265000000000e+01 0.0000000000000000e+00
ITEM: ATOMS id type x y z
1 1 5.69911 1.79248 27.243
2 1 2.81862 3.52454 26.9777
3 1 4.02179 4.37838 22.7988
4 1 6.4251 3.08446 24.9505
5 1 2.6825 4.31834 20.2658
6 1 3.23435 1.24461 26.6749
7 1 2.60499 1.37695 24.2505
8 1 5.46727 0.752974 24.9522
9 1 4.88393 4.15531 19.7446
10 1 4.14698 3.48344 25.2866
11 1 4.06399 0.121363 22.4957
12 1 5.76354 2.25151 22.8262
13 1 3.91897 1.5526 19.2584
14 1 3.33258 2.27868 21.9256
15 1 1.11813 2.33079 19.6961
16 2 5.41936 3.86497 17.222
17 2 5.84803 2.34156 14.857
18 2 5.38316 0.95381 17.4288
19 2 2.81256 2.63644 17.1233
20 2 2.80738 0.835562 15.0112
21 2 2.91151 3.96327 14.7859
22 2 4.11289 2.1728 12.9477
23 2 1.52393 0.305653 12.2846
24 2 4.82789 0.690677 10.2044
25 2 4.31605 3.37619 9.87202
26 2 2.01838 1.71716 9.82519
27 2 6.72713 3.40947 12.1369
28 2 5.66843 1.78023 7.60256
29 2 3.04789 3.53289 7.2424
30 2 3.72089 2.13316 5.01895
31 2 3.21453 0.563563 7.36366
32 2 4.256 3.37167 2.8891
33 2 6.23769 3.52579 4.6941
34 2 1.1091 0.710157 5.00626
35 2 1.46671 2.01223 2.82343
ITEM: TIMESTEP
17400
ITEM: NUMBER OF ATOMS
35
ITEM: BOX BOUNDS xy xz yz pp pp pp
0.0000000000000000e+00 7.6685730000000003e+00 2.5561910000000001e+00
0.0000000000000000e+00 4.4274529999999999e+00 0.0000000000000000e+00
0.0000000000000000e+00 3.1699265000000000e+01 0.0000000000000000e+00
ITEM: ATOMS id type x y z
1 1 6.14511 1.8218 27.035
2 1 2.46482 3.60672 27.4718
3 1 1.10755 0.036822 22.3071
4 1 6.96154 3.33048 25.192
5 1 6.91076 4.1551 19.8473
6 1 2.87906 0.318917 26.49
7 1 2.90853 1.44228 24.2258
8 1 5.35957 0.887108 24.5588
9 1 4.49901 4.06146 19.6267
10 1 4.41849 2.89177 24.9823
11 1 6.43297 4.15266 22.8153
12 1 5.28565 2.08106 22.3544
13 1 3.2158 1.92351 19.3106
14 1 2.79042 2.26299 21.6794
15 1 5.79285 1.72148 20.1227
16 2 5.39324 3.74295 17.1554
17 2 5.7105 2.68838 14.8476
18 2 5.34017 1.00431 17.6516
19 2 2.93051 2.31728 17.1709
20 2 3.0207 1.07166 14.8606
21 2 3.00797 4.32148 15.1241
22 2 4.08518 1.80729 12.5768
23 2 1.97564 0.356089 12.4563
24 2 4.54947 0.366189 10.0717
25 2 4.84705 3.39743 9.96225
26 2 2.52196 1.96102 10.1312
27 2 6.93985 3.37106 12.7267
28 2 5.61944 2.32128 7.81027
29 2 3.10456 3.75536 7.56582
30 2 3.7975 1.77109 4.66169
31 2 2.9491 0.764275 7.18897
32 2 3.89632 3.46999 2.56999
33 2 6.51737 3.48459 5.01046
34 2 1.09194 0.677611 4.9737
35 2 1.26689 1.93352 2.28945
ITEM: TIMESTEP
17500
ITEM: NUMBER OF ATOMS
35
ITEM: BOX BOUNDS xy xz yz pp pp pp
0.0000000000000000e+00 7.6685730000000003e+00 2.5561910000000001e+00
0.0000000000000000e+00 4.4274529999999999e+00 0.0000000000000000e+00
0.0000000000000000e+00 3.1699265000000000e+01 0.0000000000000000e+00
ITEM: ATOMS id type x y z
1 1 5.56446 2.03897 26.6738
2 1 3.29237 3.52938 27.3006
3 1 3.95508 4.16905 21.8056
4 1 2.10369 3.26793 25.0323
5 1 6.5465 3.60398 19.9395
6 1 2.4806 0.505051 26.5576
7 1 3.13115 0.805949 24.2095
8 1 0.460862 0.784309 24.3147
9 1 3.71332 3.81099 19.6229
10 1 4.49503 2.91073 24.5781
11 1 6.55954 4.30823 22.1806
12 1 4.34848 2.026 22.5749
13 1 2.64337 1.52145 20.026
14 1 1.86353 1.87941 22.2118
15 1 5.37836 1.65259 20.273
16 2 5.51152 3.99453 17.6309
17 2 5.32055 2.70386 15.14
18 2 5.48639 1.00251 17.6811
19 2 2.67777 2.40028 17.1725
20 2 3.34953 1.18528 14.8671
21 2 3.15343 4.31847 15.2803
22 2 4.73274 1.62757 11.889
23 2 1.76385 0.372873 12.689
24 2 4.88802 0.510551 9.62572
25 2 5.15132 3.53218 10.2619
26 2 2.39929 2.23447 10.0433
27 2 2.05328 3.20178 12.7971
28 2 5.53996 2.54 7.34377
29 2 3.07442 3.70218 7.53979
30 2 3.76989 1.91075 4.46598
31 2 2.97943 1.05598 7.25578
32 2 3.5309 3.72725 2.63095
33 2 6.54649 3.22558 5.04267
34 2 1.44442 0.270863 5.00069
35 2 1.12182 1.87627 2.7002
ITEM: TIMESTEP
17600
ITEM: NUMBER OF ATOMS
35
ITEM: BOX BOUNDS xy xz yz pp pp pp
0.0000000000000000e+00 7.6685730000000003e+00 2.5561910000000001e+00
0.0000000000000000e+00 4.4274529999999999e+00 0.0000000000000000e+00
0.0000000000000000e+00 3.1699265000000000e+01 0.0000000000000000e+00
ITEM: ATOMS id type x y z
1 1 5.10763 1.56839 26.42
2 1 3.27113 3.75128 26.2788
3 1 3.90946 4.3837 21.9924
4 1 1.90125 2.58409 25.0845
5 1 6.41687 2.92912 19.6101
6 1 2.85963 1.17221 26.9867
7 1 3.56163 0.688281 24.5502
8 1 0.854073 0.578523 24.61
9 1 3.73644 3.45811 19.2959
10 1 4.49533 3.10928 24.143
11 1 6.38706 4.21274 22.2587
12 1 3.68582 2.06009 22.4401
13 1 2.34963 0.706561 19.9109
14 1 1.28313 2.00615 22.8917
15 1 4.49577 1.38483 20.134
16 2 5.58636 4.24432 17.4866
17 2 5.7225 2.66271 15.1619
18 2 5.1631 1.33426 17.8007
19 2 2.60669 2.40115 17.3878
20 2 3.18827 1.05112 14.7878
21 2 3.24054 4.33994 15.3297
22 2 4.6492 1.62043 12.3436
23 2 2.07036 0.0724942 12.7171
24 2 5.34978 0.923164 9.44752
25 2 5.0982 4.11087 10.0885
26 2 2.35848 2.23127 9.94619
27 2 2.12683 3.20442 12.4255
28 2 5.49406 2.33005 7.21876
29 2 3.00752 3.73477 7.17458
30 2 4.12866 1.63867 4.67104
31 2 2.97914 0.88155 7.49269
32 2 3.15029 3.73948 2.77607
33 2 6.67064 3.46896 5.04335
34 2 1.72542 0.204077 5.09459
35 2 6.07152 1.9794 2.90737
ITEM: TIMESTEP
17700
ITEM: NUMBER OF ATOMS
35
ITEM: BOX BOUNDS xy xz yz pp pp pp
0.0000000000000000e+00 7.6685730000000003e+00 2.5561910000000001e+00
0.0000000000000000e+00 4.4274529999999999e+00 0.0000000000000000e+00
0.0000000000000000e+00 3.1699265000000000e+01 0.0000000000000000e+00
ITEM: ATOMS id type x y z
1 1 5.15994 1.82426 26.7555
2 1 3.81048 3.65304 27.0327
3 1 3.92803 4.04119 21.766
4 1 1.94861 2.64812 25.0544
5 1 5.85892 3.36199 19.749
6 1 2.54627 1.34151 27.0366
7 1 3.33144 0.802524 24.7563
8 1 0.809244 0.185201 24.0166
9 1 3.47667 3.04463 19.5405
10 1 4.81459 2.8843 24.6249
11 1 6.35496 4.36286 22.4203
12 1 2.77146 2.03817 22.0056
13 1 2.3827 1.01092 19.817
14 1 5.39431 2.03415 21.9618
15 1 4.92496 0.648819 20.3081
16 2 5.27987 4.0458 17.22
17 2 6.10838 2.57332 14.7561
18 2 5.0682 1.34278 17.6184
19 2 2.55369 2.52521 17.1005
20 2 3.4337 1.25901 14.9307
21 2 3.21081 4.27896 15.2648
22 2 4.3921 1.73734 12.5131
23 2 4.7162 4.53078 12.4635
24 2 5.07634 0.943732 10.0194
25 2 5.28721 3.70927 9.89208
26 2 2.9864 2.75599 9.84472
27 2 2.07948 3.30617 12.4604
28 2 5.51941 2.18397 7.31432
29 2 2.98225 3.78724 7.63082
30 2 4.31047 1.87608 4.99268
31 2 2.89121 0.665001 7.58929
32 2 2.96963 3.52985 2.90034
33 2 6.95977 3.27302 5.2126
34 2 1.9144 0.450454 4.72533
35 2 5.87658 2.07647 2.76845
ITEM: TIMESTEP
17800
ITEM: NUMBER OF ATOMS
35
ITEM: BOX BOUNDS xy xz yz pp pp pp
0.0000000000000000e+00 7.6685730000000003e+00 2.5561910000000001e+00
0.0000000000000000e+00 4.4274529999999999e+00 0.0000000000000000e+00
0.0000000000000000e+00 3.1699265000000000e+01 0.0000000000000000e+00
ITEM: ATOMS id type x y z
1 1 5.3436 1.36225 26.6558
2 1 3.77826 3.66834 26.7414
3 1 4.14814 4.29836 21.6864
4 1 2.12595 3.0305 24.9345
5 1 6.15899 3.05063 19.8648
6 1 2.76341 1.61541 26.9267
7 1 3.09987 0.329491 24.9432
8 1 0.920496 1.03464 24.1442
9 1 3.84053 2.83213 19.4961
10 1 4.54341 2.60584 24.5491
11 1 6.53603 4.02624 22.8269
12 1 1.76944 2.11853 22.3002
13 1 1.98397 1.02138 19.1086
14 1 4.33317 1.66395 21.9014
15 1 4.85176 0.43268 19.9435
16 2 4.82373 3.8724 17.1273
17 2 5.92423 2.63895 14.6771
18 2 5.07335 0.958244 17.2502
19 2 2.17974 2.72192 17.2503
20 2 3.57919 1.26316 15.0471
21 2 3.62044 4.24163 14.6677
22 2 4.45997 2.05415 12.6108
23 2 1.84998 0.662333 12.1834
24 2 5.46699 0.814425 10.2953
25 2 5.93868 3.69356 9.95857
26 2 2.96828 2.0505 10.1188
27 2 2.10257 3.47379 12.439
28 2 5.56754 2.22712 7.88408
29 2 3.09157 3.97024 7.54301
30 2 4.38055 2.09849 5.28718
31 2 2.99027 0.874809 7.34397
32 2 3.08044 3.27557 2.90921
33 2 1.79962 3.04967 5.41866
34 2 2.0418 0.429899 4.56642
35 2 5.47062 2.33005 2.92859
ITEM: TIMESTEP
17900
ITEM: NUMBER OF ATOMS
35
ITEM: BOX BOUNDS xy xz yz pp pp pp
0.0000000000000000e+00 7.6685730000000003e+00 2.5561910000000001e+00
0.0000000000000000e+00 4.4274529999999999e+00 0.0000000000000000e+00
0.0000000000000000e+00 3.1699265000000000e+01 0.0000000000000000e+00
ITEM: ATOMS id type x y z
1 1 5.05606 1.44737 26.072
2 1 4.24824 3.74892 26.2317
3 1 3.93236 4.19669 21.6758
4 1 1.94941 2.94568 25.2306
5 1 6.43465 2.43599 19.5896
6 1 2.7887 1.59884 27.2008
7 1 3.37076 0.56421 25.1417
8 1 0.884255 0.655402 23.9429
9 1 3.76959 2.59058 19.3798
10 1 4.04992 2.86347 23.9764
11 1 6.34977 4.25496 23.0014
12 1 1.34578 1.98275 21.9943
13 1 2.61254 0.172416 19.4368
14 1 3.86008 1.8835 21.7922
15 1 4.71195 0.364593 20.1607
16 2 4.50866 3.65541 17.0504
17 2 6.11715 2.92451 14.9494
18 2 4.89404 0.953796 17.1371
19 2 2.10164 2.64004 17.3301
20 2 3.12049 1.2029 15.0502
21 2 3.48921 4.07222 14.4494
22 2 4.63267 2.40991 12.3459
23 2 2.38954 1.01882 12.6325
24 2 0.938154 0.329025 9.77754
25 2 5.71824 3.68938 10.2222
26 2 3.29053 2.02406 9.92419
27 2 6.97162 3.86987 12.4611
28 2 5.57854 2.50352 7.95307
29 2 3.31976 3.88413 7.44625
30 2 4.52582 1.92172 5.51387
31 2 3.0861 0.823759 7.56122
32 2 2.83292 3.11385 3.15462
33 2 6.79574 3.46627 5.37424
34 2 1.94989 0.365316 4.5156
35 2 5.55375 2.31878 3.07784
ITEM: TIMESTEP
18000
ITEM: NUMBER OF ATOMS
35
ITEM: BOX BOUNDS xy xz yz pp pp pp
0.0000000000000000e+00 7.6685730000000003e+00 2.5561910000000001e+00
0.0000000000000000e+00 4.4274529999999999e+00 0.0000000000000000e+00
0.0000000000000000e+00 3.1699265000000000e+01 0.0000000000000000e+00
ITEM: ATOMS id type x y z
1 1 5.33813 1.50374 26.3479
2 1 4.07777 3.92875 26.3806
3 1 4.38797 4.05053 21.7868
4 1 2.10522 3.2674 24.9
5 1 5.84683 1.912 19.7836
6 1 2.41199 1.63552 27.1631
7 1 2.86734 0.909465 24.8254
8 1 0.625077 0.771896 24.0508
9 1 3.7458 2.16635 19.2084
10 1 4.55304 2.82315 23.7964
11 1 6.41811 4.29929 23.0086
12 1 5.76187 1.98446 21.9475
13 1 2.75197 0.102417 19.2983
14 1 3.35308 1.39204 21.3402
15 1 2.75717 4.04334 19.5488
16 2 4.63967 3.82666 17.0818
17 2 5.67859 2.8291 14.7195
18 2 4.7526 0.805867 17.5394
19 2 2.02764 2.18664 17.3439
20 2 3.32474 1.37951 15.2258
21 2 3.16021 4.1789 14.9701
22 2 4.85968 2.46261 12.4121
23 2 2.09701 1.48852 12.4374
24 2 0.751218 0.67136 10.1648
25 2 6.2109 3.4193 10.0625
26 2 3.51587 2.2287 9.89961
27 2 7.32898 4.36578 12.3213
28 2 5.99593 2.31122 7.63776
29 2 3.43463 3.65063 7.1455
30 2 4.43288 1.73215 5.38897
31 2 3.13204 0.787046 7.78154
32 2 2.98662 3.22268 3.19383
33 2 6.5416 3.61719 5.36168
34 2 1.85214 0.566236 4.7591
35 2 5.41421 1.92866 2.98586
ITEM: TIMESTEP
18100
ITEM: NUMBER OF ATOMS
35
ITEM: BOX BOUNDS xy xz yz pp pp pp
0.0000000000000000e+00 7.6685730000000003e+00 2.5561910000000001e+00
0.0000000000000000e+00 4.4274529999999999e+00 0.0000000000000000e+00
0.0000000000000000e+00 3.1699265000000000e+01 0.0000000000000000e+00
ITEM: ATOMS id type x y z
1 1 4.6507 1.26412 26.589
2 1 4.15872 3.8021 26.509
3 1 4.08058 3.53722 21.8669
4 1 1.87056 3.23693 25.0192
5 1 1.381 1.72815 19.6484
6 1 2.27553 2.17901 26.9112
7 1 3.51632 0.843256 24.5112
8 1 0.866222 1.22864 24.542
9 1 3.88259 2.17459 19.0826
10 1 4.48223 3.21036 24.2383
11 1 6.81884 4.04868 22.2734
12 1 5.60105 1.55831 21.9712
13 1 5.10078 4.05066 19.9916
14 1 2.72064 1.8427 21.8439
15 1 7.4301 4.18151 20.1725
16 2 4.80295 3.72644 17.358
17 2 5.77986 2.81465 14.9406
18 2 4.69651 0.220197 17.3377
19 2 1.72417 2.09351 17.0766
20 2 3.2877 1.31745 14.9893
21 2 0.755719 0.0561205 14.9782
22 2 4.33411 3.31814 12.4034
23 2 2.16862 1.47678 12.4125
24 2 1.03577 1.01354 9.87612
25 2 6.47429 3.80356 9.76914
26 2 3.64673 2.17563 10.1184
27 2 4.70823 0.0576013 12.6105
28 2 1.12326 1.78932 7.43216
29 2 3.58594 3.60976 7.33463
30 2 4.00857 1.77513 5.28479
31 2 3.67324 0.561773 7.67704
32 2 3.27796 3.43089 3.38243
33 2 6.24454 3.30784 4.91836
34 2 1.54068 0.778396 5.0726
35 2 5.29699 1.59354 2.8335
ITEM: TIMESTEP
18200
ITEM: NUMBER OF ATOMS
35
ITEM: BOX BOUNDS xy xz yz pp pp pp
0.0000000000000000e+00 7.6685730000000003e+00 2.5561910000000001e+00
0.0000000000000000e+00 4.4274529999999999e+00 0.0000000000000000e+00
0.0000000000000000e+00 3.1699265000000000e+01 0.0000000000000000e+00
ITEM: ATOMS id type x y z
1 1 4.64234 0.847369 26.7318
2 1 4.68969 4.38391 26.9179
3 1 3.67152 4.00124 22.2949
4 1 7.05531 3.40705 24.6986
5 1 1.22317 2.09366 19.6458
6 1 1.53519 2.28491 26.955
7 1 3.86561 1.21822 24.093
8 1 1.03395 0.999186 24.6905
9 1 3.57693 1.74888 19.5163
10 1 4.54523 3.09017 25.1041
11 1 6.47985 3.33883 22.3615
12 1 4.85405 1.50538 21.8194
13 1 5.20531 4.00808 20.013
14 1 2.4257 1.44538 21.7927
15 1 2.73322 4.02283 19.8956
16 2 4.49211 3.47331 17.5295
17 2 6.12028 3.0595 14.5961
18 2 4.55898 0.240645 17.4473
19 2 2.13423 1.75917 17.2879
20 2 3.29015 1.46512 14.8592
21 2 3.55591 4.10671 14.8118
22 2 4.57455 3.40879 12.3554
23 2 1.90995 2.09658 12.3215
24 2 1.48605 0.605359 9.86589
25 2 6.23424 3.7838 10.2724
26 2 3.84178 2.27186 9.84666
27 2 4.25311 0.559184 12.5766
28 2 6.344 2.32995 7.49361
29 2 3.80537 3.27258 7.5769
30 2 3.75394 1.84178 5.13796
31 2 4.04166 0.412007 7.35182
32 2 3.292 3.2448 3.03427
33 2 6.10046 3.62892 4.73609
34 2 1.19509 0.511398 5.30117
35 2 5.30666 1.44874 2.92645
ITEM: TIMESTEP
18300
ITEM: NUMBER OF ATOMS
35
ITEM: BOX BOUNDS xy xz yz pp pp pp
0.0000000000000000e+00 7.6685730000000003e+00 2.5561910000000001e+00
0.0000000000000000e+00 4.4274529999999999e+00 0.0000000000000000e+00
0.0000000000000000e+00 3.1699265000000000e+01 0.0000000000000000e+00
ITEM: ATOMS id type x y z
1 1 4.72759 0.538003 26.2708
2 1 2.28182 0.55485 27.1453
3 1 3.34764 3.58475 22.6943
4 1 2.4686 3.33396 24.6206
5 1 6.21302 1.85116 19.4821
6 1 1.65978 2.6477 26.9127
7 1 3.5128 1.05538 24.0404
8 1 1.20067 0.992543 24.5489
9 1 3.8349 1.59136 19.373
10 1 4.53321 2.97801 25.4262
11 1 5.48939 3.6563 22.5073
12 1 4.698 1.31957 22.0644
13 1 5.12654 4.15206 19.9297
14 1 1.98153 1.57766 21.9432
15 1 2.53994 3.76184 19.9885
16 2 4.59477 3.05921 17.329
17 2 6.0098 2.89853 14.9375
18 2 4.49818 0.237473 17.3343
19 2 2.0697 1.72081 17.3619
20 2 3.77285 1.38784 15.037
21 2 3.40026 4.368 14.951
22 2 4.16228 3.70108 12.3902
23 2 1.87689 2.28778 12.3225
24 2 1.25162 0.557652 9.86593
25 2 6.57289 3.54379 9.78369
26 2 4.0457 1.90623 9.98674
27 2 4.71265 0.945825 12.3041
28 2 1.54552 2.03834 7.65045
29 2 4.22463 3.59232 7.52326
30 2 3.39668 2.19127 5.13187
31 2 3.91907 0.705611 7.61948
32 2 2.97467 3.02228 2.55487
33 2 6.19756 3.53271 4.59552
34 2 0.88742 0.458911 5.41465
35 2 5.54453 1.49534 3.08794
ITEM: TIMESTEP
18400
ITEM: NUMBER OF ATOMS
35
ITEM: BOX BOUNDS xy xz yz pp pp pp
0.0000000000000000e+00 7.6685730000000003e+00 2.5561910000000001e+00
0.0000000000000000e+00 4.4274529999999999e+00 0.0000000000000000e+00
0.0000000000000000e+00 3.1699265000000000e+01 0.0000000000000000e+00
ITEM: ATOMS id type x y z
1 1 4.89038 1.19347 26.7362
2 1 2.26167 0.453533 26.4932
3 1 3.30074 3.44028 21.8564
4 1 1.83493 2.99213 24.5976
5 1 6.20315 1.40111 20.1237
6 1 1.96457 3.1374 26.9826
7 1 3.4626 1.10624 24.8316
8 1 0.698349 0.607084 24.2746
9 1 3.50913 1.75661 19.4947
10 1 4.68735 3.22949 24.914
11 1 5.59122 3.74988 22.637
12 1 4.31619 1.2373 21.6471
13 1 4.84364 3.72673 19.7343
14 1 1.79136 1.5606 22.4038
15 1 2.07927 3.93689 19.8585
16 2 4.66812 3.12304 17.3086
17 2 6.00952 2.935 14.8683
18 2 4.838 -0.180349 17.5576
19 2 1.92368 1.5923 17.1309
20 2 3.31593 1.44808 14.8022
21 2 3.5702 4.5103 15.0384
22 2 4.75104 3.91412 12.4594
23 2 2.15727 2.27296 12.7489
24 2 1.49605 0.581016 9.99271
25 2 6.8207 3.38574 9.72755
26 2 3.96016 2.07012 10.0731
27 2 4.41883 0.799688 12.6081
28 2 1.64052 2.04338 7.28608
29 2 4.43149 3.48482 7.6258
30 2 3.17673 2.02291 4.974
31 2 4.2238 0.788676 7.37925
32 2 2.88048 3.08534 2.79284
33 2 5.75783 3.78122 4.72206
34 2 0.689331 0.583994 5.36395
35 2 5.69386 1.43196 2.84937
ITEM: TIMESTEP
18500
ITEM: NUMBER OF ATOMS
35
ITEM: BOX BOUNDS xy xz yz pp pp pp
0.0000000000000000e+00 7.6685730000000003e+00 2.5561910000000001e+00
0.0000000000000000e+00 4.4274529999999999e+00 0.0000000000000000e+00
0.0000000000000000e+00 3.1699265000000000e+01 0.0000000000000000e+00
ITEM: ATOMS id type x y z
1 1 4.99679 2.46764 26.7598
2 1 1.57063 0.40015 26.8455
3 1 3.18345 3.84833 22.2313
4 1 1.6321 2.5946 24.4484
5 1 5.51753 1.51747 19.7112
6 1 2.19394 3.45735 26.5289
7 1 3.14642 0.603932 24.5777
8 1 0.479839 0.683615 24.2933
9 1 3.50226 1.48114 19.5477
10 1 4.46677 2.89538 24.204
11 1 6.00844 3.40865 22.1475
12 1 4.30103 1.40407 21.9903
13 1 4.37787 3.87077 19.8652
14 1 1.81362 1.37504 22.4585
15 1 1.99069 3.3512 20.0588
16 2 4.83024 2.96868 17.4172
17 2 5.92754 3.2832 14.974
18 2 7.23514 4.33982 17.4091
19 2 1.96057 1.24452 17.4773
20 2 3.31793 1.61983 15.3232
21 2 3.31184 4.25566 14.7845
22 2 4.90179 3.38707 12.3059
23 2 2.46822 2.41078 12.2739
24 2 1.87455 0.707789 9.9804
25 2 6.62163 3.6915 10.1382
26 2 4.18213 2.16414 10.0073
27 2 4.96922 0.843019 12.5171
28 2 1.84905 2.44298 7.28821
29 2 4.25042 3.46183 7.53109
30 2 3.25444 1.89888 5.0976
31 2 4.45197 0.475193 7.77221
32 2 2.89853 3.43683 2.90091
33 2 5.32297 3.58939 4.55049
34 2 0.391409 0.367699 5.07928
35 2 5.75142 1.57245 2.80308
ITEM: TIMESTEP
18600
ITEM: NUMBER OF ATOMS
35
ITEM: BOX BOUNDS xy xz yz pp pp pp
0.0000000000000000e+00 7.6685730000000003e+00 2.5561910000000001e+00
0.0000000000000000e+00 4.4274529999999999e+00 0.0000000000000000e+00
0.0000000000000000e+00 3.1699265000000000e+01 0.0000000000000000e+00
ITEM: ATOMS id type x y z
1 1 5.04655 3.04926 26.2251
2 1 1.70527 1.39333 26.5382
3 1 2.82603 3.70049 22.096
4 1 1.5055 2.17563 24.0298
5 1 5.56774 1.45548 19.9644
6 1 2.12116 3.61534 26.5381
7 1 5.42958 4.58404 24.2193
8 1 5.1762 0.659438 24.679
9 1 3.29428 1.10988 20.0164
10 1 3.79153 2.36036 24.414
11 1 5.57748 3.66292 21.8937
12 1 4.81125 1.50171 22.3758
13 1 4.27918 3.44605 19.9616
14 1 2.08375 1.37671 22.0389
15 1 1.98843 3.53523 19.5627
16 2 4.55581 2.68308 17.7161
17 2 5.95704 3.01909 15.0672
18 2 7.00225 4.21988 17.3212
19 2 1.92049 1.06558 17.3976
20 2 3.70538 1.74194 15.2516
21 2 0.860772 0.133884 14.8569
22 2 4.86376 3.77681 12.4077
23 2 2.65177 1.81909 12.3358
24 2 1.60448 0.849839 9.81787
25 2 6.86258 3.80773 10.3566
26 2 4.55828 2.45378 9.82244
27 2 5.3616 0.941702 12.2599
28 2 1.6668 2.04838 7.57773
29 2 4.46497 3.87259 7.34569
30 2 2.91943 1.80332 5.03921
31 2 4.26384 0.761827 7.7829
32 2 2.97459 3.33961 2.7119
33 2 5.48193 3.47506 4.78247
34 2 5.26899 0.272884 5.44764
35 2 5.96049 1.70427 2.72445
ITEM: TIMESTEP
18700
ITEM: NUMBER OF ATOMS
35
ITEM: BOX BOUNDS xy xz yz pp pp pp
0.0000000000000000e+00 7.6685730000000003e+00 2.5561910000000001e+00
0.0000000000000000e+00 4.4274529999999999e+00 0.0000000000000000e+00
0.0000000000000000e+00 3.1699265000000000e+01 0.0000000000000000e+00
ITEM: ATOMS id type x y z
1 1 4.71306 3.23234 26.4352
2 1 2.46967 1.36985 25.9326
3 1 3.31705 3.75032 22.3306
4 1 5.70789 2.58235 24.4521
5 1 5.646 0.855897 19.7583
6 1 2.57055 4.53638 27.1475
7 1 2.02856 0.332781 24.0786
8 1 4.78087 0.0412562 24.4242
9 1 3.05204 1.0098 19.4603
10 1 3.57199 2.32795 24.2381
11 1 5.81433 3.52485 21.9376
12 1 4.18622 1.22532 22.3699
13 1 4.38275 3.35374 19.8925
14 1 2.0365 1.5004 21.9044
15 1 6.7189 3.14149 19.6461
16 2 4.16608 2.4829 17.529
17 2 6.31898 2.92545 14.8829
18 2 7.09519 4.02809 17.0918
19 2 1.98635 0.960373 17.3452
20 2 3.63607 1.60446 14.9046
21 2 1.35246 0.118747 14.9742
22 2 5.22376 3.70686 12.7152
23 2 2.64562 2.41932 12.6949
24 2 1.73685 0.945527 9.93765
25 2 7.08275 3.62882 10.4521
26 2 4.31944 2.66265 9.89662
27 2 5.11581 1.06273 12.4009
28 2 1.67884 2.60452 7.49283
29 2 4.34756 3.73262 7.36072
30 2 2.576 1.79264 4.92953
31 2 4.06238 1.02647 7.59484
32 2 3.26816 3.26164 2.98524
33 2 5.48876 3.36727 4.84177
34 2 0.352357 0.231376 5.19699
35 2 5.9983 1.37314 2.98719
ITEM: TIMESTEP
18800
ITEM: NUMBER OF ATOMS
35
ITEM: BOX BOUNDS xy xz yz pp pp pp
0.0000000000000000e+00 7.6685730000000003e+00 2.5561910000000001e+00
0.0000000000000000e+00 4.4274529999999999e+00 0.0000000000000000e+00
0.0000000000000000e+00 3.1699265000000000e+01 0.0000000000000000e+00
ITEM: ATOMS id type x y z
1 1 4.06188 3.29179 26.1896
2 1 2.86309 1.2548 26.8383
3 1 3.18706 3.37224 21.8399
4 1 6.09452 2.48311 24.9184
5 1 5.42041 0.606278 19.3351
6 1 5.41169 1.23063 26.4621
7 1 1.56597 0.199811 24.3459
8 1 4.03571 0.320378 24.8255
9 1 2.9902 0.670095 19.9766
10 1 3.162 2.54698 24.1322
11 1 5.75923 3.70232 22.3496
12 1 4.58019 1.35377 21.6521
13 1 4.25348 3.10677 19.8474
14 1 1.87351 1.27438 21.7642
15 1 1.55337 2.53414 19.4088
16 2 4.51531 2.58571 17.1918
17 2 6.4866 2.84559 15.0412
18 2 7.0513 3.97644 17.2692
19 2 1.85106 0.953008 17.3233
20 2 3.97138 1.26008 14.9694
21 2 3.9626 4.15357 14.8293
22 2 5.11938 4.17869 12.3006
23 2 2.52748 2.79665 12.5348
24 2 1.8958 1.04184 10.0469
25 2 6.69973 3.99605 9.87464
26 2 4.35828 2.21797 10.0933
27 2 5.34057 1.05919 12.6642
28 2 6.59889 2.73674 7.5258
29 2 3.98954 4.08829 7.66058
30 2 2.99421 1.51649 5.41649
31 2 4.26003 1.12252 7.63996
32 2 3.4763 2.90215 2.94931
33 2 5.39783 3.30958 4.73042
34 2 0.177192 0.313282 5.34715
35 2 0.906077 1.45314 2.84876
ITEM: TIMESTEP
18900
ITEM: NUMBER OF ATOMS
35
ITEM: BOX BOUNDS xy xz yz pp pp pp
0.0000000000000000e+00 7.6685730000000003e+00 2.5561910000000001e+00
0.0000000000000000e+00 4.4274529999999999e+00 0.0000000000000000e+00
0.0000000000000000e+00 3.1699265000000000e+01 0.0000000000000000e+00
ITEM: ATOMS id type x y z
1 1 3.48583 3.48885 26.3204
2 1 2.8169 0.957363 26.7576
3 1 2.771 3.65439 21.7274
4 1 5.58176 2.69627 24.5695
5 1 5.76726 0.49283 19.7717
6 1 5.54004 1.28017 26.8764
7 1 1.36763 0.447987 24.4849
8 1 4.27647 0.709349 24.7448
9 1 2.96967 0.355345 19.3911
10 1 3.11531 2.54662 23.7405
11 1 5.69862 3.81637 22.3712
12 1 4.39135 1.61294 22.1525
13 1 3.98916 2.36463 19.6327
14 1 1.68099 1.28705 22.1247
15 1 1.73191 2.45421 19.7496
16 2 4.62842 2.58644 17.2278
17 2 6.54218 2.44483 14.8026
18 2 6.99758 4.10493 17.4532
19 2 2.02275 1.12501 17.1193
20 2 4.02441 0.810912 14.9405
21 2 4.0014 3.85974 14.82
22 2 5.43845 4.39868 12.2146
23 2 2.74152 2.66486 12.3559
24 2 1.4826 1.23889 9.96903
25 2 6.76477 3.9479 9.79655
26 2 4.37922 2.5603 10.3961
27 2 5.26675 1.52243 12.5752
28 2 6.3744 2.52961 7.31312
29 2 4.31408 4.18675 7.67664
30 2 2.86234 1.85992 5.3976
31 2 4.03868 1.31318 7.73356
32 2 3.3205 2.54374 3.15956
33 2 5.45791 3.28501 4.98064
34 2 0.3843 0.192181 5.0962
35 2 1.10919 1.25548 3.04314
ITEM: TIMESTEP
19000
ITEM: NUMBER OF ATOMS
35
ITEM: BOX BOUNDS xy xz yz pp pp pp
0.0000000000000000e+00 7.6685730000000003e+00 2.5561910000000001e+00
0.0000000000000000e+00 4.4274529999999999e+00 0.0000000000000000e+00
0.0000000000000000e+00 3.1699265000000000e+01 0.0000000000000000e+00
ITEM: ATOMS id type x y z
1 1 2.94052 2.98766 26.6669
2 1 2.91882 0.332147 26.7339
3 1 2.98394 4.06581 22.1409
4 1 5.10715 3.00758 24.9253
5 1 0.463431 0.00173168 19.6807
6 1 5.38341 1.76272 26.7136
7 1 1.69487 0.844011 24.0549
8 1 4.1609 0.582476 24.4383
9 1 2.81645 0.230626 19.5414
10 1 2.40847 2.88768 24.2595
11 1 5.39099 3.73672 21.7867
12 1 3.98288 1.63771 22.6535
13 1 4.22379 2.13912 20.0822
14 1 1.74633 2.02676 21.705
15 1 6.76531 2.37866 19.3577
16 2 4.57981 2.52452 17.2059
17 2 1.58082 1.99729 14.7066
18 2 7.40782 4.02589 17.2474
19 2 2.04882 1.30671 17.1923
20 2 3.96917 0.487641 15.0306
21 2 4.02745 3.49373 14.7018
22 2 5.60563 4.52719 12.618
23 2 2.82596 3.1734 12.5105
24 2 1.46828 1.2163 9.96967
25 2 6.92321 4.06411 10.0872
26 2 4.23791 3.09213 9.78662
27 2 5.41155 1.53543 12.3307
28 2 6.60693 2.81835 7.75385
29 2 4.00686 3.92537 7.39241
30 2 2.76948 1.68029 5.34471
31 2 3.78254 1.19172 7.92147
32 2 3.7409 2.57556 2.9217
33 2 5.41388 3.34313 4.78967
34 2 0.073677 0.26612 5.43805
35 2 1.32979 1.02543 3.00777
ITEM: TIMESTEP
19100
ITEM: NUMBER OF ATOMS
35
ITEM: BOX BOUNDS xy xz yz pp pp pp
0.0000000000000000e+00 7.6685730000000003e+00 2.5561910000000001e+00
0.0000000000000000e+00 4.4274529999999999e+00 0.0000000000000000e+00
0.0000000000000000e+00 3.1699265000000000e+01 0.0000000000000000e+00
ITEM: ATOMS id type x y z
1 1 2.5473 2.45398 26.8728
2 1 3.02661 -0.288669 26.8482
3 1 2.21754 4.24101 22.1949
4 1 4.65815 3.37113 24.5383
5 1 3.05011 4.53837 19.7618
6 1 5.62722 1.74552 26.4834
7 1 1.32396 1.17202 23.8392
8 1 3.94003 0.790583 25.0315
9 1 3.11851 -0.0639311 19.3217
10 1 2.13227 2.94905 24.6759
11 1 5.20989 4.27044 22.083
12 1 4.26519 2.19487 22.3332
13 1 4.07488 2.31789 19.9117
14 1 1.65477 1.92174 21.5409
15 1 1.53267 2.383 19.3429
16 2 4.87369 2.44068 17.5987
17 2 1.3882 1.78005 14.7609
18 2 2.58918 3.96283 17.2737
19 2 2.36594 0.867112 17.0354
20 2 4.12358 0.490302 14.8524
21 2 4.09163 3.16982 15.0413
22 2 2.54866 0.331295 12.6496
23 2 3.06583 3.26924 12.1862
24 2 1.88731 1.29984 10.0318
25 2 6.57878 4.54507 10.6216
26 2 4.47965 2.79916 9.82066
27 2 5.41188 1.8517 12.2775
28 2 6.45655 2.61867 7.73525
29 2 3.86815 4.10187 7.20332
30 2 2.42042 1.7274 5.21336
31 2 3.89267 0.908247 7.8583
32 2 4.00484 2.49 2.79665
33 2 5.45393 3.28766 4.8002
34 2 4.98487 0.741157 5.20114
35 2 1.48914 0.827757 2.98538
ITEM: TIMESTEP
19200
ITEM: NUMBER OF ATOMS
35
ITEM: BOX BOUNDS xy xz yz pp pp pp
0.0000000000000000e+00 7.6685730000000003e+00 2.5561910000000001e+00
0.0000000000000000e+00 4.4274529999999999e+00 0.0000000000000000e+00
0.0000000000000000e+00 3.1699265000000000e+01 0.0000000000000000e+00
ITEM: ATOMS id type x y z
1 1 3.56631 2.06284 26.7315
2 1 5.31867 3.87121 26.7615
3 1 2.49155 3.97543 22.4207
4 1 4.64947 3.48415 24.62
5 1 0.512151 0.378393 19.9899
6 1 5.4588 0.964632 26.4082
7 1 0.694778 1.20804 24.008
8 1 2.77219 1.54121 24.4004
9 1 3.37807 -0.290774 19.8641
10 1 2.26744 3.85793 24.9953
11 1 2.38234 0.0967354 22.2546
12 1 3.90936 2.00247 22.6962
13 1 4.15204 2.55025 20.4023
14 1 0.941598 2.49339 21.4311
15 1 2.19493 2.10864 18.8578
16 2 5.16352 2.06333 17.5478
17 2 1.43453 2.06143 15.1229
18 2 2.65574 3.86032 17.3468
19 2 2.97149 0.522107 16.8938
20 2 4.40353 0.147133 14.4519
21 2 3.92331 3.07999 15.1884
22 2 2.27976 0.464954 12.8996
23 2 2.72926 2.88519 12.3977
24 2 1.6562 1.40831 9.96654
25 2 4.41605 0.183091 10.5454
26 2 4.36551 2.96036 9.81845
27 2 5.35519 2.35843 12.5632
28 2 6.23597 2.35397 7.40525
29 2 3.90118 3.99475 7.28982
30 2 2.75556 2.34423 5.1597
31 2 3.91198 0.957945 7.42413
32 2 3.85949 2.15771 2.99239
33 2 5.09354 3.79999 5.02693
34 2 5.07925 0.506555 4.72873
35 2 1.62561 0.714534 2.80095
ITEM: TIMESTEP
19300
ITEM: NUMBER OF ATOMS
35
ITEM: BOX BOUNDS xy xz yz pp pp pp
0.0000000000000000e+00 7.6685730000000003e+00 2.5561910000000001e+00
0.0000000000000000e+00 4.4274529999999999e+00 0.0000000000000000e+00
0.0000000000000000e+00 3.1699265000000000e+01 0.0000000000000000e+00
ITEM: ATOMS id type x y z
1 1 4.14489 2.25144 26.3405
2 1 5.67673 4.14135 26.8811
3 1 2.46554 4.0645 22.7337
4 1 4.24529 3.65347 24.4
5 1 0.448811 0.596911 20.5005
6 1 6.02187 0.343464 26.9117
7 1 5.21499 1.63417 23.9972
8 1 2.14088 1.36769 25.0911
9 1 6.29824 3.9686 19.1342
10 1 6.72905 4.10422 24.9089
11 1 2.31039 -0.159147 22.1242
12 1 3.56695 2.05057 22.0014
13 1 4.10101 2.92763 19.8736
14 1 6.45775 2.1602 21.8934
15 1 2.16002 1.34099 18.997
16 2 5.06907 1.99298 17.8165
17 2 1.6127 1.94994 15.7111
18 2 3.23943 3.70245 17.4432
19 2 3.06482 0.208167 16.7835
20 2 4.30607 0.461481 14.2787
21 2 4.30972 2.99695 14.8759
22 2 2.01862 0.29723 12.7657
23 2 2.68641 2.94047 12.4998
24 2 1.69855 1.64087 9.79444
25 2 4.31329 0.129518 10.3229
26 2 4.3528 3.2147 10.0661
27 2 5.16892 1.99792 12.4968
28 2 6.09674 2.6114 7.30048
29 2 3.47357 4.0299 7.64385
30 2 2.80042 2.34775 5.43072
31 2 3.71137 0.903376 7.46462
32 2 4.10621 2.12423 2.66676
33 2 5.14388 4.14182 4.92341
34 2 5.0257 0.647455 4.72111
35 2 1.82931 0.58613 2.58328
ITEM: TIMESTEP
19400
ITEM: NUMBER OF ATOMS
35
ITEM: BOX BOUNDS xy xz yz pp pp pp
0.0000000000000000e+00 7.6685730000000003e+00 2.5561910000000001e+00
0.0000000000000000e+00 4.4274529999999999e+00 0.0000000000000000e+00
0.0000000000000000e+00 3.1699265000000000e+01 0.0000000000000000e+00
ITEM: ATOMS id type x y z
1 1 4.79607 2.42668 26.8268
2 1 6.28135 4.15827 27.4716
3 1 7.32201 4.35537 22.5311
4 1 3.32624 3.75019 24.4138
5 1 4.88626 0.786595 20.1076
6 1 0.871205 0.0479055 26.4986
7 1 5.1168 2.0893 24.1597
8 1 2.51724 1.80905 25.4724
9 1 6.41106 3.05114 19.4223
10 1 5.85907 4.01104 24.955
11 1 5.06671 4.24376 21.9278
12 1 3.51691 2.04464 21.9618
13 1 4.10086 3.55247 19.808
14 1 1.2947 1.84795 22.288
15 1 2.68942 1.14535 19.0614
16 2 5.22998 1.50862 17.7967
17 2 1.76146 1.78643 15.3204
18 2 3.24576 3.46366 17.2853
19 2 3.38833 -0.0172464 17.0183
20 2 4.2283 0.347476 14.5868
21 2 4.50254 3.23227 14.8618
22 2 2.43871 0.210887 12.331
23 2 2.28876 3.00901 12.4798
24 2 1.9103 2.01136 9.73876
25 2 4.08627 0.103469 10.3163
26 2 4.33014 3.21708 10.0704
27 2 5.15607 1.56396 12.0749
28 2 5.5393 2.75526 7.28953
29 2 3.20059 4.14987 7.64335
30 2 2.70578 2.35932 5.20697
31 2 3.24622 1.07384 7.99648
32 2 4.36651 2.3072 2.66842
33 2 5.26876 3.85459 4.88026
34 2 5.29259 1.19613 4.92361
35 2 2.01076 0.634819 2.70733
ITEM: TIMESTEP
19500
ITEM: NUMBER OF ATOMS
35
ITEM: BOX BOUNDS xy xz yz pp pp pp
0.0000000000000000e+00 7.6685730000000003e+00 2.5561910000000001e+00
0.0000000000000000e+00 4.4274529999999999e+00 0.0000000000000000e+00
0.0000000000000000e+00 3.1699265000000000e+01 0.0000000000000000e+00
ITEM: ATOMS id type x y z
1 1 5.00081 2.07366 26.9535
2 1 6.31464 4.49984 27.2139
3 1 7.02367 4.47442 21.8695
4 1 3.15175 3.89757 24.1997
5 1 5.23794 1.08628 20.117
6 1 1.27972 0.431957 26.7063
7 1 4.46506 1.39339 24.5079
8 1 2.77768 2.4648 26.2134
9 1 6.45306 3.27677 20.2979
10 1 5.65271 4.20383 24.9721
11 1 4.96625 4.30907 22.7398
12 1 3.6943 2.34489 22.0697
13 1 3.70528 3.45502 19.4206
14 1 0.951178 1.93418 22.385
15 1 2.668 1.12016 19.793
16 2 5.95851 1.40073 17.0331
17 2 1.97566 1.48825 14.7484
18 2 3.17189 2.61727 16.9051
19 2 5.56186 4.03854 17.5758
20 2 4.74307 0.395626 14.8664
21 2 4.52059 3.26621 14.5345
22 2 2.56201 0.0026663 12.316
23 2 2.38898 2.97303 12.7181
24 2 1.27982 1.92475 10.2179
25 2 4.29885 0.461183 9.64997
26 2 3.95769 3.46691 9.77472
27 2 5.13968 1.39942 12.4483
28 2 5.2923 2.57343 7.64825
29 2 2.82987 4.28233 7.36263
30 2 2.88131 2.64737 4.90718
31 2 2.82394 1.16577 7.20698
32 2 4.56679 2.34716 3.00369
33 2 5.52939 4.04262 5.10869
34 2 5.45543 1.01835 5.26293
35 2 2.06635 1.1058 3.01123
ITEM: TIMESTEP
19600
ITEM: NUMBER OF ATOMS
35
ITEM: BOX BOUNDS xy xz yz pp pp pp
0.0000000000000000e+00 7.6685730000000003e+00 2.5561910000000001e+00
0.0000000000000000e+00 4.4274529999999999e+00 0.0000000000000000e+00
0.0000000000000000e+00 3.1699265000000000e+01 0.0000000000000000e+00
ITEM: ATOMS id type x y z
1 1 5.20691 2.69101 27.0166
2 1 4.06491 0.530465 26.8262
3 1 4.90958 0.175099 22.5449
4 1 2.84354 3.58579 24.6756
5 1 5.06725 1.41023 19.1034
6 1 1.50563 0.269564 26.5251
7 1 4.08858 1.57583 24.6211
8 1 2.3988 2.53972 26.7319
9 1 6.63292 3.56325 19.9844
10 1 5.58476 3.52705 24.8415
11 1 2.10124 0.325333 22.7902
12 1 3.38206 2.37819 21.8774
13 1 3.44894 3.1035 19.3409
14 1 6.15466 2.5321 23.0581
15 1 2.1585 0.980349 20.172
16 2 0.911065 0.97816 17.088
17 2 2.45922 1.39159 14.3782
18 2 3.46109 2.13865 17.0308
19 2 5.73369 4.00647 17.5153
20 2 4.42747 -0.115694 15.3228
21 2 4.88246 3.01585 14.7833
22 2 5.25431 4.3805 11.9667
23 2 2.72328 3.12318 12.1928
24 2 1.30359 1.99425 10.0965
25 2 3.58005 0.825094 9.48112
26 2 3.71967 3.55963 10.0012
27 2 4.93766 1.31404 12.5499
28 2 5.27533 2.72619 7.60472
29 2 2.6091 3.81724 7.55083
30 2 3.11836 2.99779 4.96851
31 2 2.27903 1.2954 7.18745
32 2 4.82475 2.49164 3.03355
33 2 5.77045 4.03889 5.06898
34 2 5.55552 1.28789 5.14331
35 2 2.0563 1.24992 3.10762
ITEM: TIMESTEP
19700
ITEM: NUMBER OF ATOMS
35
ITEM: BOX BOUNDS xy xz yz pp pp pp
0.0000000000000000e+00 7.6685730000000003e+00 2.5561910000000001e+00
0.0000000000000000e+00 4.4274529999999999e+00 0.0000000000000000e+00
0.0000000000000000e+00 3.1699265000000000e+01 0.0000000000000000e+00
ITEM: ATOMS id type x y z
1 1 5.12506 3.11602 27.5903
2 1 4.12339 0.584637 26.6891
3 1 4.92318 0.590937 22.0508
4 1 2.66835 3.41821 24.5085
5 1 4.394 1.15325 20.0153
6 1 1.27772 0.969349 26.1859
7 1 3.80017 1.42119 24.2181
8 1 2.73585 2.66827 27.1401
9 1 5.71337 3.50446 20.6548
10 1 5.24685 3.27953 25.0944
11 1 2.39392 0.279132 22.5928
12 1 3.72838 2.8897 22.1352
13 1 3.45021 3.52404 19.502
14 1 6.28131 2.33621 22.7036
15 1 2.03385 1.27406 20.0496
16 2 1.17076 0.680396 16.8851
17 2 2.31807 1.15493 14.4615
18 2 3.57497 2.19963 17.2754
19 2 6.0898 3.64053 17.6776
20 2 7.5239 3.79269 14.7957
21 2 4.73672 2.60453 14.9088
22 2 5.32971 4.25752 12.2016
23 2 2.59554 2.94063 12.3443
24 2 6.0128 2.31403 9.7402
25 2 3.56939 0.853105 9.8066
26 2 3.78064 3.75053 9.93777
27 2 5.1909 1.56368 12.2505
28 2 4.65734 2.786 7.50227
29 2 2.17147 4.17554 7.63473
30 2 3.39515 3.02023 5.03684
31 2 2.41067 0.956117 7.19622
32 2 4.75148 2.87055 2.56073
33 2 5.99862 4.13673 4.86612
34 2 5.46789 1.39031 5.45107
35 2 2.38554 1.21678 3.17977
ITEM: TIMESTEP
19800
ITEM: NUMBER OF ATOMS
35
ITEM: BOX BOUNDS xy xz yz pp pp pp
0.0000000000000000e+00 7.6685730000000003e+00 2.5561910000000001e+00
0.0000000000000000e+00 4.4274529999999999e+00 0.0000000000000000e+00
0.0000000000000000e+00 3.1699265000000000e+01 0.0000000000000000e+00
ITEM: ATOMS id type x y z
1 1 5.18585 3.33676 27.52
2 1 3.83594 0.687949 26.3264
3 1 5.0815 0.266853 22.1993
4 1 2.80417 3.98631 24.6747
5 1 4.29253 1.37899 19.5514
6 1 1.66663 1.33785 25.6271
7 1 3.73462 1.27855 24.2046
8 1 2.92022 3.39795 26.7101
9 1 5.16025 3.68455 20.2112
10 1 4.97692 3.33468 25.1369
11 1 2.64446 0.04932 22.5432
12 1 3.52703 2.30013 21.981
13 1 3.11595 4.13643 19.5629
14 1 6.15776 2.14832 23.2653
15 1 1.81891 1.77455 19.8677
16 2 1.16031 0.497255 17.3242
17 2 2.40204 0.776601 14.9765
18 2 3.54828 2.01446 17.4603
19 2 6.28776 3.30069 17.7689
20 2 2.46872 4.04829 14.6562
21 2 5.05122 2.2376 14.7583
22 2 5.12154 4.14035 12.5413
23 2 2.64303 2.52135 12.181
24 2 6.20739 2.43813 9.53599
25 2 3.76593 0.827354 10.1954
26 2 3.65489 4.14457 10.1532
27 2 5.35432 1.34117 12.1764
28 2 4.37689 2.67203 7.47337
29 2 7.07387 4.19854 7.41552
30 2 3.54451 3.09968 4.98001
31 2 2.00364 1.35452 7.00868
32 2 4.78238 3.0582 2.76674
33 2 6.03345 3.96799 4.79515
34 2 5.69465 1.35523 4.91162
35 2 2.29819 1.57642 3.24823
ITEM: TIMESTEP
19900
ITEM: NUMBER OF ATOMS
35
ITEM: BOX BOUNDS xy xz yz pp pp pp
0.0000000000000000e+00 7.6685730000000003e+00 2.5561910000000001e+00
0.0000000000000000e+00 4.4274529999999999e+00 0.0000000000000000e+00
0.0000000000000000e+00 3.1699265000000000e+01 0.0000000000000000e+00
ITEM: ATOMS id type x y z
1 1 5.6498 3.01975 27.1709
2 1 4.19768 1.39802 26.6881
3 1 2.39289 4.54455 21.7118
4 1 2.61623 4.36026 24.0771
5 1 4.51348 1.86417 19.4024
6 1 1.50426 1.81764 25.5875
7 1 3.5808 1.85939 24.2529
8 1 2.793 3.47827 26.7419
9 1 5.671 4.0851 19.8406
10 1 5.54131 3.88724 24.9821
11 1 4.73505 3.76397 22.5767
12 1 3.0894 1.98017 21.8385
13 1 2.73682 3.28029 19.7427
14 1 6.30357 1.96679 23.0292
15 1 1.24964 1.45874 20.2977
16 2 0.971832 0.309268 17.7877
17 2 2.57771 0.865558 15.2784
18 2 3.83309 2.03381 17.1911
19 2 6.05683 3.32094 17.2385
20 2 2.45601 3.76898 15.0368
21 2 5.36397 2.37737 14.9435
22 2 5.22321 3.75598 12.559
23 2 2.64706 2.33602 12.2788
24 2 6.65518 2.60506 9.68653
25 2 3.55855 0.918591 9.88138
26 2 3.7892 4.17089 9.83806
27 2 5.30721 0.782939 12.5744
28 2 4.42227 2.73435 7.7697
29 2 7.209 4.34014 7.48211
30 2 3.27064 3.02013 5.27214
31 2 1.5783 1.42782 7.0336
32 2 4.80012 3.29965 2.63293
33 2 5.85024 4.29153 5.17162
34 2 5.37506 1.19609 4.33007
35 2 2.6497 1.73076 2.84689
ITEM: TIMESTEP
20000
ITEM: NUMBER OF ATOMS
35
ITEM: BOX BOUNDS xy xz yz pp pp pp
0.0000000000000000e+00 7.6685730000000003e+00 2.5561910000000001e+00
0.0000000000000000e+00 4.4274529999999999e+00 0.0000000000000000e+00
0.0000000000000000e+00 3.1699265000000000e+01 0.0000000000000000e+00
ITEM: ATOMS id type x y z
1 1 5.81222 3.60214 27.0572
2 1 4.01923 1.18202 26.6356
3 1 4.19641 -0.472278 21.8243
4 1 2.56551 4.31824 23.9781
5 1 5.05506 2.08745 19.8222
6 1 1.31507 1.68749 25.5587
7 1 4.04663 2.49752 24.4889
8 1 3.64767 3.84906 26.4799
9 1 3.12296 0.223177 19.2831
10 1 5.3276 4.41822 24.652
11 1 4.61111 3.75275 22.514
12 1 3.22973 2.32093 21.8384
13 1 2.28622 2.56819 19.3328
14 1 0.882209 1.94151 23.1914
15 1 1.37831 0.622932 21.1212
16 2 1.03603 0.534008 17.6582
17 2 2.45854 0.674949 14.6957
18 2 3.59596 1.86117 16.9251
19 2 6.34076 3.50751 17.252
20 2 3.00248 3.68729 15.2221
21 2 5.14572 2.1252 14.7727
22 2 5.33708 3.47902 12.41
23 2 2.71796 2.0294 12.7387
24 2 6.38301 2.66814 10.2216
25 2 3.83767 1.17797 9.86566
26 2 3.74429 4.33236 10.1149
27 2 5.13554 0.372942 12.6677
28 2 4.68039 2.91575 7.80667
29 2 4.33808 0.0539417 7.35265
30 2 2.89792 2.79061 5.28414
31 2 1.76031 1.34319 7.18682
32 2 4.91546 3.79024 2.79891
33 2 5.18996 4.17487 5.22559
34 2 5.62538 1.2032 3.9464
35 2 2.88469 1.89439 2.74477
