
     Program PWSCF v.7.5 starts on 24Nov2025 at 12:55:37 

     This program is part of the open-source Quantum ESPRESSO suite
     for quantum simulation of materials; please cite
         "P. Giannozzi et al., J. Phys.:Condens. Matter 21 395502 (2009);
         "P. Giannozzi et al., J. Phys.:Condens. Matter 29 465901 (2017);
         "P. Giannozzi et al., J. Chem. Phys. 152 154105 (2020);
          URL http://www.quantum-espresso.org", 
     in publications or presentations arising from this work. More details at
     http://www.quantum-espresso.org/quote

     Parallel version (MPI & OpenMP), running on     128 processor cores
     Number of MPI processes:                 1
     Threads/MPI process:                   128

     MPI processes distributed on     1 nodes
     79008 MiB available memory on the printing compute node when the environment starts

     Waiting for input...
     Reading input from standard input

     Current dimensions of program PWSCF are:
     Max number of different atomic species (ntypx) = 10
     Max number of k-points (npk) =  40000
     Max angular momentum in pseudopotentials (lmaxx) =  4
     file Cu.pbe-dn-kjpaw_psl.1.0.0.UPF: wavefunction(s)  4S 3D renormalized

     Subspace diagonalization in iterative solution of the eigenvalue problem:
     a serial algorithm will be used


     G-vector sticks info
     --------------------
     sticks:   dense  smooth     PW     G-vecs:    dense   smooth      PW
     Sum         241     241     85                 2445     2445     537

     Using Slab Decomposition



     bravais-lattice index     =            2
     lattice parameter (alat)  =       6.6300  a.u.
     unit-cell volume          =      72.8586 (a.u.)^3
     number of atoms/cell      =            1
     number of atomic types    =            1
     number of electrons       =        11.00
     number of Kohn-Sham states=           10
     kinetic-energy cutoff     =      40.0000  Ry
     charge density cutoff     =     160.0000  Ry
     scf convergence threshold =      1.0E-01
     mixing beta               =       0.7000
     number of iterations used =            8  plain     mixing
     Exchange-correlation= SLA  PW   PBX  PBC
                           (   1   4   3   4   0   0   0)

     celldm(1)=   6.630000  celldm(2)=   0.000000  celldm(3)=   0.000000
     celldm(4)=   0.000000  celldm(5)=   0.000000  celldm(6)=   0.000000

     crystal axes: (cart. coord. in units of alat)
               a(1) = (  -0.500000   0.000000   0.500000 )  
               a(2) = (   0.000000   0.500000   0.500000 )  
               a(3) = (  -0.500000   0.500000   0.000000 )  

     reciprocal axes: (cart. coord. in units 2 pi/alat)
               b(1) = ( -1.000000 -1.000000  1.000000 )  
               b(2) = (  1.000000  1.000000  1.000000 )  
               b(3) = ( -1.000000  1.000000 -1.000000 )  


     PseudoPot. # 1 for Cu read from file:
     /home/jovyan/espresso/pseudo/Cu.pbe-dn-kjpaw_psl.1.0.0.UPF
     MD5 check sum: cfffd1f38ee05704b3e17f46f1730a6f
     Pseudo is Projector augmented-wave + core cor, Zval = 11.0
     Generated using &quot;atomic&quot; code by A. Dal Corso  v.6.3
     Shape of augmentation charge: PSQ
     Using radial grid of 1199 points,  6 beta functions with: 
                l(1) =   0
                l(2) =   0
                l(3) =   1
                l(4) =   1
                l(5) =   2
                l(6) =   2
     Q(r) pseudized with 0 coefficients 


     atomic species   valence    mass     pseudopotential
     Cu               11.00    63.54600     Cu( 1.00)

     48 Sym. Ops., with inversion, found


                                    s                        frac. trans.

      isym =  1     identity                                     

 cryst.   s( 1) = (     1          0          0      )
                  (     0          1          0      )
                  (     0          0          1      )

 cart.    s( 1) = (  1.0000000  0.0000000  0.0000000 )
                  (  0.0000000  1.0000000  0.0000000 )
                  (  0.0000000  0.0000000  1.0000000 )


      isym =  2     180 deg rotation - cart. axis [0,0,1]        

 cryst.   s( 2) = (     0          1         -1      )
                  (     1          0         -1      )
                  (     0          0         -1      )

 cart.    s( 2) = ( -1.0000000  0.0000000  0.0000000 )
                  (  0.0000000 -1.0000000  0.0000000 )
                  (  0.0000000  0.0000000  1.0000000 )


      isym =  3     180 deg rotation - cart. axis [0,1,0]        

 cryst.   s( 3) = (    -1          0          0      )
                  (    -1          0          1      )
                  (    -1          1          0      )

 cart.    s( 3) = ( -1.0000000  0.0000000  0.0000000 )
                  (  0.0000000  1.0000000  0.0000000 )
                  (  0.0000000  0.0000000 -1.0000000 )


      isym =  4     180 deg rotation - cart. axis [1,0,0]        

 cryst.   s( 4) = (     0         -1          1      )
                  (     0         -1          0      )
                  (     1         -1          0      )

 cart.    s( 4) = (  1.0000000  0.0000000  0.0000000 )
                  (  0.0000000 -1.0000000  0.0000000 )
                  (  0.0000000  0.0000000 -1.0000000 )


      isym =  5     180 deg rotation - cart. axis [1,1,0]        

 cryst.   s( 5) = (     0         -1          0      )
                  (    -1          0          0      )
                  (     0          0         -1      )

 cart.    s( 5) = (  0.0000000  1.0000000  0.0000000 )
                  (  1.0000000  0.0000000  0.0000000 )
                  (  0.0000000  0.0000000 -1.0000000 )


      isym =  6     180 deg rotation - cart. axis [1,-1,0]       

 cryst.   s( 6) = (    -1          0          1      )
                  (     0         -1          1      )
                  (     0          0          1      )

 cart.    s( 6) = (  0.0000000 -1.0000000  0.0000000 )
                  ( -1.0000000  0.0000000  0.0000000 )
                  (  0.0000000  0.0000000 -1.0000000 )


      isym =  7      90 deg rotation - cart. axis [0,0,-1]       

 cryst.   s( 7) = (     0          1          0      )
                  (     0          1         -1      )
                  (    -1          1          0      )

 cart.    s( 7) = (  0.0000000  1.0000000  0.0000000 )
                  ( -1.0000000  0.0000000  0.0000000 )
                  (  0.0000000  0.0000000  1.0000000 )


      isym =  8      90 deg rotation - cart. axis [0,0,1]        

 cryst.   s( 8) = (     1          0         -1      )
                  (     1          0          0      )
                  (     1         -1          0      )

 cart.    s( 8) = (  0.0000000 -1.0000000  0.0000000 )
                  (  1.0000000  0.0000000  0.0000000 )
                  (  0.0000000  0.0000000  1.0000000 )


      isym =  9     180 deg rotation - cart. axis [1,0,1]        

 cryst.   s( 9) = (    -1          0          0      )
                  (     0          0         -1      )
                  (     0         -1          0      )

 cart.    s( 9) = (  0.0000000  0.0000000  1.0000000 )
                  (  0.0000000 -1.0000000  0.0000000 )
                  (  1.0000000  0.0000000  0.0000000 )


      isym = 10     180 deg rotation - cart. axis [-1,0,1]       

 cryst.   s(10) = (     1          0          0      )
                  (     1         -1          0      )
                  (     1          0         -1      )

 cart.    s(10) = (  0.0000000  0.0000000 -1.0000000 )
                  (  0.0000000 -1.0000000  0.0000000 )
                  ( -1.0000000  0.0000000  0.0000000 )


      isym = 11      90 deg rotation - cart. axis [0,1,0]        

 cryst.   s(11) = (     0          1         -1      )
                  (    -1          1          0      )
                  (     0          1          0      )

 cart.    s(11) = (  0.0000000  0.0000000  1.0000000 )
                  (  0.0000000  1.0000000  0.0000000 )
                  ( -1.0000000  0.0000000  0.0000000 )


      isym = 12      90 deg rotation - cart. axis [0,-1,0]       

 cryst.   s(12) = (     0         -1          1      )
                  (     0          0          1      )
                  (    -1          0          1      )

 cart.    s(12) = (  0.0000000  0.0000000 -1.0000000 )
                  (  0.0000000  1.0000000  0.0000000 )
                  (  1.0000000  0.0000000  0.0000000 )


      isym = 13     180 deg rotation - cart. axis [0,1,1]        

 cryst.   s(13) = (    -1          1          0      )
                  (     0          1          0      )
                  (     0          1         -1      )

 cart.    s(13) = ( -1.0000000  0.0000000  0.0000000 )
                  (  0.0000000  0.0000000  1.0000000 )
                  (  0.0000000  1.0000000  0.0000000 )


      isym = 14     180 deg rotation - cart. axis [0,1,-1]       

 cryst.   s(14) = (     0          0         -1      )
                  (     0         -1          0      )
                  (    -1          0          0      )

 cart.    s(14) = ( -1.0000000  0.0000000  0.0000000 )
                  (  0.0000000  0.0000000 -1.0000000 )
                  (  0.0000000 -1.0000000  0.0000000 )


      isym = 15      90 deg rotation - cart. axis [-1,0,0]       

 cryst.   s(15) = (     0          0          1      )
                  (    -1          0          1      )
                  (     0         -1          1      )

 cart.    s(15) = (  1.0000000  0.0000000  0.0000000 )
                  (  0.0000000  0.0000000  1.0000000 )
                  (  0.0000000 -1.0000000  0.0000000 )


      isym = 16      90 deg rotation - cart. axis [1,0,0]        

 cryst.   s(16) = (     1         -1          0      )
                  (     1          0         -1      )
                  (     1          0          0      )

 cart.    s(16) = (  1.0000000  0.0000000  0.0000000 )
                  (  0.0000000  0.0000000 -1.0000000 )
                  (  0.0000000  1.0000000  0.0000000 )


      isym = 17     120 deg rotation - cart. axis [-1,-1,-1]     

 cryst.   s(17) = (    -1          0          1      )
                  (    -1          1          0      )
                  (    -1          0          0      )

 cart.    s(17) = (  0.0000000  1.0000000  0.0000000 )
                  (  0.0000000  0.0000000  1.0000000 )
                  (  1.0000000  0.0000000  0.0000000 )


      isym = 18     120 deg rotation - cart. axis [-1,1,1]       

 cryst.   s(18) = (     0          1          0      )
                  (     0          0          1      )
                  (     1          0          0      )

 cart.    s(18) = (  0.0000000 -1.0000000  0.0000000 )
                  (  0.0000000  0.0000000  1.0000000 )
                  ( -1.0000000  0.0000000  0.0000000 )


      isym = 19     120 deg rotation - cart. axis [1,1,-1]       

 cryst.   s(19) = (     1          0         -1      )
                  (     0          0         -1      )
                  (     0          1         -1      )

 cart.    s(19) = (  0.0000000  1.0000000  0.0000000 )
                  (  0.0000000  0.0000000 -1.0000000 )
                  ( -1.0000000  0.0000000  0.0000000 )


      isym = 20     120 deg rotation - cart. axis [1,-1,1]       

 cryst.   s(20) = (     0         -1          0      )
                  (     1         -1          0      )
                  (     0         -1          1      )

 cart.    s(20) = (  0.0000000 -1.0000000  0.0000000 )
                  (  0.0000000  0.0000000 -1.0000000 )
                  (  1.0000000  0.0000000  0.0000000 )


      isym = 21     120 deg rotation - cart. axis [1,1,1]        

 cryst.   s(21) = (     0          0         -1      )
                  (     0          1         -1      )
                  (     1          0         -1      )

 cart.    s(21) = (  0.0000000  0.0000000  1.0000000 )
                  (  1.0000000  0.0000000  0.0000000 )
                  (  0.0000000  1.0000000  0.0000000 )


      isym = 22     120 deg rotation - cart. axis [-1,1,-1]      

 cryst.   s(22) = (    -1          1          0      )
                  (    -1          0          0      )
                  (    -1          0          1      )

 cart.    s(22) = (  0.0000000  0.0000000  1.0000000 )
                  ( -1.0000000  0.0000000  0.0000000 )
                  (  0.0000000 -1.0000000  0.0000000 )


      isym = 23     120 deg rotation - cart. axis [1,-1,-1]      

 cryst.   s(23) = (     0          0          1      )
                  (     1          0          0      )
                  (     0          1          0      )

 cart.    s(23) = (  0.0000000  0.0000000 -1.0000000 )
                  ( -1.0000000  0.0000000  0.0000000 )
                  (  0.0000000  1.0000000  0.0000000 )


      isym = 24     120 deg rotation - cart. axis [-1,-1,1]      

 cryst.   s(24) = (     1         -1          0      )
                  (     0         -1          1      )
                  (     0         -1          0      )

 cart.    s(24) = (  0.0000000  0.0000000 -1.0000000 )
                  (  1.0000000  0.0000000  0.0000000 )
                  (  0.0000000 -1.0000000  0.0000000 )


      isym = 25     inversion                                    

 cryst.   s(25) = (    -1          0          0      )
                  (     0         -1          0      )
                  (     0          0         -1      )

 cart.    s(25) = ( -1.0000000  0.0000000  0.0000000 )
                  (  0.0000000 -1.0000000  0.0000000 )
                  (  0.0000000  0.0000000 -1.0000000 )


      isym = 26     inv. 180 deg rotation - cart. axis [0,0,1]   

 cryst.   s(26) = (     0         -1          1      )
                  (    -1          0          1      )
                  (     0          0          1      )

 cart.    s(26) = (  1.0000000  0.0000000  0.0000000 )
                  (  0.0000000  1.0000000  0.0000000 )
                  (  0.0000000  0.0000000 -1.0000000 )


      isym = 27     inv. 180 deg rotation - cart. axis [0,1,0]   

 cryst.   s(27) = (     1          0          0      )
                  (     1          0         -1      )
                  (     1         -1          0      )

 cart.    s(27) = (  1.0000000  0.0000000  0.0000000 )
                  (  0.0000000 -1.0000000  0.0000000 )
                  (  0.0000000  0.0000000  1.0000000 )


      isym = 28     inv. 180 deg rotation - cart. axis [1,0,0]   

 cryst.   s(28) = (     0          1         -1      )
                  (     0          1          0      )
                  (    -1          1          0      )

 cart.    s(28) = ( -1.0000000  0.0000000  0.0000000 )
                  (  0.0000000  1.0000000  0.0000000 )
                  (  0.0000000  0.0000000  1.0000000 )


      isym = 29     inv. 180 deg rotation - cart. axis [1,1,0]   

 cryst.   s(29) = (     0          1          0      )
                  (     1          0          0      )
                  (     0          0          1      )

 cart.    s(29) = (  0.0000000 -1.0000000  0.0000000 )
                  ( -1.0000000  0.0000000  0.0000000 )
                  (  0.0000000  0.0000000  1.0000000 )


      isym = 30     inv. 180 deg rotation - cart. axis [1,-1,0]  

 cryst.   s(30) = (     1          0         -1      )
                  (     0          1         -1      )
                  (     0          0         -1      )

 cart.    s(30) = (  0.0000000  1.0000000  0.0000000 )
                  (  1.0000000  0.0000000  0.0000000 )
                  (  0.0000000  0.0000000  1.0000000 )


      isym = 31     inv.  90 deg rotation - cart. axis [0,0,-1]  

 cryst.   s(31) = (     0         -1          0      )
                  (     0         -1          1      )
                  (     1         -1          0      )

 cart.    s(31) = (  0.0000000 -1.0000000  0.0000000 )
                  (  1.0000000  0.0000000  0.0000000 )
                  (  0.0000000  0.0000000 -1.0000000 )


      isym = 32     inv.  90 deg rotation - cart. axis [0,0,1]   

 cryst.   s(32) = (    -1          0          1      )
                  (    -1          0          0      )
                  (    -1          1          0      )

 cart.    s(32) = (  0.0000000  1.0000000  0.0000000 )
                  ( -1.0000000  0.0000000  0.0000000 )
                  (  0.0000000  0.0000000 -1.0000000 )


      isym = 33     inv. 180 deg rotation - cart. axis [1,0,1]   

 cryst.   s(33) = (     1          0          0      )
                  (     0          0          1      )
                  (     0          1          0      )

 cart.    s(33) = (  0.0000000  0.0000000 -1.0000000 )
                  (  0.0000000  1.0000000  0.0000000 )
                  ( -1.0000000  0.0000000  0.0000000 )


      isym = 34     inv. 180 deg rotation - cart. axis [-1,0,1]  

 cryst.   s(34) = (    -1          0          0      )
                  (    -1          1          0      )
                  (    -1          0          1      )

 cart.    s(34) = (  0.0000000  0.0000000  1.0000000 )
                  (  0.0000000  1.0000000  0.0000000 )
                  (  1.0000000  0.0000000  0.0000000 )


      isym = 35     inv.  90 deg rotation - cart. axis [0,1,0]   

 cryst.   s(35) = (     0         -1          1      )
                  (     1         -1          0      )
                  (     0         -1          0      )

 cart.    s(35) = (  0.0000000  0.0000000 -1.0000000 )
                  (  0.0000000 -1.0000000  0.0000000 )
                  (  1.0000000  0.0000000  0.0000000 )


      isym = 36     inv.  90 deg rotation - cart. axis [0,-1,0]  

 cryst.   s(36) = (     0          1         -1      )
                  (     0          0         -1      )
                  (     1          0         -1      )

 cart.    s(36) = (  0.0000000  0.0000000  1.0000000 )
                  (  0.0000000 -1.0000000  0.0000000 )
                  ( -1.0000000  0.0000000  0.0000000 )


      isym = 37     inv. 180 deg rotation - cart. axis [0,1,1]   

 cryst.   s(37) = (     1         -1          0      )
                  (     0         -1          0      )
                  (     0         -1          1      )

 cart.    s(37) = (  1.0000000  0.0000000  0.0000000 )
                  (  0.0000000  0.0000000 -1.0000000 )
                  (  0.0000000 -1.0000000  0.0000000 )


      isym = 38     inv. 180 deg rotation - cart. axis [0,1,-1]  

 cryst.   s(38) = (     0          0          1      )
                  (     0          1          0      )
                  (     1          0          0      )

 cart.    s(38) = (  1.0000000  0.0000000  0.0000000 )
                  (  0.0000000  0.0000000  1.0000000 )
                  (  0.0000000  1.0000000  0.0000000 )


      isym = 39     inv.  90 deg rotation - cart. axis [-1,0,0]  

 cryst.   s(39) = (     0          0         -1      )
                  (     1          0         -1      )
                  (     0          1         -1      )

 cart.    s(39) = ( -1.0000000  0.0000000  0.0000000 )
                  (  0.0000000  0.0000000 -1.0000000 )
                  (  0.0000000  1.0000000  0.0000000 )


      isym = 40     inv.  90 deg rotation - cart. axis [1,0,0]   

 cryst.   s(40) = (    -1          1          0      )
                  (    -1          0          1      )
                  (    -1          0          0      )

 cart.    s(40) = ( -1.0000000  0.0000000  0.0000000 )
                  (  0.0000000  0.0000000  1.0000000 )
                  (  0.0000000 -1.0000000  0.0000000 )


      isym = 41     inv. 120 deg rotation - cart. axis [-1,-1,-1]

 cryst.   s(41) = (     1          0         -1      )
                  (     1         -1          0      )
                  (     1          0          0      )

 cart.    s(41) = (  0.0000000 -1.0000000  0.0000000 )
                  (  0.0000000  0.0000000 -1.0000000 )
                  ( -1.0000000  0.0000000  0.0000000 )


      isym = 42     inv. 120 deg rotation - cart. axis [-1,1,1]  

 cryst.   s(42) = (     0         -1          0      )
                  (     0          0         -1      )
                  (    -1          0          0      )

 cart.    s(42) = (  0.0000000  1.0000000  0.0000000 )
                  (  0.0000000  0.0000000 -1.0000000 )
                  (  1.0000000  0.0000000  0.0000000 )


      isym = 43     inv. 120 deg rotation - cart. axis [1,1,-1]  

 cryst.   s(43) = (    -1          0          1      )
                  (     0          0          1      )
                  (     0         -1          1      )

 cart.    s(43) = (  0.0000000 -1.0000000  0.0000000 )
                  (  0.0000000  0.0000000  1.0000000 )
                  (  1.0000000  0.0000000  0.0000000 )


      isym = 44     inv. 120 deg rotation - cart. axis [1,-1,1]  

 cryst.   s(44) = (     0          1          0      )
                  (    -1          1          0      )
                  (     0          1         -1      )

 cart.    s(44) = (  0.0000000  1.0000000  0.0000000 )
                  (  0.0000000  0.0000000  1.0000000 )
                  ( -1.0000000  0.0000000  0.0000000 )


      isym = 45     inv. 120 deg rotation - cart. axis [1,1,1]   

 cryst.   s(45) = (     0          0          1      )
                  (     0         -1          1      )
                  (    -1          0          1      )

 cart.    s(45) = (  0.0000000  0.0000000 -1.0000000 )
                  ( -1.0000000  0.0000000  0.0000000 )
                  (  0.0000000 -1.0000000  0.0000000 )


      isym = 46     inv. 120 deg rotation - cart. axis [-1,1,-1] 

 cryst.   s(46) = (     1         -1          0      )
                  (     1          0          0      )
                  (     1          0         -1      )

 cart.    s(46) = (  0.0000000  0.0000000 -1.0000000 )
                  (  1.0000000  0.0000000  0.0000000 )
                  (  0.0000000  1.0000000  0.0000000 )


      isym = 47     inv. 120 deg rotation - cart. axis [1,-1,-1] 

 cryst.   s(47) = (     0          0         -1      )
                  (    -1          0          0      )
                  (     0         -1          0      )

 cart.    s(47) = (  0.0000000  0.0000000  1.0000000 )
                  (  1.0000000  0.0000000  0.0000000 )
                  (  0.0000000 -1.0000000  0.0000000 )


      isym = 48     inv. 120 deg rotation - cart. axis [-1,-1,1] 

 cryst.   s(48) = (    -1          1          0      )
                  (     0          1         -1      )
                  (     0          1          0      )

 cart.    s(48) = (  0.0000000  0.0000000  1.0000000 )
                  ( -1.0000000  0.0000000  0.0000000 )
                  (  0.0000000  1.0000000  0.0000000 )


     point group O_h (m-3m) 
     there are 10 classes
     the character table:

       E     8C3   3C2   6C4   6C2'  i     8S6   3s_h  6S4   6s_d 
A_1g   1.00  1.00  1.00  1.00  1.00  1.00  1.00  1.00  1.00  1.00
A_2g   1.00  1.00  1.00 -1.00 -1.00  1.00  1.00  1.00 -1.00 -1.00
E_g    2.00 -1.00  2.00  0.00  0.00  2.00 -1.00  2.00  0.00  0.00
T_1g   3.00  0.00 -1.00  1.00 -1.00  3.00  0.00 -1.00  1.00 -1.00
T_2g   3.00  0.00 -1.00 -1.00  1.00  3.00  0.00 -1.00 -1.00  1.00
A_1u   1.00  1.00  1.00  1.00  1.00 -1.00 -1.00 -1.00 -1.00 -1.00
A_2u   1.00  1.00  1.00 -1.00 -1.00 -1.00 -1.00 -1.00  1.00  1.00
E_u    2.00 -1.00  2.00  0.00  0.00 -2.00  1.00 -2.00  0.00  0.00
T_1u   3.00  0.00 -1.00  1.00 -1.00 -3.00  0.00  1.00 -1.00  1.00
T_2u   3.00  0.00 -1.00 -1.00  1.00 -3.00  0.00  1.00  1.00 -1.00

     the symmetry operations in each class and the name of the first element:

     E        1
          identity                                               
     8C3     17   19   20   18   24   21   22   23
          120 deg rotation - cart. axis [-1,-1,-1]               
     3C2      2    4    3
          180 deg rotation - cart. axis [0,0,1]                  
     6C4      7    8   15   16   12   11
           90 deg rotation - cart. axis [0,0,-1]                 
     6C2'     5    6   14   13   10    9
          180 deg rotation - cart. axis [1,1,0]                  
     i       25
          inversion                                              
     8S6     41   43   44   42   48   45   46   47
          inv. 120 deg rotation - cart. axis [-1,-1,-1]          
     3s_h    26   28   27
          inv. 180 deg rotation - cart. axis [0,0,1]             
     6S4     31   32   39   40   36   35
          inv.  90 deg rotation - cart. axis [0,0,-1]            
     6s_d    29   30   38   37   34   33
          inv. 180 deg rotation - cart. axis [1,1,0]             

   Cartesian axes

     site n.     atom                  positions (alat units)
         1        Cu     tau(   1) = (   0.0000000   0.0000000   0.0000000  )

   Crystallographic axes

     site n.     atom                  positions (cryst. coord.)
         1        Cu     tau(   1) = (  0.0000000  0.0000000  0.0000000  )

     number of k points=   110  Marzari-Vanderbilt smearing, width (Ry)=  0.0200
                       cart. coord. in units 2pi/alat
        k(    1) = (  -0.0500000   0.0500000   0.0500000), wk =   0.0040000
        k(    2) = (  -0.1500000   0.1500000  -0.0500000), wk =   0.0120000
        k(    3) = (  -0.2500000   0.2500000  -0.1500000), wk =   0.0120000
        k(    4) = (  -0.3500000   0.3500000  -0.2500000), wk =   0.0120000
        k(    5) = (  -0.4500000   0.4500000  -0.3500000), wk =   0.0120000
        k(    6) = (   0.4500000  -0.4500000   0.5500000), wk =   0.0120000
        k(    7) = (   0.3500000  -0.3500000   0.4500000), wk =   0.0120000
        k(    8) = (   0.2500000  -0.2500000   0.3500000), wk =   0.0120000
        k(    9) = (   0.1500000  -0.1500000   0.2500000), wk =   0.0120000
        k(   10) = (   0.0500000  -0.0500000   0.1500000), wk =   0.0120000
        k(   11) = (  -0.0500000   0.2500000   0.0500000), wk =   0.0120000
        k(   12) = (  -0.1500000   0.3500000  -0.0500000), wk =   0.0240000
        k(   13) = (  -0.2500000   0.4500000  -0.1500000), wk =   0.0240000
        k(   14) = (  -0.3500000   0.5500000  -0.2500000), wk =   0.0240000
        k(   15) = (   0.5500000  -0.3500000   0.6500000), wk =   0.0240000
        k(   16) = (   0.4500000  -0.2500000   0.5500000), wk =   0.0240000
        k(   17) = (   0.3500000  -0.1500000   0.4500000), wk =   0.0240000
        k(   18) = (   0.2500000  -0.0500000   0.3500000), wk =   0.0240000
        k(   19) = (   0.1500000   0.0500000   0.2500000), wk =   0.0240000
        k(   20) = (  -0.0500000   0.4500000   0.0500000), wk =   0.0120000
        k(   21) = (  -0.1500000   0.5500000  -0.0500000), wk =   0.0240000
        k(   22) = (  -0.2500000   0.6500000  -0.1500000), wk =   0.0240000
        k(   23) = (   0.6500000  -0.2500000   0.7500000), wk =   0.0240000
        k(   24) = (   0.5500000  -0.1500000   0.6500000), wk =   0.0240000
        k(   25) = (   0.4500000  -0.0500000   0.5500000), wk =   0.0240000
        k(   26) = (   0.3500000   0.0500000   0.4500000), wk =   0.0240000
        k(   27) = (   0.2500000   0.1500000   0.3500000), wk =   0.0240000
        k(   28) = (  -0.0500000   0.6500000   0.0500000), wk =   0.0120000
        k(   29) = (  -0.1500000   0.7500000  -0.0500000), wk =   0.0240000
        k(   30) = (   0.7500000  -0.1500000   0.8500000), wk =   0.0240000
        k(   31) = (   0.6500000  -0.0500000   0.7500000), wk =   0.0240000
        k(   32) = (   0.5500000   0.0500000   0.6500000), wk =   0.0240000
        k(   33) = (   0.4500000   0.1500000   0.5500000), wk =   0.0240000
        k(   34) = (   0.3500000   0.2500000   0.4500000), wk =   0.0240000
        k(   35) = (  -0.0500000   0.8500000   0.0500000), wk =   0.0120000
        k(   36) = (   0.8500000  -0.0500000   0.9500000), wk =   0.0240000
        k(   37) = (   0.7500000   0.0500000   0.8500000), wk =   0.0240000
        k(   38) = (   0.6500000   0.1500000   0.7500000), wk =   0.0240000
        k(   39) = (   0.5500000   0.2500000   0.6500000), wk =   0.0240000
        k(   40) = (   0.4500000   0.3500000   0.5500000), wk =   0.0240000
        k(   41) = (  -0.0500000  -0.9500000   0.0500000), wk =   0.0120000
        k(   42) = (  -0.1500000  -0.8500000  -0.0500000), wk =   0.0240000
        k(   43) = (  -0.2500000  -0.7500000  -0.1500000), wk =   0.0240000
        k(   44) = (  -0.3500000  -0.6500000  -0.2500000), wk =   0.0240000
        k(   45) = (  -0.0500000  -0.7500000   0.0500000), wk =   0.0120000
        k(   46) = (  -0.1500000  -0.6500000  -0.0500000), wk =   0.0240000
        k(   47) = (  -0.2500000  -0.5500000  -0.1500000), wk =   0.0240000
        k(   48) = (  -0.0500000  -0.5500000   0.0500000), wk =   0.0120000
        k(   49) = (  -0.1500000  -0.4500000  -0.0500000), wk =   0.0240000
        k(   50) = (  -0.0500000  -0.3500000   0.0500000), wk =   0.0120000
        k(   51) = (  -0.1500000   0.1500000   0.1500000), wk =   0.0040000
        k(   52) = (  -0.2500000   0.2500000   0.0500000), wk =   0.0120000
        k(   53) = (  -0.3500000   0.3500000  -0.0500000), wk =   0.0120000
        k(   54) = (  -0.4500000   0.4500000  -0.1500000), wk =   0.0120000
        k(   55) = (   0.4500000  -0.4500000   0.7500000), wk =   0.0120000
        k(   56) = (   0.3500000  -0.3500000   0.6500000), wk =   0.0120000
        k(   57) = (   0.2500000  -0.2500000   0.5500000), wk =   0.0120000
        k(   58) = (   0.1500000  -0.1500000   0.4500000), wk =   0.0120000
        k(   59) = (  -0.1500000   0.3500000   0.1500000), wk =   0.0120000
        k(   60) = (  -0.2500000   0.4500000   0.0500000), wk =   0.0240000
        k(   61) = (  -0.3500000   0.5500000  -0.0500000), wk =   0.0240000
        k(   62) = (   0.5500000  -0.3500000   0.8500000), wk =   0.0240000
        k(   63) = (   0.4500000  -0.2500000   0.7500000), wk =   0.0240000
        k(   64) = (   0.3500000  -0.1500000   0.6500000), wk =   0.0240000
        k(   65) = (   0.2500000  -0.0500000   0.5500000), wk =   0.0240000
        k(   66) = (  -0.1500000   0.5500000   0.1500000), wk =   0.0120000
        k(   67) = (  -0.2500000   0.6500000   0.0500000), wk =   0.0240000
        k(   68) = (   0.6500000  -0.2500000   0.9500000), wk =   0.0240000
        k(   69) = (   0.5500000  -0.1500000   0.8500000), wk =   0.0240000
        k(   70) = (   0.4500000  -0.0500000   0.7500000), wk =   0.0240000
        k(   71) = (   0.3500000   0.0500000   0.6500000), wk =   0.0240000
        k(   72) = (  -0.1500000   0.7500000   0.1500000), wk =   0.0120000
        k(   73) = (   0.7500000  -0.1500000   1.0500000), wk =   0.0240000
        k(   74) = (   0.6500000  -0.0500000   0.9500000), wk =   0.0240000
        k(   75) = (   0.5500000   0.0500000   0.8500000), wk =   0.0240000
        k(   76) = (   0.4500000   0.1500000   0.7500000), wk =   0.0240000
        k(   77) = (  -0.1500000  -1.0500000   0.1500000), wk =   0.0120000
        k(   78) = (  -0.2500000  -0.9500000   0.0500000), wk =   0.0240000
        k(   79) = (  -0.3500000  -0.8500000  -0.0500000), wk =   0.0240000
        k(   80) = (  -0.1500000  -0.8500000   0.1500000), wk =   0.0120000
        k(   81) = (  -0.2500000  -0.7500000   0.0500000), wk =   0.0240000
        k(   82) = (  -0.1500000  -0.6500000   0.1500000), wk =   0.0120000
        k(   83) = (  -0.2500000   0.2500000   0.2500000), wk =   0.0040000
        k(   84) = (  -0.3500000   0.3500000   0.1500000), wk =   0.0120000
        k(   85) = (  -0.4500000   0.4500000   0.0500000), wk =   0.0120000
        k(   86) = (   0.4500000  -0.4500000   0.9500000), wk =   0.0120000
        k(   87) = (   0.3500000  -0.3500000   0.8500000), wk =   0.0120000
        k(   88) = (   0.2500000  -0.2500000   0.7500000), wk =   0.0120000
        k(   89) = (  -0.2500000   0.4500000   0.2500000), wk =   0.0120000
        k(   90) = (  -0.3500000   0.5500000   0.1500000), wk =   0.0240000
        k(   91) = (   0.5500000  -0.3500000   1.0500000), wk =   0.0240000
        k(   92) = (   0.4500000  -0.2500000   0.9500000), wk =   0.0240000
        k(   93) = (   0.3500000  -0.1500000   0.8500000), wk =   0.0240000
        k(   94) = (  -0.2500000   0.6500000   0.2500000), wk =   0.0120000
        k(   95) = (   0.6500000  -0.2500000   1.1500000), wk =   0.0240000
        k(   96) = (   0.5500000  -0.1500000   1.0500000), wk =   0.0240000
        k(   97) = (   0.4500000  -0.0500000   0.9500000), wk =   0.0240000
        k(   98) = (  -0.2500000  -1.1500000   0.2500000), wk =   0.0120000
        k(   99) = (  -0.3500000  -1.0500000   0.1500000), wk =   0.0240000
        k(  100) = (  -0.2500000  -0.9500000   0.2500000), wk =   0.0120000
        k(  101) = (  -0.3500000   0.3500000   0.3500000), wk =   0.0040000
        k(  102) = (  -0.4500000   0.4500000   0.2500000), wk =   0.0120000
        k(  103) = (   0.4500000  -0.4500000   1.1500000), wk =   0.0120000
        k(  104) = (   0.3500000  -0.3500000   1.0500000), wk =   0.0120000
        k(  105) = (  -0.3500000   0.5500000   0.3500000), wk =   0.0120000
        k(  106) = (   0.5500000  -0.3500000   1.2500000), wk =   0.0240000
        k(  107) = (   0.4500000  -0.2500000   1.1500000), wk =   0.0240000
        k(  108) = (  -0.3500000  -1.2500000   0.3500000), wk =   0.0120000
        k(  109) = (  -0.4500000   0.4500000   0.4500000), wk =   0.0040000
        k(  110) = (   0.4500000  -0.4500000   1.3500000), wk =   0.0120000

                       cryst. coord.
        k(    1) = (   0.0500000   0.0500000   0.0500000), wk =   0.0040000
        k(    2) = (   0.0500000   0.0500000   0.1500000), wk =   0.0120000
        k(    3) = (   0.0500000   0.0500000   0.2500000), wk =   0.0120000
        k(    4) = (   0.0500000   0.0500000   0.3500000), wk =   0.0120000
        k(    5) = (   0.0500000   0.0500000   0.4500000), wk =   0.0120000
        k(    6) = (   0.0500000   0.0500000  -0.4500000), wk =   0.0120000
        k(    7) = (   0.0500000   0.0500000  -0.3500000), wk =   0.0120000
        k(    8) = (   0.0500000   0.0500000  -0.2500000), wk =   0.0120000
        k(    9) = (   0.0500000   0.0500000  -0.1500000), wk =   0.0120000
        k(   10) = (   0.0500000   0.0500000  -0.0500000), wk =   0.0120000
        k(   11) = (   0.0500000   0.1500000   0.1500000), wk =   0.0120000
        k(   12) = (   0.0500000   0.1500000   0.2500000), wk =   0.0240000
        k(   13) = (   0.0500000   0.1500000   0.3500000), wk =   0.0240000
        k(   14) = (   0.0500000   0.1500000   0.4500000), wk =   0.0240000
        k(   15) = (   0.0500000   0.1500000  -0.4500000), wk =   0.0240000
        k(   16) = (   0.0500000   0.1500000  -0.3500000), wk =   0.0240000
        k(   17) = (   0.0500000   0.1500000  -0.2500000), wk =   0.0240000
        k(   18) = (   0.0500000   0.1500000  -0.1500000), wk =   0.0240000
        k(   19) = (   0.0500000   0.1500000  -0.0500000), wk =   0.0240000
        k(   20) = (   0.0500000   0.2500000   0.2500000), wk =   0.0120000
        k(   21) = (   0.0500000   0.2500000   0.3500000), wk =   0.0240000
        k(   22) = (   0.0500000   0.2500000   0.4500000), wk =   0.0240000
        k(   23) = (   0.0500000   0.2500000  -0.4500000), wk =   0.0240000
        k(   24) = (   0.0500000   0.2500000  -0.3500000), wk =   0.0240000
        k(   25) = (   0.0500000   0.2500000  -0.2500000), wk =   0.0240000
        k(   26) = (   0.0500000   0.2500000  -0.1500000), wk =   0.0240000
        k(   27) = (   0.0500000   0.2500000  -0.0500000), wk =   0.0240000
        k(   28) = (   0.0500000   0.3500000   0.3500000), wk =   0.0120000
        k(   29) = (   0.0500000   0.3500000   0.4500000), wk =   0.0240000
        k(   30) = (   0.0500000   0.3500000  -0.4500000), wk =   0.0240000
        k(   31) = (   0.0500000   0.3500000  -0.3500000), wk =   0.0240000
        k(   32) = (   0.0500000   0.3500000  -0.2500000), wk =   0.0240000
        k(   33) = (   0.0500000   0.3500000  -0.1500000), wk =   0.0240000
        k(   34) = (   0.0500000   0.3500000  -0.0500000), wk =   0.0240000
        k(   35) = (   0.0500000   0.4500000   0.4500000), wk =   0.0120000
        k(   36) = (   0.0500000   0.4500000  -0.4500000), wk =   0.0240000
        k(   37) = (   0.0500000   0.4500000  -0.3500000), wk =   0.0240000
        k(   38) = (   0.0500000   0.4500000  -0.2500000), wk =   0.0240000
        k(   39) = (   0.0500000   0.4500000  -0.1500000), wk =   0.0240000
        k(   40) = (   0.0500000   0.4500000  -0.0500000), wk =   0.0240000
        k(   41) = (   0.0500000  -0.4500000  -0.4500000), wk =   0.0120000
        k(   42) = (   0.0500000  -0.4500000  -0.3500000), wk =   0.0240000
        k(   43) = (   0.0500000  -0.4500000  -0.2500000), wk =   0.0240000
        k(   44) = (   0.0500000  -0.4500000  -0.1500000), wk =   0.0240000
        k(   45) = (   0.0500000  -0.3500000  -0.3500000), wk =   0.0120000
        k(   46) = (   0.0500000  -0.3500000  -0.2500000), wk =   0.0240000
        k(   47) = (   0.0500000  -0.3500000  -0.1500000), wk =   0.0240000
        k(   48) = (   0.0500000  -0.2500000  -0.2500000), wk =   0.0120000
        k(   49) = (   0.0500000  -0.2500000  -0.1500000), wk =   0.0240000
        k(   50) = (   0.0500000  -0.1500000  -0.1500000), wk =   0.0120000
        k(   51) = (   0.1500000   0.1500000   0.1500000), wk =   0.0040000
        k(   52) = (   0.1500000   0.1500000   0.2500000), wk =   0.0120000
        k(   53) = (   0.1500000   0.1500000   0.3500000), wk =   0.0120000
        k(   54) = (   0.1500000   0.1500000   0.4500000), wk =   0.0120000
        k(   55) = (   0.1500000   0.1500000  -0.4500000), wk =   0.0120000
        k(   56) = (   0.1500000   0.1500000  -0.3500000), wk =   0.0120000
        k(   57) = (   0.1500000   0.1500000  -0.2500000), wk =   0.0120000
        k(   58) = (   0.1500000   0.1500000  -0.1500000), wk =   0.0120000
        k(   59) = (   0.1500000   0.2500000   0.2500000), wk =   0.0120000
        k(   60) = (   0.1500000   0.2500000   0.3500000), wk =   0.0240000
        k(   61) = (   0.1500000   0.2500000   0.4500000), wk =   0.0240000
        k(   62) = (   0.1500000   0.2500000  -0.4500000), wk =   0.0240000
        k(   63) = (   0.1500000   0.2500000  -0.3500000), wk =   0.0240000
        k(   64) = (   0.1500000   0.2500000  -0.2500000), wk =   0.0240000
        k(   65) = (   0.1500000   0.2500000  -0.1500000), wk =   0.0240000
        k(   66) = (   0.1500000   0.3500000   0.3500000), wk =   0.0120000
        k(   67) = (   0.1500000   0.3500000   0.4500000), wk =   0.0240000
        k(   68) = (   0.1500000   0.3500000  -0.4500000), wk =   0.0240000
        k(   69) = (   0.1500000   0.3500000  -0.3500000), wk =   0.0240000
        k(   70) = (   0.1500000   0.3500000  -0.2500000), wk =   0.0240000
        k(   71) = (   0.1500000   0.3500000  -0.1500000), wk =   0.0240000
        k(   72) = (   0.1500000   0.4500000   0.4500000), wk =   0.0120000
        k(   73) = (   0.1500000   0.4500000  -0.4500000), wk =   0.0240000
        k(   74) = (   0.1500000   0.4500000  -0.3500000), wk =   0.0240000
        k(   75) = (   0.1500000   0.4500000  -0.2500000), wk =   0.0240000
        k(   76) = (   0.1500000   0.4500000  -0.1500000), wk =   0.0240000
        k(   77) = (   0.1500000  -0.4500000  -0.4500000), wk =   0.0120000
        k(   78) = (   0.1500000  -0.4500000  -0.3500000), wk =   0.0240000
        k(   79) = (   0.1500000  -0.4500000  -0.2500000), wk =   0.0240000
        k(   80) = (   0.1500000  -0.3500000  -0.3500000), wk =   0.0120000
        k(   81) = (   0.1500000  -0.3500000  -0.2500000), wk =   0.0240000
        k(   82) = (   0.1500000  -0.2500000  -0.2500000), wk =   0.0120000
        k(   83) = (   0.2500000   0.2500000   0.2500000), wk =   0.0040000
        k(   84) = (   0.2500000   0.2500000   0.3500000), wk =   0.0120000
        k(   85) = (   0.2500000   0.2500000   0.4500000), wk =   0.0120000
        k(   86) = (   0.2500000   0.2500000  -0.4500000), wk =   0.0120000
        k(   87) = (   0.2500000   0.2500000  -0.3500000), wk =   0.0120000
        k(   88) = (   0.2500000   0.2500000  -0.2500000), wk =   0.0120000
        k(   89) = (   0.2500000   0.3500000   0.3500000), wk =   0.0120000
        k(   90) = (   0.2500000   0.3500000   0.4500000), wk =   0.0240000
        k(   91) = (   0.2500000   0.3500000  -0.4500000), wk =   0.0240000
        k(   92) = (   0.2500000   0.3500000  -0.3500000), wk =   0.0240000
        k(   93) = (   0.2500000   0.3500000  -0.2500000), wk =   0.0240000
        k(   94) = (   0.2500000   0.4500000   0.4500000), wk =   0.0120000
        k(   95) = (   0.2500000   0.4500000  -0.4500000), wk =   0.0240000
        k(   96) = (   0.2500000   0.4500000  -0.3500000), wk =   0.0240000
        k(   97) = (   0.2500000   0.4500000  -0.2500000), wk =   0.0240000
        k(   98) = (   0.2500000  -0.4500000  -0.4500000), wk =   0.0120000
        k(   99) = (   0.2500000  -0.4500000  -0.3500000), wk =   0.0240000
        k(  100) = (   0.2500000  -0.3500000  -0.3500000), wk =   0.0120000
        k(  101) = (   0.3500000   0.3500000   0.3500000), wk =   0.0040000
        k(  102) = (   0.3500000   0.3500000   0.4500000), wk =   0.0120000
        k(  103) = (   0.3500000   0.3500000  -0.4500000), wk =   0.0120000
        k(  104) = (   0.3500000   0.3500000  -0.3500000), wk =   0.0120000
        k(  105) = (   0.3500000   0.4500000   0.4500000), wk =   0.0120000
        k(  106) = (   0.3500000   0.4500000  -0.4500000), wk =   0.0240000
        k(  107) = (   0.3500000   0.4500000  -0.3500000), wk =   0.0240000
        k(  108) = (   0.3500000  -0.4500000  -0.4500000), wk =   0.0120000
        k(  109) = (   0.4500000   0.4500000   0.4500000), wk =   0.0040000
        k(  110) = (   0.4500000   0.4500000  -0.4500000), wk =   0.0120000

     Dense  grid:     2445 G-vectors     FFT dimensions: (  20,  20,  20)

     Dynamical RAM for                 wfc:       0.05 MB

     Dynamical RAM for     wfc (w. buffer):       5.27 MB

     Dynamical RAM for           str. fact:       0.04 MB

     Dynamical RAM for           local pot:       0.00 MB

     Dynamical RAM for          nlocal pot:       0.09 MB

     Dynamical RAM for                qrad:       1.02 MB

     Dynamical RAM for          rho,v,vnew:       0.30 MB

     Dynamical RAM for               rhoin:       0.10 MB

     Dynamical RAM for            rho*nmix:       0.60 MB

     Dynamical RAM for           G-vectors:       0.16 MB

     Dynamical RAM for          h,s,v(r/c):       0.02 MB

     Dynamical RAM for          <psi|beta>:       0.00 MB

     Dynamical RAM for                 psi:       0.09 MB

     Dynamical RAM for                hpsi:       0.09 MB

     Dynamical RAM for                spsi:       0.09 MB

     Dynamical RAM for      wfcinit/wfcrot:       0.10 MB

     Dynamical RAM for           addusdens:       6.98 MB

     Estimated static dynamical RAM per process >       7.34 MB

     Estimated max dynamical RAM per process >      14.91 MB

     Check: negative core charge=   -0.000006

     Initial potential from superposition of free atoms

     starting charge      10.9998, renormalised to      11.0000
     Starting wfcs are    9 randomized atomic wfcs +    1 random wfcs
     Checking if some PAW data can be deallocated... 

     total cpu time spent up to now is        2.5 secs

     per-process dynamical memory:   141.6 Mb

     Self-consistent Calculation

     iteration #  1     ecut=    40.00 Ry     beta= 0.70
     Davidson diagonalization with overlap

---- Real-time Memory Report at c_bands before calling an iterative solver
           152 MiB given to the printing process from OS
           138 MiB allocation reported by mallinfo(arena+hblkhd)
         78892 MiB available memory on the node where the printing process lives
------------------
     ethr =  1.00E-02,  avg # of iterations =  4.1

     Threshold (ethr) on eigenvalues was too large:
     Diagonalizing with lowered threshold

     Davidson diagonalization with overlap

---- Real-time Memory Report at c_bands before calling an iterative solver
           199 MiB given to the printing process from OS
           228 MiB allocation reported by mallinfo(arena+hblkhd)
         78834 MiB available memory on the node where the printing process lives
------------------
     ethr =  6.48E-04,  avg # of iterations =  1.1

     total cpu time spent up to now is        5.5 secs

     End of self-consistent calculation

          k =-0.0500 0.0500 0.0500 (   322 PWs)   bands (ev):

     4.3749  12.0001  12.0484  12.0484  13.0397  13.0397  37.6101  39.8396
    40.8908  40.8920

     occupation numbers 
     1.0000   1.0000   1.0000   1.0000   1.0000   1.0000   0.0000   0.0000
     0.0000   0.0000

          k =-0.1500 0.1500-0.0500 (   314 PWs)   bands (ev):

     4.8869  11.8614  12.1472  12.1553  12.9426  13.0696  34.8929  37.2415
    40.0599  41.5777

     occupation numbers 
     1.0000   1.0000   1.0000   1.0000   1.0000   1.0000   0.0000   0.0000
     0.0000   0.0000

          k =-0.2500 0.2500-0.1500 (   311 PWs)   bands (ev):

     6.1052  11.6323  12.2212  12.2610  12.9459  13.1983  29.6133  36.0938
    39.4998  40.8046

     occupation numbers 
     1.0000   1.0000   1.0000   1.0000   1.0000   1.0000   0.0000   0.0000
     0.0000   0.0000

          k =-0.3500 0.3500-0.2500 (   306 PWs)   bands (ev):

     7.7716  11.5806  12.1138  12.1646  13.2509  13.5279  24.7094  35.4961
    38.4088  39.9244

     occupation numbers 
     1.0000   1.0000   1.0000   1.0000   1.0000   1.0000   0.0000   0.0000
     0.0000   0.0000

          k =-0.4500 0.4500-0.3500 (   314 PWs)   bands (ev):

     9.0781  11.9587  12.0353  12.2277  13.6017  13.9185  20.7170  35.3860
    37.4138  38.4370

     occupation numbers 
     1.0000   1.0000   1.0000   1.0000   1.0000   1.0000   0.0000   0.0000
     0.0000   0.0000

          k = 0.4500-0.4500 0.5500 (   315 PWs)   bands (ev):

     9.3596  11.9118  12.0035  12.7126  13.7607  14.1498  19.2543  35.6995
    37.1999  37.3569

     occupation numbers 
     1.0000   1.0000   1.0000   1.0000   1.0000   1.0001   0.0000   0.0000
     0.0000   0.0000

          k = 0.3500-0.3500 0.4500 (   311 PWs)   bands (ev):

     8.7546  11.8711  12.0271  12.0856  13.6468  13.6472  21.8938  36.2182
    36.6884  38.4159

     occupation numbers 
     1.0000   1.0000   1.0000   1.0000   1.0000   1.0000   0.0000   0.0000
     0.0000   0.0000

          k = 0.2500-0.2500 0.3500 (   307 PWs)   bands (ev):

     7.1994  11.5429  12.1601  12.2153  13.1841  13.3558  26.2687  36.8938
    36.9473  40.3854

     occupation numbers 
     1.0000   1.0000   1.0000   1.0000   1.0000   1.0000   0.0000   0.0000
     0.0000   0.0000

          k = 0.1500-0.1500 0.2500 (   315 PWs)   bands (ev):

     5.6300  11.6985  12.2315  12.2410  12.9171  13.1236  31.3614  37.7220
    37.7769  41.7011

     occupation numbers 
     1.0000   1.0000   1.0000   1.0000   1.0000   1.0000   0.0000   0.0000
     0.0000   0.0000

          k = 0.0500-0.0500 0.1500 (   320 PWs)   bands (ev):

     4.6323  11.9150  12.1107  12.1136  12.9590  13.0749  36.5013  38.7275
    39.1094  40.9643

     occupation numbers 
     1.0000   1.0000   1.0000   1.0000   1.0000   1.0000   0.0000   0.0000
     0.0000   0.0000

          k =-0.0500 0.2500 0.0500 (   313 PWs)   bands (ev):

     5.1392  11.7455  12.2393  12.2428  12.8138  13.1424  35.0820  37.1593
    37.3923  39.6514

     occupation numbers 
     1.0000   1.0000   1.0000   1.0000   1.0000   1.0000   0.0000   0.0000
     0.0000   0.0000

          k =-0.1500 0.3500-0.0500 (   311 PWs)   bands (ev):

     6.1120  11.5118  12.2820  12.4296  12.7651  13.2746  31.7253  33.9347
    37.9507  39.3861

     occupation numbers 
     1.0000   1.0000   1.0000   1.0000   1.0000   1.0000   0.0000   0.0000
     0.0000   0.0000

          k =-0.2500 0.4500-0.1500 (   309 PWs)   bands (ev):

     7.6323  11.3322  12.0512  12.4213  13.1645  13.6097  26.6424  33.1296
    36.3485  38.4427

     occupation numbers 
     1.0000   1.0000   1.0000   1.0000   1.0000   1.0000   0.0000   0.0000
     0.0000   0.0000

          k =-0.3500 0.5500-0.2500 (   311 PWs)   bands (ev):

     9.1224  11.4418  11.8817  12.2944  13.6214  14.2807  22.2073  32.9569
    34.4793  37.6978

     occupation numbers 
     1.0000   1.0000   1.0000   1.0000   1.0000   1.0014   0.0000   0.0000
     0.0000   0.0000

          k = 0.5500-0.3500 0.6500 (   309 PWs)   bands (ev):

     9.6935  11.5627  12.1256  12.2071  13.7357  15.3803  19.3635  32.6041
    33.9407  37.6504

     occupation numbers 
     1.0000   1.0000   1.0000   1.0000   1.0000   0.0266   0.0000   0.0000
     0.0000   0.0000

          k = 0.4500-0.2500 0.5500 (   311 PWs)   bands (ev):

     9.4353  11.5969  11.9066  12.2343  13.5476  14.7474  20.9901  31.8306
    35.2214  38.3888

     occupation numbers 
     1.0000   1.0000   1.0000   1.0000   1.0000   1.0796   0.0000   0.0000
     0.0000   0.0000

          k = 0.3500-0.1500 0.4500 (   310 PWs)   bands (ev):

     8.1900  11.3878  11.9618  12.3601  13.1318  13.9317  25.0857  31.6994
    37.1857  39.8526

     occupation numbers 
     1.0000   1.0000   1.0000   1.0000   1.0000   1.0000   0.0000   0.0000
     0.0000   0.0000

          k = 0.2500-0.0500 0.3500 (   311 PWs)   bands (ev):

     6.5752  11.4880  12.1840  12.4558  12.7651  13.4289  29.9860  32.2567
    39.5824  40.9654

     occupation numbers 
     1.0000   1.0000   1.0000   1.0000   1.0000   1.0000   0.0000   0.0000
     0.0000   0.0000

          k = 0.1500 0.0500 0.2500 (   314 PWs)   bands (ev):

     5.3872  11.7201  12.2304  12.2579  12.8394  13.1473  33.2593  35.5315
    39.3198  41.4801

     occupation numbers 
     1.0000   1.0000   1.0000   1.0000   1.0000   1.0000   0.0000   0.0000
     0.0000   0.0000

          k =-0.0500 0.4500 0.0500 (   304 PWs)   bands (ev):

     6.7959  11.2497  12.3531  12.6688  12.7786  13.3465  32.1533  33.5353
    35.0111  35.9526

     occupation numbers 
     1.0000   1.0000   1.0000   1.0000   1.0000   1.0000   0.0000   0.0000
     0.0000   0.0000

          k =-0.1500 0.5500-0.0500 (   313 PWs)   bands (ev):

     8.0135  11.0114  12.1016  12.8855  13.1721  13.6226  29.0570  31.0805
    32.9083  36.5054

     occupation numbers 
     1.0000   1.0000   1.0000   1.0000   1.0000   1.0000   0.0000   0.0000
     0.0000   0.0000

          k =-0.2500 0.6500-0.1500 (   317 PWs)   bands (ev):

     9.3573  10.9155  11.8369  12.7893  13.6746  14.5500  24.3876  30.2735
    30.9681  36.5273

     occupation numbers 
     1.0000   1.0000   1.0000   1.0000   1.0000   1.0393   0.0000   0.0000
     0.0000   0.0000

          k = 0.6500-0.2500 0.7500 (   310 PWs)   bands (ev):

    10.1699  10.9394  11.7905  12.6530  13.7566  16.4888  20.5189  28.5372
    31.3730  36.7035

     occupation numbers 
     1.0000   1.0000   1.0000   1.0000   1.0000   0.0000   0.0000   0.0000
     0.0000   0.0000

          k = 0.5500-0.1500 0.6500 (   306 PWs)   bands (ev):

    10.2490  11.1011  11.6670  12.5865  13.5337  16.6209  20.5484  27.3535
    32.7148  37.4619

     occupation numbers 
     1.0000   1.0000   1.0000   1.0000   1.0000   0.0000   0.0000   0.0000
     0.0000   0.0000

          k = 0.4500-0.0500 0.5500 (   311 PWs)   bands (ev):

     9.4842  11.2696  11.5571  12.6277  13.1261  14.9752  24.4168  26.9476
    34.7158  38.9679

     occupation numbers 
     1.0000   1.0000   1.0000   1.0000   1.0000   0.7383   0.0000   0.0000
     0.0000   0.0000

          k = 0.3500 0.0500 0.4500 (   315 PWs)   bands (ev):

     8.0489  11.3118  11.9296  12.5758  12.8651  14.0028  27.0268  29.3616
    37.1685  40.9288

     occupation numbers 
     1.0000   1.0000   1.0000   1.0000   1.0000   1.0000   0.0000   0.0000
     0.0000   0.0000

          k = 0.2500 0.1500 0.3500 (   309 PWs)   bands (ev):

     6.7886  11.5068  12.1806  12.3150  12.9768  13.3840  28.0369  34.5527
    38.4125  40.8947

     occupation numbers 
     1.0000   1.0000   1.0000   1.0000   1.0000   1.0000   0.0000   0.0000
     0.0000   0.0000

          k =-0.0500 0.6500 0.0500 (   317 PWs)   bands (ev):

     8.7298  10.7227  12.4762  13.2226  13.4384  13.5844  29.4227  29.8227
    30.6236  34.4140

     occupation numbers 
     1.0000   1.0000   1.0000   1.0000   1.0000   1.0000   0.0000   0.0000
     0.0000   0.0000

          k =-0.1500 0.7500-0.0500 (   317 PWs)   bands (ev):

     9.4662  10.5730  12.5212  13.3856  13.6830  14.5890  26.8818  27.2401
    29.0275  35.3770

     occupation numbers 
     1.0000   1.0000   1.0000   1.0000   1.0000   1.0523   0.0000   0.0000
     0.0000   0.0000

          k = 0.7500-0.1500 0.8500 (   311 PWs)   bands (ev):

    10.0478  10.5989  12.2228  13.1987  13.8126  16.8902  22.9356  25.0912
    29.3170  35.8108

     occupation numbers 
     1.0000   1.0000   1.0000   1.0000   1.0000   0.0000   0.0000   0.0000
     0.0000   0.0000

          k = 0.6500-0.0500 0.7500 (   309 PWs)   bands (ev):

    10.5565  10.6656  11.8035  12.9959  13.6366  19.1887  20.1514  23.9462
    30.5482  36.3812

     occupation numbers 
     1.0000   1.0000   1.0000   1.0000   1.0000   0.0000   0.0000   0.0000
     0.0000   0.0000

          k = 0.5500 0.0500 0.6500 (   310 PWs)   bands (ev):

    10.4030  11.0588  11.4556  12.7565  13.3989  16.6917  22.1159  25.1282
    32.4893  37.4311

     occupation numbers 
     1.0000   1.0000   1.0000   1.0000   1.0000   0.0000   0.0000   0.0000
     0.0000   0.0000

          k = 0.4500 0.1500 0.5500 (   314 PWs)   bands (ev):

     9.4704  11.3711  11.6868  12.4314  13.3334  14.9077  22.5691  29.2768
    34.8810  38.7795

     occupation numbers 
     1.0000   1.0000   1.0000   1.0000   1.0000   0.8993   0.0000   0.0000
     0.0000   0.0000

          k = 0.3500 0.2500 0.4500 (   310 PWs)   bands (ev):

     8.4423  11.5717  12.0008  12.1917  13.3986  13.7993  23.3571  34.1711
    37.0742  38.8077

     occupation numbers 
     1.0000   1.0000   1.0000   1.0000   1.0000   1.0000   0.0000   0.0000
     0.0000   0.0000

          k =-0.0500 0.8500 0.0500 (   318 PWs)   bands (ev):

     9.5264  10.3596  13.5187  13.6304  13.8269  14.9064  24.4504  27.9560
    28.7901  33.8341

     occupation numbers 
     1.0000   1.0000   1.0000   1.0000   1.0000   0.9018   0.0000   0.0000
     0.0000   0.0000

          k = 0.8500-0.0500 0.9500 (   313 PWs)   bands (ev):

     9.7159  10.3558  13.1820  13.5919  13.9113  16.6542  22.9140  26.1245
    27.9801  34.9696

     occupation numbers 
     1.0000   1.0000   1.0000   1.0000   1.0000   0.0000   0.0000   0.0000
     0.0000   0.0000

          k = 0.7500 0.0500 0.8500 (   311 PWs)   bands (ev):

    10.0756  10.5389  12.4042  13.3111  13.8135  18.1622  22.5015  23.3600
    28.9954  35.6844

     occupation numbers 
     1.0000   1.0000   1.0000   1.0000   1.0000   0.0000   0.0000   0.0000
     0.0000   0.0000

          k = 0.6500 0.1500 0.7500 (   308 PWs)   bands (ev):

    10.4550  10.7408  11.7914  12.8526  13.7045  18.0331  20.0448  25.9665
    30.8239  36.4827

     occupation numbers 
     1.0000   1.0000   1.0000   1.0000   1.0000   0.0000   0.0000   0.0000
     0.0000   0.0000

          k = 0.5500 0.2500 0.6500 (   307 PWs)   bands (ev):

     9.9885  11.2935  11.9089  12.3819  13.6674  16.2362  19.5053  29.9463
    33.1716  37.5326

     occupation numbers 
     1.0000   1.0000   1.0000   1.0000   1.0000   0.0000   0.0000   0.0000
     0.0000   0.0000

          k = 0.4500 0.3500 0.5500 (   313 PWs)   bands (ev):

     9.3901  11.8099  12.0836  12.2819  13.7053  14.4657  19.8490  34.3410
    35.8335  37.8352

     occupation numbers 
     1.0000   1.0000   1.0000   1.0000   1.0000   1.0177   0.0000   0.0000
     0.0000   0.0000

          k =-0.0500-0.9500 0.0500 (   308 PWs)   bands (ev):

     9.5817  10.2810  13.6955  13.7240  13.9181  15.9000  22.8304  27.5870
    28.3971  33.7113

     occupation numbers 
     1.0000   1.0000   1.0000   1.0000   1.0000   0.0000   0.0000   0.0000
     0.0000   0.0000

          k =-0.1500-0.8500-0.0500 (   313 PWs)   bands (ev):

     9.6706  10.4302  12.9355  13.5411  13.8223  15.6321  24.5862  26.4635
    28.3341  35.0893

     occupation numbers 
     1.0000   1.0000   1.0000   1.0000   1.0000   0.0004   0.0000   0.0000
     0.0000   0.0000

          k =-0.2500-0.7500-0.1500 (   310 PWs)   bands (ev):

     9.8671  10.7277  11.9703  13.0085  13.7781  15.5587  23.5508  27.5866
    29.9485  36.0797

     occupation numbers 
     1.0000   1.0000   1.0000   1.0000   1.0000   0.0017   0.0000   0.0000
     0.0000   0.0000

          k =-0.3500-0.6500-0.2500 (   313 PWs)   bands (ev):

     9.7184  11.1977  11.8172  12.4555  13.7405  15.1873  21.2570  31.2490
    32.2655  37.0835

     occupation numbers 
     1.0000   1.0000   1.0000   1.0000   1.0000   0.2122   0.0000   0.0000
     0.0000   0.0000

          k =-0.0500-0.7500 0.0500 (   320 PWs)   bands (ev):

     9.3049  10.5110  13.0272  13.4707  13.7026  13.9570  26.8489  28.6672
    29.5475  34.0501

     occupation numbers 
     1.0000   1.0000   1.0000   1.0000   1.0000   1.0000   0.0000   0.0000
     0.0000   0.0000

          k =-0.1500-0.6500-0.0500 (   314 PWs)   bands (ev):

     8.9109  10.7728  12.1750  13.1468  13.4777  13.9370  27.9544  29.6553
    30.1868  35.8301

     occupation numbers 
     1.0000   1.0000   1.0000   1.0000   1.0000   1.0000   0.0000   0.0000
     0.0000   0.0000

          k =-0.2500-0.5500-0.1500 (   314 PWs)   bands (ev):

     8.5442  11.1277  11.8954  12.5841  13.4583  13.9306  25.4240  31.8245
    33.5038  37.2345

     occupation numbers 
     1.0000   1.0000   1.0000   1.0000   1.0000   1.0000   0.0000   0.0000
     0.0000   0.0000

          k =-0.0500-0.5500 0.0500 (   310 PWs)   bands (ev):

     7.8113  10.9766  12.2865  12.9413  13.0732  13.4655  30.7920  31.9686
    32.5216  34.9631

     occupation numbers 
     1.0000   1.0000   1.0000   1.0000   1.0000   1.0000   0.0000   0.0000
     0.0000   0.0000

          k =-0.1500-0.4500-0.0500 (   310 PWs)   bands (ev):

     7.0179  11.2662  12.2026  12.6414  12.8907  13.4313  30.3202  32.4477
    35.8255  37.5086

     occupation numbers 
     1.0000   1.0000   1.0000   1.0000   1.0000   1.0000   0.0000   0.0000
     0.0000   0.0000

          k =-0.0500-0.3500 0.0500 (   310 PWs)   bands (ev):

     5.8747  11.5151  12.3909  12.4307  12.6675  13.2357  33.5994  35.2793
    36.2601  37.9022

     occupation numbers 
     1.0000   1.0000   1.0000   1.0000   1.0000   1.0000   0.0000   0.0000
     0.0000   0.0000

          k =-0.1500 0.1500 0.1500 (   311 PWs)   bands (ev):

     5.1377  11.8166  12.1763  12.1763  13.0072  13.0072  33.0736  38.6553
    39.7030  39.7037

     occupation numbers 
     1.0000   1.0000   1.0000   1.0000   1.0000   1.0000   0.0000   0.0000
     0.0000   0.0000

          k =-0.2500 0.2500 0.0500 (   315 PWs)   bands (ev):

     5.8734  11.6378  12.2221  12.3257  12.8019  13.2436  31.5439  33.8258
    40.9151  42.8596

     occupation numbers 
     1.0000   1.0000   1.0000   1.0000   1.0000   1.0000   0.0000   0.0000
     0.0000   0.0000

          k =-0.3500 0.3500-0.0500 (   311 PWs)   bands (ev):

     7.2379  11.4227  12.0890  12.5046  12.7457  13.6824  28.4195  30.7204
    39.9682  40.8498

     occupation numbers 
     1.0000   1.0000   1.0000   1.0000   1.0000   1.0000   0.0000   0.0000
     0.0000   0.0000

          k =-0.4500 0.4500-0.1500 (   315 PWs)   bands (ev):

     8.8335  11.4250  11.8414  12.3441  13.1782  14.3367  23.7293  30.3952
    37.9349  37.9468

     occupation numbers 
     1.0000   1.0000   1.0000   1.0000   1.0000   1.0034   0.0000   0.0000
     0.0000   0.0000

          k = 0.4500-0.4500 0.7500 (   308 PWs)   bands (ev):

     9.7214  11.5199  11.9630  12.2599  13.5836  15.3954  20.0600  30.7954
    35.6759  36.6810

     occupation numbers 
     1.0000   1.0000   1.0000   1.0000   1.0000   0.0217   0.0000   0.0000
     0.0000   0.0000

          k = 0.3500-0.3500 0.6500 (   310 PWs)   bands (ev):

     9.7087  11.4113  11.9834  12.2925  13.7787  15.2908  20.0363  31.9061
    34.2506  36.1789

     occupation numbers 
     1.0000   1.0000   1.0000   1.0000   1.0000   0.0784   0.0000   0.0000
     0.0000   0.0000

          k = 0.2500-0.2500 0.5500 (   315 PWs)   bands (ev):

     8.8056  11.2471  11.8918  12.4078  13.6945  13.9454  23.6909  33.5803
    33.7393  36.3819

     occupation numbers 
     1.0000   1.0000   1.0000   1.0000   1.0000   1.0000   0.0000   0.0000
     0.0000   0.0000

          k = 0.1500-0.1500 0.4500 (   307 PWs)   bands (ev):

     7.2285  11.2889  12.1414  12.5049  13.1073  13.4345  28.3974  34.1138
    35.2561  37.4266

     occupation numbers 
     1.0000   1.0000   1.0000   1.0000   1.0000   1.0000   0.0000   0.0000
     0.0000   0.0000

          k =-0.1500 0.3500 0.1500 (   310 PWs)   bands (ev):

     6.3418  11.5141  12.2469  12.3497  12.9090  13.2728  29.8035  35.8409
    36.5860  40.3010

     occupation numbers 
     1.0000   1.0000   1.0000   1.0000   1.0000   1.0000   0.0000   0.0000
     0.0000   0.0000

          k =-0.2500 0.4500 0.0500 (   311 PWs)   bands (ev):

     7.4470  11.2920  12.0541  12.6225  12.8821  13.6673  28.5914  30.8542
    36.5101  39.7217

     occupation numbers 
     1.0000   1.0000   1.0000   1.0000   1.0000   1.0000   0.0000   0.0000
     0.0000   0.0000

          k =-0.3500 0.5500-0.0500 (   314 PWs)   bands (ev):

     8.9145  11.1699  11.7161  12.7264  13.0935  14.4315  25.8080  28.1929
    33.9539  40.9443

     occupation numbers 
     1.0000   1.0000   1.0000   1.0000   1.0000   1.0120   0.0000   0.0000
     0.0000   0.0000

          k = 0.5500-0.3500 0.8500 (   311 PWs)   bands (ev):

    10.0168  11.1657  11.5959  12.5937  13.5179  15.7951  21.6022  28.3633
    31.8494  39.6476

     occupation numbers 
     1.0000   1.0000   1.0000   1.0000   1.0000   0.0000   0.0000   0.0000
     0.0000   0.0000

          k = 0.4500-0.2500 0.7500 (   311 PWs)   bands (ev):

    10.2407  11.0492  11.7574  12.5633  13.6973  16.9203  19.6655  29.2699
    30.4274  38.8828

     occupation numbers 
     1.0000   1.0000   1.0000   1.0000   1.0000   0.0000   0.0000   0.0000
     0.0000   0.0000

          k = 0.3500-0.1500 0.6500 (   314 PWs)   bands (ev):

     9.7021  11.0568  11.6629  12.6818  13.5780  15.1213  22.8851  29.5185
    31.1105  38.7253

     occupation numbers 
     1.0000   1.0000   1.0000   1.0000   1.0000   0.3493   0.0000   0.0000
     0.0000   0.0000

          k = 0.2500-0.0500 0.5500 (   313 PWs)   bands (ev):

     8.3971  11.0782  11.8923  12.8283  13.1307  13.9811  27.3608  29.6156
    33.3556  38.7868

     occupation numbers 
     1.0000   1.0000   1.0000   1.0000   1.0000   1.0000   0.0000   0.0000
     0.0000   0.0000

          k =-0.1500 0.5500 0.1500 (   314 PWs)   bands (ev):

     8.1988  11.0487  12.0182  12.7010  13.4978  13.5891  27.1593  32.5789
    32.8919  35.9298

     occupation numbers 
     1.0000   1.0000   1.0000   1.0000   1.0000   1.0000   0.0000   0.0000
     0.0000   0.0000

          k =-0.2500 0.6500 0.0500 (   314 PWs)   bands (ev):

     9.2463  10.8724  11.8406  13.0630  13.4028  14.4800  26.3065  28.5488
    30.3281  38.0672

     occupation numbers 
     1.0000   1.0000   1.0000   1.0000   1.0000   1.0206   0.0000   0.0000
     0.0000   0.0000

          k = 0.6500-0.2500 0.9500 (   311 PWs)   bands (ev):

    10.1294  10.8800  11.5829  13.0860  13.5961  16.1288  23.9316  26.4612
    28.0286  40.0927

     occupation numbers 
     1.0000   1.0000   1.0000   1.0000   1.0000   0.0000   0.0000   0.0000
     0.0000   0.0000

          k = 0.5500-0.1500 0.8500 (   311 PWs)   bands (ev):

    10.6159  10.8300  11.5027  12.8944  13.7415  18.6220  20.3480  26.2658
    27.2809  40.5934

     occupation numbers 
     1.0000   1.0000   1.0000   1.0000   1.0000   0.0000   0.0000   0.0000
     0.0000   0.0000

          k = 0.4500-0.0500 0.7500 (   312 PWs)   bands (ev):

    10.4667  11.0456  11.2944  12.9204  13.5873  17.0172  22.5243  25.3959
    28.7544  41.4925

     occupation numbers 
     1.0000   1.0000   1.0000   1.0000   1.0000   0.0000   0.0000   0.0000
     0.0000   0.0000

          k = 0.3500 0.0500 0.6500 (   313 PWs)   bands (ev):

     9.6754  11.0174  11.5564  12.9248  13.3544  15.0940  24.7695  27.2248
    30.8823  40.5338

     occupation numbers 
     1.0000   1.0000   1.0000   1.0000   1.0000   0.4164   0.0000   0.0000
     0.0000   0.0000

          k =-0.1500 0.7500 0.1500 (   313 PWs)   bands (ev):

     9.6103  10.6248  12.3007  13.1526  13.8088  14.9567  25.2316  27.2376
    30.2471  34.8882

     occupation numbers 
     1.0000   1.0000   1.0000   1.0000   1.0000   0.7861   0.0000   0.0000
     0.0000   0.0000

          k = 0.7500-0.1500 1.0500 (   312 PWs)   bands (ev):

     9.9313  10.5721  12.3265  13.3750  13.8035  16.5351  24.7198  25.0334
    27.2016  37.2206

     occupation numbers 
     1.0000   1.0000   1.0000   1.0000   1.0000   0.0000   0.0000   0.0000
     0.0000   0.0000

          k = 0.6500-0.0500 0.9500 (   308 PWs)   bands (ev):

    10.2389  10.7379  11.9623  13.1597  13.9083  18.8918  22.9359  23.5151
    25.7521  39.6174

     occupation numbers 
     1.0000   1.0000   1.0000   1.0000   1.0000   0.0000   0.0000   0.0000
     0.0000   0.0000

          k = 0.5500 0.0500 0.8500 (   311 PWs)   bands (ev):

    10.5536  10.9387  11.4781  12.9559  13.7882  19.6717  20.6296  24.1778
    27.0146  40.6483

     occupation numbers 
     1.0000   1.0000   1.0000   1.0000   1.0000   0.0000   0.0000   0.0000
     0.0000   0.0000

          k = 0.4500 0.1500 0.7500 (   308 PWs)   bands (ev):

    10.4296  10.9242  11.5433  12.7659  13.6553  17.0695  20.8419  27.6496
    28.9961  40.3186

     occupation numbers 
     1.0000   1.0000   1.0000   1.0000   1.0000   0.0000   0.0000   0.0000
     0.0000   0.0000

          k =-0.1500-1.0500 0.1500 (   314 PWs)   bands (ev):

     9.8442  10.4172  12.8804  13.4825  13.8531  17.2384  22.9799  24.3478
    29.1602  34.5717

     occupation numbers 
     1.0000   1.0000   1.0000   1.0000   1.0000   0.0000   0.0000   0.0000
     0.0000   0.0000

          k =-0.2500-0.9500 0.0500 (   312 PWs)   bands (ev):

     9.9565  10.5072  12.5465  13.3969  13.9091  17.7021  23.0902  24.5609
    26.8889  37.0678

     occupation numbers 
     1.0000   1.0000   1.0000   1.0000   1.0000   0.0000   0.0000   0.0000
     0.0000   0.0000

          k =-0.3500-0.8500-0.0500 (   307 PWs)   bands (ev):

    10.2465  10.7850  11.7874  13.1557  13.7929  17.5178  23.3254  25.3362
    26.0666  39.7848

     occupation numbers 
     1.0000   1.0000   1.0000   1.0000   1.0000   0.0000   0.0000   0.0000
     0.0000   0.0000

          k =-0.1500-0.8500 0.1500 (   314 PWs)   bands (ev):

     9.8053  10.4873  12.6585  13.3535  13.8503  16.1306  24.4918  24.8942
    29.5295  34.6684

     occupation numbers 
     1.0000   1.0000   1.0000   1.0000   1.0000   0.0000   0.0000   0.0000
     0.0000   0.0000

          k =-0.2500-0.7500 0.0500 (   315 PWs)   bands (ev):

     9.7615  10.6974  12.0167  13.2669  13.6281  15.3275  25.4521  27.3026
    27.9022  37.5522

     occupation numbers 
     1.0000   1.0000   1.0000   1.0000   1.0000   0.0516   0.0000   0.0000
     0.0000   0.0000

          k =-0.1500-0.6500 0.1500 (   314 PWs)   bands (ev):

     9.0707  10.8190  12.0379  12.9245  13.7190  14.0871  26.0965  30.0176
    31.2765  35.2694

     occupation numbers 
     1.0000   1.0000   1.0000   1.0000   1.0000   1.0000   0.0000   0.0000
     0.0000   0.0000

          k =-0.2500 0.2500 0.2500 (   311 PWs)   bands (ev):

     6.5567  11.6073  12.2121  12.2121  13.1464  13.1464  27.8419  37.9050
    38.7704  38.7707

     occupation numbers 
     1.0000   1.0000   1.0000   1.0000   1.0000   1.0000   0.0000   0.0000
     0.0000   0.0000

          k =-0.3500 0.3500 0.1500 (   308 PWs)   bands (ev):

     7.4231  11.4703  12.1038  12.3076  13.0000  13.6230  26.4664  33.0519
    40.9052  42.4456

     occupation numbers 
     1.0000   1.0000   1.0000   1.0000   1.0000   1.0000   0.0000   0.0000
     0.0000   0.0000

          k =-0.4500 0.4500 0.0500 (   313 PWs)   bands (ev):

     8.7609  11.3088  11.7772  12.5443  12.9502  14.4174  25.6363  28.0511
    37.7629  38.1207

     occupation numbers 
     1.0000   1.0000   1.0000   1.0000   1.0000   1.0101   0.0000   0.0000
     0.0000   0.0000

          k = 0.4500-0.4500 0.9500 (   311 PWs)   bands (ev):

    10.0028  11.2894  11.4226  12.6383  13.2316  15.6908  23.1844  25.9228
    34.9840  36.6700

     occupation numbers 
     1.0000   1.0000   1.0000   1.0000   1.0000   0.0001   0.0000   0.0000
     0.0000   0.0000

          k = 0.3500-0.3500 0.8500 (   307 PWs)   bands (ev):

    10.4023  10.9110  11.7479  12.6884  13.6132  17.5645  19.8208  26.5515
    32.8521  35.7333

     occupation numbers 
     1.0000   1.0000   1.0000   1.0000   1.0000   0.0000   0.0000   0.0000
     0.0000   0.0000

          k = 0.2500-0.2500 0.7500 (   311 PWs)   bands (ev):

    10.0296  10.8071  11.8805  12.7968  13.8098  15.9774  21.8698  27.9668
    31.5714  35.3259

     occupation numbers 
     1.0000   1.0000   1.0000   1.0000   1.0000   0.0000   0.0000   0.0000
     0.0000   0.0000

          k =-0.2500 0.4500 0.2500 (   307 PWs)   bands (ev):

     7.9801  11.4248  12.0348  12.2810  13.4286  13.5456  24.8874  35.2082
    35.7043  38.0581

     occupation numbers 
     1.0000   1.0000   1.0000   1.0000   1.0000   1.0000   0.0000   0.0000
     0.0000   0.0000

          k =-0.3500 0.5500 0.1500 (   313 PWs)   bands (ev):

     8.9951  11.2489  11.7806  12.4937  13.3644  14.3752  23.8917  30.5225
    34.1209  39.2418

     occupation numbers 
     1.0000   1.0000   1.0000   1.0000   1.0000   1.0058   0.0000   0.0000
     0.0000   0.0000

          k = 0.5500-0.3500 1.0500 (   313 PWs)   bands (ev):

    10.0970  11.1688  11.3588  12.7870  13.3533  15.8072  23.3729  26.0618
    31.6420  40.1504

     occupation numbers 
     1.0000   1.0000   1.0000   1.0000   1.0000   0.0000   0.0000   0.0000
     0.0000   0.0000

          k = 0.4500-0.2500 0.9500 (   309 PWs)   bands (ev):

    10.6538  10.8390  11.4802  12.8826  13.5990  18.0408  21.2375  24.5552
    29.6618  38.9192

     occupation numbers 
     1.0000   1.0000   1.0000   1.0000   1.0000   0.0000   0.0000   0.0000
     0.0000   0.0000

          k = 0.3500-0.1500 0.8500 (   309 PWs)   bands (ev):

    10.3458  10.7424  11.7976  13.0310  13.7668  17.7655  21.4857  25.5839
    28.3208  38.0807

     occupation numbers 
     1.0000   1.0000   1.0000   1.0000   1.0000   0.0000   0.0000   0.0000
     0.0000   0.0000

          k =-0.2500 0.6500 0.2500 (   314 PWs)   bands (ev):

     9.5365  11.0248  11.8237  12.5861  13.7856  14.7836  22.6820  30.7602
    32.5182  35.6878

     occupation numbers 
     1.0000   1.0000   1.0000   1.0000   1.0000   1.0647   0.0000   0.0000
     0.0000   0.0000

          k = 0.6500-0.2500 1.1500 (   309 PWs)   bands (ev):

    10.1699  10.8613  11.6753  12.8787  13.7049  16.2741  22.0769  28.0871
    28.9206  38.3359

     occupation numbers 
     1.0000   1.0000   1.0000   1.0000   1.0000   0.0000   0.0000   0.0000
     0.0000   0.0000

          k = 0.5500-0.1500 1.0500 (   310 PWs)   bands (ev):

    10.5045  11.0455  11.3587  12.9767  13.7882  18.5704  21.9084  24.9266
    26.1469  42.3542

     occupation numbers 
     1.0000   1.0000   1.0000   1.0000   1.0000   0.0000   0.0000   0.0000
     0.0000   0.0000

          k = 0.4500-0.0500 0.9500 (   312 PWs)   bands (ev):

    10.4467  11.0503  11.4643  12.9811  13.9081  20.1715  21.5606  23.9099
    24.8370  42.4029

     occupation numbers 
     1.0000   1.0000   1.0000   1.0000   1.0000   0.0000   0.0000   0.0000
     0.0000   0.0000

          k =-0.2500-1.1500 0.2500 (   307 PWs)   bands (ev):

    10.2471  10.6560  12.0232  13.0090  13.7718  17.4699  21.2697  25.4294
    30.9224  35.1214

     occupation numbers 
     1.0000   1.0000   1.0000   1.0000   1.0000   0.0000   0.0000   0.0000
     0.0000   0.0000

          k =-0.3500-1.0500 0.1500 (   307 PWs)   bands (ev):

    10.3535  10.7121  11.9111  13.1052  13.7949  19.2587  21.1001  23.6463
    28.0451  37.9558

     occupation numbers 
     1.0000   1.0000   1.0000   1.0000   1.0000   0.0000   0.0000   0.0000
     0.0000   0.0000

          k =-0.2500-0.9500 0.2500 (   306 PWs)   bands (ev):

    10.2900  10.5995  12.1362  13.1646  13.7088  18.9365  20.8594  23.5441
    30.5928  35.0317

     occupation numbers 
     1.0000   1.0000   1.0000   1.0000   1.0000   0.0000   0.0000   0.0000
     0.0000   0.0000

          k =-0.3500 0.3500 0.3500 (   308 PWs)   bands (ev):

     8.2374  11.7520  12.0884  12.0884  13.4741  13.4741  23.1834  36.9999
    38.2427  38.2504

     occupation numbers 
     1.0000   1.0000   1.0000   1.0000   1.0000   1.0000   0.0000   0.0000
     0.0000   0.0000

          k =-0.4500 0.4500 0.2500 (   310 PWs)   bands (ev):

     8.9496  11.7005  11.9389  12.1612  13.4119  14.1686  22.0587  32.9247
    37.6573  38.2315

     occupation numbers 
     1.0000   1.0000   1.0000   1.0000   1.0000   1.0002   0.0000   0.0000
     0.0000   0.0000

          k = 0.4500-0.4500 1.1500 (   305 PWs)   bands (ev):

     9.8959  11.3293  11.6619  12.4593  13.4027  15.6217  21.4526  28.2106
    35.2162  36.6644

     occupation numbers 
     1.0000   1.0000   1.0000   1.0000   1.0000   0.0005   0.0000   0.0000
     0.0000   0.0000

          k = 0.3500-0.3500 1.0500 (   311 PWs)   bands (ev):

    10.5693  10.8202  11.6437  12.8556  13.4951  17.8262  21.0103  24.4322
    32.5690  35.6717

     occupation numbers 
     1.0000   1.0000   1.0000   1.0000   1.0000   0.0000   0.0000   0.0000
     0.0000   0.0000

          k =-0.3500 0.5500 0.3500 (   312 PWs)   bands (ev):

     9.2577  11.6998  12.0343  12.1558  13.7524  14.2559  20.8407  34.5578
    35.3478  36.8394

     occupation numbers 
     1.0000   1.0000   1.0000   1.0000   1.0000   1.0009   0.0000   0.0000
     0.0000   0.0000

          k = 0.5500-0.3500 1.2500 (   309 PWs)   bands (ev):

     9.8668  11.3271  11.8612  12.3800  13.6682  15.6964  20.1628  30.8933
    32.3213  38.7234

     occupation numbers 
     1.0000   1.0000   1.0000   1.0000   1.0000   0.0001   0.0000   0.0000
     0.0000   0.0000

          k = 0.4500-0.2500 1.1500 (   310 PWs)   bands (ev):

    10.5471  10.8428  11.6143  12.7504  13.6560  17.8608  19.9501  26.7135
    29.9005  38.9226

     occupation numbers 
     1.0000   1.0000   1.0000   1.0000   1.0000   0.0000   0.0000   0.0000
     0.0000   0.0000

          k =-0.3500-1.2500 0.3500 (   307 PWs)   bands (ev):

    10.0956  11.1258  11.8777  12.4798  13.7263  16.5602  19.5659  29.1423
    33.4154  35.8819

     occupation numbers 
     1.0000   1.0000   1.0000   1.0000   1.0000   0.0000   0.0000   0.0000
     0.0000   0.0000

          k =-0.4500 0.4500 0.4500 (   317 PWs)   bands (ev):

     9.2109  11.9810  11.9810  12.7469  13.7229  13.7229  19.7614  38.0544
    38.0586  41.1518

     occupation numbers 
     1.0000   1.0000   1.0000   1.0000   1.0000   1.0000   0.0000   0.0000
     0.0000   0.0000

          k = 0.4500-0.4500 1.3500 (   316 PWs)   bands (ev):

     9.5318  11.7491  12.1001  12.3278  13.7112  14.8817  19.3079  33.4625
    36.3513  36.8001

     occupation numbers 
     1.0000   1.0000   1.0000   1.0000   1.0000   0.9493   0.0000   0.0000
     0.0000   0.0000

     the Fermi energy is    15.1003 ev

!    total energy              =    -213.04117775 Ry
     total all-electron energy =     -3309.920944 Ry
     estimated scf accuracy    <       0.07107449 Ry
     smearing contrib. (-TS)   =      -0.00005426 Ry
     internal energy E=F+TS    =    -213.04112349 Ry

     The total energy is F=E-TS. E is the sum of the following terms:
     one-electron contribution =     -22.54647120 Ry
     hartree contribution      =      27.17408488 Ry
     xc contribution           =     -44.13070106 Ry
     ewald contribution        =     -83.67546175 Ry
     one-center paw contrib.   =     -89.86257436 Ry
      -> PAW hartree energy AE =      97.85844691 Ry
      -> PAW hartree energy PS =     -97.19420398 Ry
      -> PAW xc energy AE      =    -134.52637003 Ry
      -> PAW xc energy PS      =      43.99955274 Ry
      -> total E_H with PAW    =      27.83832782 Ry
      -> total E_XC with PAW   =    -134.65751835 Ry

     convergence has been achieved in   1 iterations

     Writing all to output data dir ./tmp/cu.save/ :
     XML data file, charge density, pseudopotentials, collected wavefunctions

     init_run     :    218.12s CPU      2.36s WALL (       1 calls)
     electrons    :    367.69s CPU      3.01s WALL (       1 calls)

     Called by init_run:
     wfcinit      :    120.35s CPU      1.00s WALL (       1 calls)
     wfcinit:atom :      1.22s CPU      0.01s WALL (     110 calls)
     wfcinit:wfcr :    116.86s CPU      0.97s WALL (     110 calls)
     potinit      :     25.16s CPU      0.21s WALL (       1 calls)
     hinit0       :     58.10s CPU      1.00s WALL (       1 calls)

     Called by electrons:
     c_bands      :    235.56s CPU      1.89s WALL (       2 calls)
     sum_band     :    110.72s CPU      0.95s WALL (       2 calls)
     v_of_rho     :      0.37s CPU      0.00s WALL (       2 calls)
     v_h          :      0.05s CPU      0.00s WALL (       2 calls)
     v_xc         :      0.31s CPU      0.00s WALL (       2 calls)
     newd         :     15.33s CPU      0.15s WALL (       2 calls)
     PAW_pot      :     42.03s CPU      0.35s WALL (       2 calls)
     mix_rho      :      0.01s CPU      0.00s WALL (       2 calls)

     Called by c_bands:
     init_us_2    :      7.34s CPU      0.06s WALL (     550 calls)
     cegterg      :    226.18s CPU      1.81s WALL (     220 calls)

     Called by sum_band:
     sum_band:wei :      0.24s CPU      0.00s WALL (       2 calls)
     sum_band:loo :    108.40s CPU      0.93s WALL (       2 calls)
     sum_band:buf :      0.44s CPU      0.00s WALL (     220 calls)
     sum_band:ini :      3.07s CPU      0.02s WALL (     220 calls)
     sum_band:cal :      4.09s CPU      0.03s WALL (     220 calls)
     sum_band:bec :      0.43s CPU      0.00s WALL (     220 calls)
     addusdens    :      1.77s CPU      0.01s WALL (       2 calls)
                                        0.00s GPU  (       2 calls)
     addusd:skk   :      0.01s CPU      0.00s WALL (       2 calls)
                                        0.00s GPU  (       2 calls)

     Called by *egterg:
     cdiaghg      :     14.66s CPU      0.12s WALL (     686 calls)
     cegterg:over :      3.20s CPU      0.03s WALL (     576 calls)
     cegterg:upda :     10.14s CPU      0.09s WALL (     576 calls)
     cegterg:last :      2.94s CPU      0.03s WALL (     365 calls)
     h_psi        :    276.86s CPU      2.24s WALL (     906 calls)
     s_psi        :      9.60s CPU      0.07s WALL (     906 calls)
     g_psi        :      1.50s CPU      0.01s WALL (     576 calls)

     Called by h_psi:
     h_psi:calbec :     11.33s CPU      0.09s WALL (     906 calls)
     vloc_psi     :    249.41s CPU      2.01s WALL (     906 calls)
                                        0.00s GPU  (     906 calls)
     add_vuspsi   :      2.95s CPU      0.02s WALL (     906 calls)

     General routines
     calbec       :     13.10s CPU      0.11s WALL (    1126 calls)
     fft          :     63.30s CPU      0.77s WALL (      23 calls)
     ffts         :      0.06s CPU      0.00s WALL (       2 calls)
     fftw         :    240.62s CPU      2.34s WALL (   15348 calls)

     Parallel routines

     PAW routines
     PAW_pot      :     42.03s CPU      0.35s WALL (       2 calls)
     PAW_symme    :      0.20s CPU      0.00s WALL (       4 calls)

     PWSCF        :   9m55.20s CPU      5.57s WALL


   This run was terminated on:  12:55:43  24Nov2025            

=------------------------------------------------------------------------------=
   JOB DONE.
=------------------------------------------------------------------------------=
