
     Program PWSCF v.7.5 starts on  4Dec2025 at 10:17:13 

     This program is part of the open-source Quantum ESPRESSO suite
     for quantum simulation of materials; please cite
         "P. Giannozzi et al., J. Phys.:Condens. Matter 21 395502 (2009);
         "P. Giannozzi et al., J. Phys.:Condens. Matter 29 465901 (2017);
         "P. Giannozzi et al., J. Chem. Phys. 152 154105 (2020);
          URL http://www.quantum-espresso.org", 
     in publications or presentations arising from this work. More details at
     http://www.quantum-espresso.org/quote

     Parallel version (MPI & OpenMP), running on      16 processor cores
     Number of MPI processes:                 4
     Threads/MPI process:                     4

     MPI processes distributed on     1 nodes
     418543 MiB available memory on the printing compute node when the environment starts

     Reading input from qe/gap8/cu_ta_gap8.in
Warning: card &CELL ignored
Warning: card &FCP ignored
Warning: card &RISM ignored

     Current dimensions of program PWSCF are:
     Max number of different atomic species (ntypx) = 10
     Max number of k-points (npk) =  40000
     Max angular momentum in pseudopotentials (lmaxx) =  4
     file Cu.paw.z_11.ld1.psl.v1.0.0-low.upf: wavefunction(s)  4S 3D renormalized
     Message from routine setup:
     using ibrav=0 with symmetry is DISCOURAGED, use correct ibrav instead

     R & G space division:  proc/nbgrp/npool/nimage =       4
     Subspace diagonalization in iterative solution of the eigenvalue problem:
     a serial algorithm will be used


     Parallelization info
     --------------------
     sticks:   dense  smooth     PW     G-vecs:    dense   smooth      PW
     Min         480     289     73                60302    28059    3503
     Max         481     290     74                60315    28070    3510
     Sum        1921    1159    295               241231   112267   14023

     Using Slab Decomposition



     bravais-lattice index     =            0
     lattice parameter (alat)  =       9.6610  a.u.
     unit-cell volume          =    2749.4532 (a.u.)^3
     number of atoms/cell      =            7
     number of atomic types    =            2
     number of electrons       =        83.00
     number of Kohn-Sham states=           50
     kinetic-energy cutoff     =      45.0000  Ry
     charge density cutoff     =     300.0000  Ry
     scf convergence threshold =      1.0E-04
     mixing beta               =       0.3000
     number of iterations used =            8  plain     mixing
     Exchange-correlation= SLA  PW   PBX  PBC
                           (   1   4   3   4   0   0   0)

     celldm(1)=   9.661002  celldm(2)=   0.000000  celldm(3)=   0.000000
     celldm(4)=   0.000000  celldm(5)=   0.000000  celldm(6)=   0.000000

     crystal axes: (cart. coord. in units of alat)
               a(1) = (   1.000000   0.000000   0.000000 )  
               a(2) = (   0.500000   0.866025   0.000000 )  
               a(3) = (   0.000000   0.000000   3.520864 )  

     reciprocal axes: (cart. coord. in units 2 pi/alat)
               b(1) = (  1.000000 -0.577350  0.000000 )  
               b(2) = (  0.000000  1.154701  0.000000 )  
               b(3) = (  0.000000  0.000000  0.284021 )  


     PseudoPot. # 1 for Ta read from file:
     /apps/QE/pseudo/efficiency/Ta_pbe_v1.uspp.F.UPF
     MD5 check sum: f8bbe9446314a3b8ea5d9f3e3836c939
     Pseudo is Ultrasoft + core correction, Zval = 13.0
     Generated by new atomic code, or converted to UPF format
     Using radial grid of  921 points,  7 beta functions with: 
                l(1) =   0
                l(2) =   0
                l(3) =   1
                l(4) =   1
                l(5) =   2
                l(6) =   2
                l(7) =   3
     Q(r) pseudized with  6 coefficients,  rinner =    1.300   1.300   1.300
                                                       1.300   1.300   1.300
                                                       1.300

     PseudoPot. # 2 for Cu read from file:
     /apps/QE/pseudo/efficiency/Cu.paw.z_11.ld1.psl.v1.0.0-low.upf
     MD5 check sum: 619f40885d92a09a85a8b37550532d0c
     Pseudo is Projector augmented-wave + core cor, Zval = 11.0
     Generated using &quot;atomic&quot; code by A. Dal Corso  v.6.3MaX
     Shape of augmentation charge: PSQ
     Using radial grid of 1199 points,  6 beta functions with: 
                l(1) =   0
                l(2) =   0
                l(3) =   1
                l(4) =   1
                l(5) =   2
                l(6) =   2
     Q(r) pseudized with 0 coefficients 


     atomic species   valence    mass     pseudopotential
     Ta               13.00   180.94788     Ta( 1.00)
     Cu               11.00    63.54600     Cu( 1.00)

     12 Sym. Ops. (no inversion) found ( 6 have fractional translation)



   Cartesian axes

     site n.     atom                  positions (alat units)
         1        Ta     tau(   1) = (   0.0000000   0.0000000   2.6546194  )
         2        Ta     tau(   2) = (   0.5000000   0.2886751   2.6546194  )
         3        Ta     tau(   3) = (   1.0000000   0.5773503   2.6546194  )
         4        Cu     tau(   4) = (   0.7500000   0.1443376   1.0897911  )
         5        Cu     tau(   5) = (   0.2500000   0.1443376   1.0897911  )
         6        Cu     tau(   6) = (   1.0000000   0.5773503   1.0897911  )
         7        Cu     tau(   7) = (   0.5000000   0.5773503   1.0897911  )

     number of k points=     1  Methfessel-Paxton smearing, width (Ry)=  0.0200
                       cart. coord. in units 2pi/alat
        k(    1) = (   0.0000000   0.0000000   0.0000000), wk =   2.0000000

     Dense  grid:   241231 G-vectors     FFT dimensions: (  54,  54, 192)

     Smooth grid:   112267 G-vectors     FFT dimensions: (  45,  45, 150)

     Estimated max dynamical RAM per process >     379.65 MB

     Estimated total dynamical RAM >       1.48 GB

     Check: negative core charge=   -0.000002

     Initial potential from superposition of free atoms

     starting charge      82.9958, renormalised to      83.0000

     negative rho (up, down):  2.879E-01 0.000E+00
     Starting wfcs are   75 randomized atomic wfcs
     Checking if some PAW data can be deallocated... 

     total cpu time spent up to now is        9.9 secs

     per-process dynamical memory:    90.7 Mb

     Self-consistent Calculation

     iteration #  1     ecut=    45.00 Ry     beta= 0.30
     Davidson diagonalization with overlap
     ethr =  1.00E-02,  avg # of iterations =  2.0

     negative rho (up, down):  2.932E-01 0.000E+00

     total cpu time spent up to now is       22.0 secs

     total energy              =   -1274.14014874 Ry
     estimated scf accuracy    <       4.67770423 Ry

     iteration #  2     ecut=    45.00 Ry     beta= 0.30
     Davidson diagonalization with overlap
     ethr =  5.64E-03,  avg # of iterations = 12.0
     Minimization algorithm failed to find Fermi energy: reverting to bisection
     Possible cause: smearing is larger than the electronic band-gap.

     negative rho (up, down):  2.933E-01 0.000E+00

     total cpu time spent up to now is       40.4 secs

     total energy              =   -1272.23913377 Ry
     estimated scf accuracy    <     240.69876807 Ry

     iteration #  3     ecut=    45.00 Ry     beta= 0.30
     Davidson diagonalization with overlap
     ethr =  5.64E-03,  avg # of iterations = 15.0

     negative rho (up, down):  2.941E-01 0.000E+00

     total cpu time spent up to now is       59.5 secs

     total energy              =   -1276.02437396 Ry
     estimated scf accuracy    <       7.97688632 Ry

     iteration #  4     ecut=    45.00 Ry     beta= 0.30
     Davidson diagonalization with overlap
     ethr =  5.64E-03,  avg # of iterations =  1.0

     negative rho (up, down):  2.956E-01 0.000E+00

     total cpu time spent up to now is       68.7 secs

     total energy              =   -1276.03207860 Ry
     estimated scf accuracy    <       2.28116604 Ry

     iteration #  5     ecut=    45.00 Ry     beta= 0.30
     Davidson diagonalization with overlap
     ethr =  2.75E-03,  avg # of iterations =  1.0

     negative rho (up, down):  2.974E-01 0.000E+00

     total cpu time spent up to now is       79.7 secs

     total energy              =   -1275.87491599 Ry
     estimated scf accuracy    <       6.17556454 Ry

     iteration #  6     ecut=    45.00 Ry     beta= 0.30
     Davidson diagonalization with overlap
     ethr =  2.75E-03,  avg # of iterations =  1.0
     Minimization algorithm failed to find Fermi energy: reverting to bisection
     Possible cause: smearing is larger than the electronic band-gap.

     negative rho (up, down):  3.107E-01 0.000E+00

     total cpu time spent up to now is       90.0 secs

     total energy              =   -1275.57085320 Ry
     estimated scf accuracy    <       1.42103517 Ry

     iteration #  7     ecut=    45.00 Ry     beta= 0.30
     Davidson diagonalization with overlap
     ethr =  1.71E-03,  avg # of iterations = 17.0

     negative rho (up, down):  3.062E-01 0.000E+00

     total cpu time spent up to now is      111.8 secs

     total energy              =   -1275.72396861 Ry
     estimated scf accuracy    <     266.39566469 Ry

     iteration #  8     ecut=    45.00 Ry     beta= 0.30
     Davidson diagonalization with overlap
     ethr =  1.71E-03,  avg # of iterations =  1.0

     negative rho (up, down):  3.070E-01 0.000E+00

     total cpu time spent up to now is      123.0 secs

     total energy              =   -1276.74080936 Ry
     estimated scf accuracy    <      22.73943074 Ry

     iteration #  9     ecut=    45.00 Ry     beta= 0.30
     Davidson diagonalization with overlap
     ethr =  1.71E-03,  avg # of iterations =  1.0

     negative rho (up, down):  3.075E-01 0.000E+00

     total cpu time spent up to now is      133.9 secs

     total energy              =   -1276.83210281 Ry
     estimated scf accuracy    <      31.38358962 Ry

     iteration # 10     ecut=    45.00 Ry     beta= 0.30
     Davidson diagonalization with overlap
     ethr =  1.71E-03,  avg # of iterations =  1.0

     negative rho (up, down):  3.073E-01 0.000E+00

     total cpu time spent up to now is      144.9 secs

     total energy              =   -1276.83525137 Ry
     estimated scf accuracy    <      32.22265319 Ry

     iteration # 11     ecut=    45.00 Ry     beta= 0.30
     Davidson diagonalization with overlap
     ethr =  1.71E-03,  avg # of iterations =  1.0

     negative rho (up, down):  3.077E-01 0.000E+00

     total cpu time spent up to now is      156.8 secs

     total energy              =   -1276.99261452 Ry
     estimated scf accuracy    <      32.20165179 Ry

     iteration # 12     ecut=    45.00 Ry     beta= 0.30
     Davidson diagonalization with overlap
     ethr =  1.71E-03,  avg # of iterations =  1.0

     negative rho (up, down):  3.031E-01 0.000E+00

     total cpu time spent up to now is      168.6 secs

     total energy              =   -1276.19025911 Ry
     estimated scf accuracy    <      77.80548701 Ry

     iteration # 13     ecut=    45.00 Ry     beta= 0.30
     Davidson diagonalization with overlap
     ethr =  1.71E-03,  avg # of iterations =  1.0

     negative rho (up, down):  3.024E-01 0.000E+00

     total cpu time spent up to now is      180.0 secs

     total energy              =   -1276.41463395 Ry
     estimated scf accuracy    <       4.05551224 Ry

     iteration # 14     ecut=    45.00 Ry     beta= 0.30
     Davidson diagonalization with overlap
     ethr =  1.71E-03,  avg # of iterations =  1.0

     negative rho (up, down):  3.030E-01 0.000E+00

     total cpu time spent up to now is      190.8 secs

     total energy              =   -1276.49869743 Ry
     estimated scf accuracy    <       4.02321857 Ry

     iteration # 15     ecut=    45.00 Ry     beta= 0.30
     Davidson diagonalization with overlap
     ethr =  1.71E-03,  avg # of iterations =  1.0

     negative rho (up, down):  3.009E-01 0.000E+00

     total cpu time spent up to now is      202.6 secs

     total energy              =   -1275.91056585 Ry
     estimated scf accuracy    <       5.07397372 Ry

     iteration # 16     ecut=    45.00 Ry     beta= 0.30
     Davidson diagonalization with overlap
     ethr =  1.71E-03,  avg # of iterations =  2.0

     negative rho (up, down):  3.029E-01 0.000E+00

     total cpu time spent up to now is      215.5 secs

     total energy              =   -1276.19704348 Ry
     estimated scf accuracy    <       0.89584091 Ry

     iteration # 17     ecut=    45.00 Ry     beta= 0.30
     Davidson diagonalization with overlap
     ethr =  1.08E-03,  avg # of iterations =  1.0

     negative rho (up, down):  3.034E-01 0.000E+00

     total cpu time spent up to now is      227.2 secs

     total energy              =   -1276.22023368 Ry
     estimated scf accuracy    <       0.45826341 Ry

     iteration # 18     ecut=    45.00 Ry     beta= 0.30
     Davidson diagonalization with overlap
     ethr =  5.52E-04,  avg # of iterations =  1.0

     negative rho (up, down):  3.037E-01 0.000E+00

     total cpu time spent up to now is      238.6 secs

     total energy              =   -1276.20853173 Ry
     estimated scf accuracy    <       0.34253568 Ry

     iteration # 19     ecut=    45.00 Ry     beta= 0.30
     Davidson diagonalization with overlap
     ethr =  4.13E-04,  avg # of iterations =  1.0

     negative rho (up, down):  3.055E-01 0.000E+00

     total cpu time spent up to now is      250.4 secs

     total energy              =   -1276.13131205 Ry
     estimated scf accuracy    <       0.33957523 Ry

     iteration # 20     ecut=    45.00 Ry     beta= 0.30
     Davidson diagonalization with overlap
     ethr =  4.09E-04,  avg # of iterations =  2.0

     negative rho (up, down):  3.067E-01 0.000E+00

     total cpu time spent up to now is      261.9 secs

     total energy              =   -1276.20103962 Ry
     estimated scf accuracy    <       4.44401769 Ry

     iteration # 21     ecut=    45.00 Ry     beta= 0.30
     Davidson diagonalization with overlap
     ethr =  4.09E-04,  avg # of iterations =  1.0

     negative rho (up, down):  3.078E-01 0.000E+00

     total cpu time spent up to now is      272.9 secs

     total energy              =   -1276.27455950 Ry
     estimated scf accuracy    <       4.28529687 Ry

     iteration # 22     ecut=    45.00 Ry     beta= 0.30
     Davidson diagonalization with overlap
     ethr =  4.09E-04,  avg # of iterations =  2.0

     negative rho (up, down):  3.071E-01 0.000E+00

     total cpu time spent up to now is      284.3 secs

     total energy              =   -1276.24723197 Ry
     estimated scf accuracy    <       3.80065095 Ry

     iteration # 23     ecut=    45.00 Ry     beta= 0.30
     Davidson diagonalization with overlap
     ethr =  4.09E-04,  avg # of iterations =  1.0

     negative rho (up, down):  3.075E-01 0.000E+00

     total cpu time spent up to now is      294.7 secs

     total energy              =   -1276.24242016 Ry
     estimated scf accuracy    <       3.93291675 Ry

     iteration # 24     ecut=    45.00 Ry     beta= 0.30
     Davidson diagonalization with overlap
     ethr =  4.09E-04,  avg # of iterations =  1.0

     negative rho (up, down):  3.064E-01 0.000E+00

     total cpu time spent up to now is      305.6 secs

     total energy              =   -1276.22325796 Ry
     estimated scf accuracy    <       4.03623608 Ry

     iteration # 25     ecut=    45.00 Ry     beta= 0.30
     Davidson diagonalization with overlap
     ethr =  4.09E-04,  avg # of iterations =  6.0

     negative rho (up, down):  3.064E-01 0.000E+00

     total cpu time spent up to now is      318.0 secs

     total energy              =   -1276.21477437 Ry
     estimated scf accuracy    <       4.31292165 Ry

     iteration # 26     ecut=    45.00 Ry     beta= 0.30
     Davidson diagonalization with overlap
     ethr =  4.09E-04,  avg # of iterations =  1.0

     negative rho (up, down):  3.064E-01 0.000E+00

     total cpu time spent up to now is      328.0 secs

     total energy              =   -1276.09217371 Ry
     estimated scf accuracy    <       4.46198272 Ry

     iteration # 27     ecut=    45.00 Ry     beta= 0.30
     Davidson diagonalization with overlap
     ethr =  4.09E-04,  avg # of iterations =  1.0

     negative rho (up, down):  3.063E-01 0.000E+00

     total cpu time spent up to now is      339.3 secs

     total energy              =   -1276.15703896 Ry
     estimated scf accuracy    <       2.43007869 Ry

     iteration # 28     ecut=    45.00 Ry     beta= 0.30
     Davidson diagonalization with overlap
     ethr =  4.09E-04,  avg # of iterations =  1.0

     negative rho (up, down):  3.061E-01 0.000E+00

     total cpu time spent up to now is      350.2 secs

     total energy              =   -1276.14859053 Ry
     estimated scf accuracy    <       0.38831465 Ry

     iteration # 29     ecut=    45.00 Ry     beta= 0.30
     Davidson diagonalization with overlap
     ethr =  4.09E-04,  avg # of iterations =  1.0

     negative rho (up, down):  3.051E-01 0.000E+00

     total cpu time spent up to now is      362.2 secs

     total energy              =   -1276.15176947 Ry
     estimated scf accuracy    <       0.11691553 Ry

     iteration # 30     ecut=    45.00 Ry     beta= 0.30
     Davidson diagonalization with overlap
     ethr =  1.41E-04,  avg # of iterations =  1.0

     negative rho (up, down):  3.048E-01 0.000E+00

     total cpu time spent up to now is      373.5 secs

     total energy              =   -1276.15144766 Ry
     estimated scf accuracy    <       0.06583727 Ry

     iteration # 31     ecut=    45.00 Ry     beta= 0.30
     Davidson diagonalization with overlap
     ethr =  7.93E-05,  avg # of iterations =  1.0

     negative rho (up, down):  3.044E-01 0.000E+00

     total cpu time spent up to now is      384.8 secs

     total energy              =   -1276.15073022 Ry
     estimated scf accuracy    <       0.00783563 Ry

     iteration # 32     ecut=    45.00 Ry     beta= 0.30
     Davidson diagonalization with overlap
     ethr =  9.44E-06,  avg # of iterations =  2.0

     negative rho (up, down):  3.040E-01 0.000E+00

     total cpu time spent up to now is      395.1 secs

     total energy              =   -1276.14979695 Ry
     estimated scf accuracy    <       0.10989978 Ry

     iteration # 33     ecut=    45.00 Ry     beta= 0.30
     Davidson diagonalization with overlap
     ethr =  9.44E-06,  avg # of iterations =  1.0

     negative rho (up, down):  3.040E-01 0.000E+00

     total cpu time spent up to now is      406.8 secs

     total energy              =   -1276.15140709 Ry
     estimated scf accuracy    <       0.01171892 Ry

     iteration # 34     ecut=    45.00 Ry     beta= 0.30
     Davidson diagonalization with overlap
     ethr =  9.44E-06,  avg # of iterations =  1.0

     negative rho (up, down):  3.040E-01 0.000E+00

     total cpu time spent up to now is      417.6 secs

     total energy              =   -1276.15113235 Ry
     estimated scf accuracy    <       0.02892600 Ry

     iteration # 35     ecut=    45.00 Ry     beta= 0.30
     Davidson diagonalization with overlap
     ethr =  9.44E-06,  avg # of iterations =  1.0

     negative rho (up, down):  3.041E-01 0.000E+00

     total cpu time spent up to now is      428.6 secs

     total energy              =   -1276.15124991 Ry
     estimated scf accuracy    <       0.00092821 Ry

     iteration # 36     ecut=    45.00 Ry     beta= 0.30
     Davidson diagonalization with overlap
     ethr =  1.12E-06,  avg # of iterations =  1.0

     negative rho (up, down):  3.040E-01 0.000E+00

     total cpu time spent up to now is      440.1 secs

     total energy              =   -1276.15126618 Ry
     estimated scf accuracy    <       0.00022495 Ry

     iteration # 37     ecut=    45.00 Ry     beta= 0.30
     Davidson diagonalization with overlap
     ethr =  2.71E-07,  avg # of iterations =  2.0

     negative rho (up, down):  3.040E-01 0.000E+00

     total cpu time spent up to now is      452.2 secs

     total energy              =   -1276.15126601 Ry
     estimated scf accuracy    <       0.00031146 Ry

     iteration # 38     ecut=    45.00 Ry     beta= 0.30
     Davidson diagonalization with overlap
     ethr =  2.71E-07,  avg # of iterations =  1.0

     negative rho (up, down):  3.040E-01 0.000E+00

     total cpu time spent up to now is      462.9 secs

     End of self-consistent calculation

          k = 0.0000 0.0000 0.0000 ( 14023 PWs)   bands (ev):

   -66.9556 -66.8819 -66.8817 -33.7843 -33.6499 -33.6497 -33.4406 -33.4406
   -33.4405 -33.4405 -32.8497 -32.8497  -6.7069  -4.9640  -4.2054  -4.2054
    -4.1552  -2.9204  -2.9204  -2.8491  -2.7147  -2.7147  -2.2821  -1.7314
    -1.7314  -1.7112  -1.6978  -1.6234  -1.6234  -1.4790  -1.4790  -1.3686
    -1.3686  -1.3300  -0.0007   0.5189   0.5772   0.5772   0.5772   0.5772
     0.7094   0.7094   0.7094   0.7094   0.8721   0.9708   1.9024   1.9024
     2.4320   2.4322

     the Fermi energy is     0.7107 ev

!    total energy              =   -1276.15125703 Ry
     estimated scf accuracy    <       0.00001537 Ry
     smearing contrib. (-TS)   =      -0.03102315 Ry
     internal energy E=F+TS    =   -1276.12023388 Ry

     The total energy is F=E-TS. E is the sum of the following terms:
     one-electron contribution =   -1285.45189790 Ry
     hartree contribution      =     682.92323020 Ry
     xc contribution           =    -304.49774369 Ry
     ewald contribution        =      -9.92090912 Ry
     one-center paw contrib.   =    -359.17291337 Ry

     convergence has been achieved in  38 iterations

     Writing all to output data dir ./tmp/CuTa_gap8.save/ :
     XML data file, charge density, pseudopotentials, collected wavefunctions

     init_run     :      4.63s CPU      9.47s WALL (       1 calls)
     electrons    :    220.61s CPU    452.97s WALL (       1 calls)

     Called by init_run:
     wfcinit      :      1.82s CPU      4.36s WALL (       1 calls)
     potinit      :      1.38s CPU      2.82s WALL (       1 calls)
     hinit0       :      0.67s CPU      1.14s WALL (       1 calls)

     Called by electrons:
     c_bands      :    105.18s CPU    245.62s WALL (      38 calls)
     sum_band     :     47.68s CPU     88.37s WALL (      38 calls)
     v_of_rho     :      8.26s CPU     17.46s WALL (      39 calls)
     newd         :     25.15s CPU     38.94s WALL (      39 calls)
     PAW_pot      :     30.73s CPU     54.04s WALL (      39 calls)
     mix_rho      :      3.51s CPU      8.18s WALL (      38 calls)

     Called by c_bands:
     init_us_2    :      0.35s CPU      0.55s WALL (      77 calls)
     cegterg      :    104.19s CPU    244.53s WALL (      38 calls)

     Called by *egterg:
     cdiaghg      :      1.59s CPU      3.66s WALL (     128 calls)
     h_psi        :     95.21s CPU    222.49s WALL (     129 calls)
     s_psi        :      0.54s CPU      0.98s WALL (     129 calls)
     g_psi        :      0.08s CPU      0.17s WALL (      90 calls)

     Called by h_psi:
     h_psi:calbec :      4.04s CPU      9.70s WALL (     129 calls)
     vloc_psi     :     90.34s CPU    210.63s WALL (     129 calls)
                                        0.00s GPU  (     129 calls)
     add_vuspsi   :      0.62s CPU      1.28s WALL (     129 calls)

     General routines
     calbec       :      5.23s CPU     12.60s WALL (     167 calls)
     fft          :      6.68s CPU     15.94s WALL (     505 calls)
     ffts         :      0.94s CPU      2.17s WALL (      77 calls)
     fftw         :    108.31s CPU    253.29s WALL (   10324 calls)
     interpolate  :      1.38s CPU      2.81s WALL (      39 calls)

     Parallel routines

     PWSCF        :   3m45.77s CPU   7m43.16s WALL


   This run was terminated on:  10:24:56   4Dec2025            

=------------------------------------------------------------------------------=
   JOB DONE.
=------------------------------------------------------------------------------=
